Ca Cr P  O 
1.0
        8.3064661026         0.0000000000         0.0000000000
       -0.0000085591        10.7130165100         0.0000000000
        0.0000469888         4.8484001562        12.6767638636
   Ca   Cr    P    O
    7    8   16   56
Direct
     0.688911974         0.759121478         0.268641353
     0.188928366         0.240893736         0.231368840
     0.188928366         0.740893722         0.231368840
     0.311070323         0.240878507         0.731361389
     0.311070323         0.740878522         0.731361389
     0.811082125         0.259099931         0.768629491
     0.811082125         0.759099960         0.768629491
     0.136167169         0.409109861         0.892932653
     0.136167169         0.909109831         0.892932653
     0.636165917         0.090896226         0.607060909
     0.636165917         0.590896249         0.607060909
     0.863816202         0.090880193         0.107035190
     0.863816202         0.590880215         0.107035190
     0.363840252         0.409108788         0.392954320
     0.363840252         0.909108758         0.392954320
     0.212064072         0.091577508         0.019810185
     0.212064072         0.591577530         0.019810185
     0.974923909         0.461151272         0.329428047
     0.974923909         0.961151242         0.329428047
     0.787927449         0.408463120         0.980188787
     0.787927449         0.908463120         0.980188787
     0.712002754         0.408505559         0.480249733
     0.712002754         0.908505559         0.480249733
     0.025085170         0.038843255         0.670575142
     0.025085170         0.538843274         0.670575142
     0.474902213         0.038796943         0.170564264
     0.474902213         0.538796961         0.170564264
     0.525131047         0.461267442         0.829398036
     0.525131047         0.961267471         0.829398036
     0.287961066         0.091506369         0.519775271
     0.287961066         0.591506362         0.519775271
     0.611960471         0.362087876         0.403216898
     0.611960471         0.862087846         0.403216898
     0.617769599         0.089298040         0.764099181
     0.617769599         0.589298010         0.764099181
     0.169965595         0.445706338         0.033557259
     0.169965595         0.945706367         0.033557259
     0.352179646         0.000706912         0.841892064
     0.352179646         0.500706911         0.841892064
     0.388035923         0.137879133         0.596751451
     0.388035923         0.637879133         0.596751451
     0.459672719         0.148759812         0.217643246
     0.459672719         0.648759842         0.217643246
     0.882324874         0.089232035         0.264194131
     0.882324874         0.589232028         0.264194131
     0.830031514         0.054227397         0.966477036
     0.830031514         0.554227412         0.966477036
     0.704978049         0.308250338         0.592502713
     0.704978049         0.808250308         0.592502713
     0.117738925         0.410685062         0.735846698
     0.117738925         0.910685062         0.735846698
     0.204987943         0.191654637         0.907470047
     0.204987943         0.691654623         0.907470047
     0.100504272         0.094389901         0.553707302
     0.100504272         0.594389915         0.553707302
     0.147806138         0.000850375         0.341861755
     0.147806138         0.500850379         0.341861755
     0.111868612         0.137866855         0.096808046
     0.111868612         0.637866855         0.096808046
     0.959626079         0.351232797         0.282314211
     0.959626079         0.851232767         0.282314211
     0.040363658         0.148823693         0.717694759
     0.040363658         0.648823678         0.717694759
     0.540296674         0.351311088         0.782381177
     0.540296674         0.851311088         0.782381177
     0.852152824         0.499164015         0.658120513
     0.852152824         0.999163985         0.658120513
     0.600412011         0.405538231         0.946314871
     0.600412011         0.905538201         0.946314871
     0.669981539         0.054368928         0.466430426
     0.669981539         0.554368913         0.466430426
     0.795013368         0.308411092         0.092467815
     0.795013368         0.808411121         0.092467815
     0.888115764         0.362127602         0.903223932
     0.888115764         0.862127602         0.903223932
     0.330017388         0.445692837         0.533557713
     0.330017388         0.945692837         0.533557713
     0.647903264         0.499257445         0.158097416
     0.647903264         0.999257445         0.158097416
     0.295031428         0.191698015         0.407529444
     0.295031428         0.691698015         0.407529444
     0.899519801         0.405623674         0.446256578
     0.899519801         0.905623674         0.446256578
     0.399598569         0.094428450         0.053706422
     0.399598569         0.594428420         0.053706422
     0.382163584         0.410627186         0.235902935
     0.382163584         0.910627186         0.235902935
