Ca Mn O 
1.0
        9.8396358490         0.0000000000         0.0000000000
       -4.9198179245         8.5213746092         0.0000000000
        0.0000000000         0.0000000000        10.8882541656
   Ca   Mn    O
   17   18   36
Direct
     0.555555582         0.444444388         0.250000000
     0.222222269         0.111111045         0.250000000
     0.222222269         0.777777731         0.250000000
     0.555555582         0.111111045         0.250000000
     0.555555582         0.777777731         0.250000000
     0.888888955         0.111111045         0.250000000
     0.888888955         0.444444388         0.250000000
     0.888888955         0.777777731         0.250000000
     0.111111045         0.222222269         0.750000000
     0.111111045         0.555555582         0.750000000
     0.111111045         0.888888955         0.750000000
     0.444444388         0.222222269         0.750000000
     0.444444388         0.555555582         0.750000000
     0.444444388         0.888888955         0.750000000
     0.777777731         0.222222269         0.750000000
     0.777777731         0.555555582         0.750000000
     0.777777731         0.888888955         0.750000000
     0.000000000         0.000000000         0.500000000
     0.000000000         0.333333343         0.500000000
     0.000000000         0.666666687         0.500000000
     0.333333343         0.000000000         0.500000000
     0.333333343         0.333333343         0.500000000
     0.333333343         0.666666687         0.500000000
     0.666666687         0.000000000         0.500000000
     0.666666687         0.333333343         0.500000000
     0.666666687         0.666666687         0.500000000
     0.000000000         0.000000000         0.000000000
     0.000000000         0.333333343         0.000000000
     0.000000000         0.666666687         0.000000000
     0.333333343         0.000000000         0.000000000
     0.333333343         0.333333343         0.000000000
     0.333333343         0.666666687         0.000000000
     0.666666687         0.000000000         0.000000000
     0.666666687         0.333333343         0.000000000
     0.666666687         0.666666687         0.000000000
     0.111111067         0.222222254         0.384055376
     0.111111067         0.555555582         0.384055376
     0.111111067         0.888888896         0.384055376
     0.444444388         0.222222254         0.384055376
     0.444444388         0.555555582         0.384055376
     0.444444388         0.888888896         0.384055376
     0.777777731         0.222222254         0.384055376
     0.777777731         0.555555582         0.384055376
     0.777777731         0.888888896         0.384055376
     0.222222254         0.111111067         0.615944564
     0.222222254         0.444444388         0.615944564
     0.222222254         0.777777731         0.615944564
     0.555555582         0.111111067         0.615944564
     0.555555582         0.444444388         0.615944564
     0.555555582         0.777777731         0.615944564
     0.888888896         0.111111067         0.615944564
     0.888888896         0.444444388         0.615944564
     0.888888896         0.777777731         0.615944564
     0.222222254         0.111111067         0.884055436
     0.222222254         0.444444388         0.884055436
     0.222222254         0.777777731         0.884055436
     0.555555582         0.111111067         0.884055436
     0.555555582         0.444444388         0.884055436
     0.555555582         0.777777731         0.884055436
     0.888888896         0.111111067         0.884055436
     0.888888896         0.444444388         0.884055436
     0.888888896         0.777777731         0.884055436
     0.111111067         0.222222254         0.115944602
     0.111111067         0.555555582         0.115944602
     0.111111067         0.888888896         0.115944602
     0.444444388         0.222222254         0.115944602
     0.444444388         0.555555582         0.115944602
     0.444444388         0.888888896         0.115944602
     0.777777731         0.222222254         0.115944602
     0.777777731         0.555555582         0.115944602
     0.777777731         0.888888896         0.115944602
