Ca Co P  O 
1.0
        8.1974182129         0.0000000000         0.0000000000
        6.3285927888         5.2102363704         0.0000000000
        7.2890555776         2.6144783116        15.2711606209
   Ca   Co    P    O
    3    4    8   28
Direct
     0.387237370         0.089390770         0.854260862
     0.387237370         0.089390770         0.354260862
     0.089390181         0.387238801         0.104255311
     0.025793839         0.971380532         0.494449675
     0.025793839         0.971380532         0.994449675
     0.971373081         0.025806332         0.244450569
     0.971373081         0.025806332         0.744450569
     0.558741689         0.231369078         0.421481758
     0.558741689         0.231369078         0.921481729
     0.231359944         0.558757484         0.171469316
     0.231359944         0.558757484         0.671469331
     0.756333768         0.450363845         0.330137253
     0.756333768         0.450363845         0.830137253
     0.450391293         0.756291449         0.080139332
     0.450391293         0.756291449         0.580139339
     0.685687125         0.097594246         0.342736244
     0.685687125         0.097594246         0.842736244
     0.728642821         0.062734105         0.991461337
     0.728642821         0.062734105         0.491461337
     0.329303265         0.294655561         0.207300320
     0.329303265         0.294655561         0.707300305
     0.294574857         0.329335362         0.457314789
     0.294574857         0.329335362         0.957314789
     0.963684559         0.250618696         0.391173601
     0.963684559         0.250618696         0.891173601
     0.876193523         0.331141949         0.247754604
     0.876193523         0.331141949         0.747754574
     0.062770642         0.728593409         0.241446048
     0.062770642         0.728593409         0.741446018
     0.097636461         0.685628533         0.092771001
     0.097636461         0.685628533         0.592770994
     0.717861831         0.639934719         0.058457170
     0.717861831         0.639934719         0.558457196
     0.514673293         0.481582552         0.381536126
     0.514673293         0.481582552         0.881536126
     0.481543720         0.514663577         0.131547689
     0.481543720         0.514663577         0.631547689
     0.639948726         0.717820764         0.308459580
     0.639948726         0.717820764         0.808459580
     0.331126750         0.876212180         0.497736454
     0.331126750         0.876212180         0.997736454
     0.250574112         0.963729084         0.141189024
     0.250574112         0.963729084         0.641189039
