Ca V  F 
1.0
       18.9673633575         0.0000000000         0.0000000000
       -0.0002048672        10.6105279903         0.0000000000
       -0.0001849835         5.8486418994         8.1042392477
   Ca    V    F
   15   16   80
Direct
     0.452724040         0.694620371         0.195142657
     0.297501743         0.435348302         0.343609661
     0.297501743         0.935348272         0.343609661
     0.047252454         0.194604352         0.695106804
     0.047252454         0.694604337         0.695106804
     0.547269940         0.305333704         0.804868340
     0.547269940         0.805333734         0.804868340
     0.797479630         0.064757854         0.156359017
     0.797479630         0.564757824         0.156359017
     0.202511996         0.435280859         0.843577385
     0.202511996         0.935280859         0.843577385
     0.952766597         0.305436701         0.304857284
     0.952766597         0.805436730         0.304857284
     0.702499986         0.064605430         0.656477094
     0.702499986         0.564605415         0.656477094
     0.115297318         0.004840827         0.141993538
     0.115297318         0.504840851         0.141993538
     0.374901831         0.084575526         0.955757678
     0.374901831         0.584575534         0.955757678
     0.615342200         0.495167941         0.358253598
     0.615342200         0.995167971         0.358253598
     0.874897599         0.415530086         0.544248939
     0.874897599         0.915530086         0.544248939
     0.125133753         0.084486768         0.455775440
     0.125133753         0.584486783         0.455775440
     0.384662062         0.004955986         0.641701698
     0.384662062         0.504956007         0.641701698
     0.625142395         0.415378332         0.044389986
     0.625142395         0.915378332         0.044389986
     0.884712160         0.495028287         0.858130693
     0.884712160         0.995028257         0.858130693
     0.346813411         0.209983841         0.540265322
     0.346813411         0.709983826         0.540265322
     0.157217696         0.154518172         0.595120370
     0.157217696         0.654518187         0.595120370
     0.378058821         0.381461859         0.176188335
     0.378058821         0.881461859         0.176188335
     0.598971546         0.533187091         0.134908557
     0.598971546         0.033187091         0.134908557
     0.121381372         0.041130688         0.919868410
     0.121381372         0.541130662         0.919868410
     0.912233949         0.220265776         0.753203988
     0.912233949         0.720265746         0.753203988
     0.280150533         0.068334617         0.898621976
     0.280150533         0.568334639         0.898621976
     0.208828509         0.415461749         0.212930694
     0.208828509         0.915461779         0.212930694
     0.515560925         0.463583052         0.381768703
     0.515560925         0.963583052         0.381768703
     0.969733357         0.380283833         0.481350392
     0.969733357         0.880283833         0.481350392
     0.469744891         0.119762510         0.018572005
     0.469744891         0.619762540         0.018572005
     0.015613176         0.036448818         0.118147954
     0.015613176         0.536448836         0.118147954
     0.708852708         0.084576748         0.286984533
     0.708852708         0.584576726         0.286984533
     0.780181170         0.431761920         0.601369262
     0.780181170         0.931761920         0.601369262
     0.412225932         0.279783934         0.746848941
     0.412225932         0.779783964         0.746848941
     0.098938257         0.966766953         0.365071505
     0.098938257         0.466766953         0.365071505
     0.621340275         0.458860040         0.580037892
     0.621340275         0.958860040         0.580037892
     0.878087640         0.118474737         0.323887229
     0.878087640         0.618474722         0.323887229
     0.657258093         0.345515132         0.904903710
     0.657258093         0.845515132         0.904903710
     0.846779883         0.290038496         0.959801078
     0.846779883         0.790038466         0.959801078
     0.153213322         0.209996790         0.040190578
     0.153213322         0.709996819         0.040190578
     0.342742980         0.154480293         0.095084235
     0.342742980         0.654480278         0.095084235
     0.121895961         0.381505579         0.676110566
     0.121895961         0.881505609         0.676110566
     0.378663599         0.041115113         0.420021653
     0.378663599         0.541115105         0.420021653
     0.901039898         0.533179283         0.634918988
     0.901039898         0.033179283         0.634918988
     0.587754309         0.220171064         0.253110766
     0.587754309         0.720171094         0.253110766
     0.219871596         0.068222255         0.398619622
     0.219871596         0.568222284         0.398619622
     0.291163325         0.415412426         0.713046432
     0.291163325         0.915412426         0.713046432
     0.984359562         0.463642687         0.881784618
     0.984359562         0.963642716         0.881784618
     0.530255258         0.380246103         0.981389284
     0.530255258         0.880246103         0.981389284
     0.030266769         0.119706340         0.518631995
     0.030266769         0.619706333         0.518631995
     0.484425157         0.036352035         0.618281841
     0.484425157         0.536352038         0.618281841
     0.791179240         0.084568262         0.787021577
     0.791179240         0.584568262         0.787021577
     0.719834924         0.431667238         0.101380594
     0.719834924         0.931667209         0.101380594
     0.087745078         0.279780000         0.246785536
     0.087745078         0.779780030         0.246785536
     0.878606856         0.458890438         0.080097988
     0.878606856         0.958890438         0.080097988
     0.401019096         0.966847897         0.865068734
     0.401019096         0.466847897         0.865068734
     0.621934056         0.118570372         0.823781133
     0.621934056         0.618570387         0.823781133
     0.842758596         0.345503420         0.404852122
     0.842758596         0.845503449         0.404852122
     0.653202474         0.289990872         0.459721297
     0.653202474         0.789990902         0.459721297
