Ca Sc Mn O                              
   1.00000000000000     
    11.5374555587999996    0.0000000000000000    0.0000000000000000
    -8.6585401879999999    7.6251270536000000    0.0000000000000000
     0.0000000000000000    0.0000000000000000   10.1281061171999998
Ca Sc Mn O               
7               8              16              40
Selective dynamics
Direct
  0.2385820744241869  0.2614182709128059  0.2500300550447534   T   T   T
  0.2328163327622050  0.7549110487749928  0.2500138657863928   T   T   T
  0.7450883474533612  0.2671845164033471  0.2500108012482656   T   T   T
  0.7371984560847409  0.7628010391774467  0.2500029293163593   T   T   T
  0.2568996366454002  0.7390693530533383  0.7499740198189144   T   T   T
  0.7609295234764772  0.2431015169359227  0.7499741219016443   T   T   T
  0.7626702226161726  0.7373355501439534  0.7500003687876529   T   T   T
  0.3851771446810801  0.1148255091061898  0.2500016372511737   T   T   T
  0.3839174321701009  0.6143880592563846  0.2500091113210416   T   T   T
  0.8856120118507604  0.1160815911636917  0.2500085769800933   T   T   T
  0.8839546795204640  0.6160398784362613  0.2499813598152443   T   T   T
  0.1186225679268276  0.3813754923996697  0.7499756080882207   T   T   T
  0.1234491714075290  0.9050836133407074  0.7500001335033986   T   T   T
  0.5949167308081087  0.3765480170175124  0.7499999446966612   T   T   T
  0.6174708495112426  0.8825277641511136  0.7500189105985768   T   T   T
  0.4366750281836360  0.0633279298433607  0.5625003681794496   T   T   T
  0.4333728538240678  0.5559371248428917  0.5649458641831799   T   T   T
  0.9440579184536020  0.0666253103333077  0.5649512564943606   T   T   T
  0.9328556192641457  0.5671448558156271  0.5651794670804620   T   T   T
  0.4366915113202268  0.0633094423949530  0.9375181812116438   T   T   T
  0.4333717138145943  0.5559443712079641  0.9350474595617868   T   T   T
  0.9440616937707986  0.0666282026874754  0.9350510234535392   T   T   T
  0.9328706702891481  0.5671305398179811  0.9347686655084786   T   T   T
  0.0724701170722923  0.4275299812499185  0.0530740357139408   T   T   T
  0.0636677555654188  0.9325703187176444  0.0640617199878548   T   T   T
  0.5674275704511871  0.4363295231079860  0.0640629636274994   T   T   T
  0.5668267714176949  0.9331703525923984  0.0629841857401772   T   T   T
  0.0725031048207114  0.4274967754024246  0.4468008538156454   T   T   T
  0.0636634705445616  0.9325531281590003  0.4359426898115828   T   T   T
  0.5674478923579613  0.4363353578976543  0.4359401440412398   T   T   T
  0.5667902062600234  0.9332072918346555  0.4371202700331906   T   T   T
  0.4635404523886635  0.0364597449482744  0.1208194055765617   T   T   T
  0.4626020723076039  0.5355691100232960  0.1210528248236287   T   T   T
  0.9644305021491562  0.0373948351859283  0.1210616482300750   T   T   T
  0.9598379253055214  0.5401671879222718  0.1186774813525489   T   T   T
  0.4635634204643893  0.0364349193258064  0.3792124240554315   T   T   T
  0.4626345088602619  0.5355966774813368  0.3789464554409747   T   T   T
  0.9644008401796924  0.0373646120445983  0.3789531495455591   T   T   T
  0.9598113865244500  0.5401889098301567  0.3812977756124241   T   T   T
  0.3219848928858156  0.1780204681052027  0.4092850861237878   T   T   T
  0.3235079692006622  0.6803531570888595  0.4087440122626305   T   T   T
  0.8196455348967930  0.1764907496924479  0.4087429084139202   T   T   T
  0.8198197274996630  0.6801807749361046  0.4066047133159287   T   T   T
  0.3219761996748005  0.1780232884729074  0.0907344603518538   T   T   T
  0.3237450399203894  0.6805950541958978  0.0912796282902235   T   T   T
  0.8194055400993037  0.1762537695017699  0.0912811332855341   T   T   T
  0.8198106135844654  0.6801903224695849  0.0933890929799617   T   T   T
  0.1143096748765515  0.3856864338223573  0.2501209250988126   T   T   T
  0.1132008609965780  0.8880529746083212  0.2500010429798678   T   T   T
  0.6119493825405300  0.3868011702857075  0.2500009867071000   T   T   T
  0.6149556090202779  0.8850468815446249  0.2499727854666247   T   T   T
  0.0362632798962963  0.4637357646531513  0.6237009737458123   T   T   T
  0.0227101072801617  0.9493077564836199  0.6146099414044173   T   T   T
  0.5506911975410844  0.4772900818736048  0.6146076709088533   T   T   T
  0.5379824944988272  0.9620166076164622  0.6204720294288890   T   T   T
  0.1644566466566246  0.3355321899920867  0.5646600261798440   T   T   T
  0.1756620444143664  0.8227033497209462  0.5897145425375996   T   T   T
  0.6772963239040308  0.3243391131840596  0.5897148708716529   T   T   T
  0.6780511307620642  0.8219569828993443  0.5885644724138785   T   T   T
  0.3974305200384265  0.1025746640226686  0.7499962736978034   T   T   T
  0.3904328314134347  0.6053463587113441  0.7499992480303277   T   T   T
  0.8946556384679880  0.1095691030611476  0.7499974980227435   T   T   T
  0.8852220821668055  0.6147773029228816  0.7499873589302339   T   T   T
  0.0361991667601345  0.4637986164342180  0.8760180651196876   T   T   T
  0.0227290543736061  0.9493324473221847  0.8853888572024786   T   T   T
  0.5506671411248263  0.4772732742353014  0.8853827188835055   T   T   T
  0.5380111109388466  0.9619883810242698  0.8797230576162747   T   T   T
  0.1644223705376078  0.3355911049679960  0.9353774989227901   T   T   T
  0.1756778320789536  0.8227068391897419  0.9102574940983033   T   T   T
  0.6772940947098576  0.3243235365529671  0.9102581108754890   T   T   T
  0.6780539803117449  0.8219317754679025  0.9114402305935485   T   T   T
 
  0.00000000E+00  0.00000000E+00  0.00000000E+00
  0.00000000E+00  0.00000000E+00  0.00000000E+00
  0.00000000E+00  0.00000000E+00  0.00000000E+00
  0.00000000E+00  0.00000000E+00  0.00000000E+00
  0.00000000E+00  0.00000000E+00  0.00000000E+00
  0.00000000E+00  0.00000000E+00  0.00000000E+00
  0.00000000E+00  0.00000000E+00  0.00000000E+00
  0.00000000E+00  0.00000000E+00  0.00000000E+00
  0.00000000E+00  0.00000000E+00  0.00000000E+00
  0.00000000E+00  0.00000000E+00  0.00000000E+00
  0.00000000E+00  0.00000000E+00  0.00000000E+00
  0.00000000E+00  0.00000000E+00  0.00000000E+00
  0.00000000E+00  0.00000000E+00  0.00000000E+00
  0.00000000E+00  0.00000000E+00  0.00000000E+00
  0.00000000E+00  0.00000000E+00  0.00000000E+00
  0.00000000E+00  0.00000000E+00  0.00000000E+00
  0.00000000E+00  0.00000000E+00  0.00000000E+00
  0.00000000E+00  0.00000000E+00  0.00000000E+00
  0.00000000E+00  0.00000000E+00  0.00000000E+00
  0.00000000E+00  0.00000000E+00  0.00000000E+00
  0.00000000E+00  0.00000000E+00  0.00000000E+00
  0.00000000E+00  0.00000000E+00  0.00000000E+00
  0.00000000E+00  0.00000000E+00  0.00000000E+00
  0.00000000E+00  0.00000000E+00  0.00000000E+00
  0.00000000E+00  0.00000000E+00  0.00000000E+00
  0.00000000E+00  0.00000000E+00  0.00000000E+00
  0.00000000E+00  0.00000000E+00  0.00000000E+00
  0.00000000E+00  0.00000000E+00  0.00000000E+00
  0.00000000E+00  0.00000000E+00  0.00000000E+00
  0.00000000E+00  0.00000000E+00  0.00000000E+00
  0.00000000E+00  0.00000000E+00  0.00000000E+00
  0.00000000E+00  0.00000000E+00  0.00000000E+00
  0.00000000E+00  0.00000000E+00  0.00000000E+00
  0.00000000E+00  0.00000000E+00  0.00000000E+00
  0.00000000E+00  0.00000000E+00  0.00000000E+00
  0.00000000E+00  0.00000000E+00  0.00000000E+00
  0.00000000E+00  0.00000000E+00  0.00000000E+00
  0.00000000E+00  0.00000000E+00  0.00000000E+00
  0.00000000E+00  0.00000000E+00  0.00000000E+00
  0.00000000E+00  0.00000000E+00  0.00000000E+00
  0.00000000E+00  0.00000000E+00  0.00000000E+00
  0.00000000E+00  0.00000000E+00  0.00000000E+00
  0.00000000E+00  0.00000000E+00  0.00000000E+00
  0.00000000E+00  0.00000000E+00  0.00000000E+00
  0.00000000E+00  0.00000000E+00  0.00000000E+00
  0.00000000E+00  0.00000000E+00  0.00000000E+00
  0.00000000E+00  0.00000000E+00  0.00000000E+00
  0.00000000E+00  0.00000000E+00  0.00000000E+00
  0.00000000E+00  0.00000000E+00  0.00000000E+00
  0.00000000E+00  0.00000000E+00  0.00000000E+00
  0.00000000E+00  0.00000000E+00  0.00000000E+00
  0.00000000E+00  0.00000000E+00  0.00000000E+00
  0.00000000E+00  0.00000000E+00  0.00000000E+00
  0.00000000E+00  0.00000000E+00  0.00000000E+00
  0.00000000E+00  0.00000000E+00  0.00000000E+00
  0.00000000E+00  0.00000000E+00  0.00000000E+00
  0.00000000E+00  0.00000000E+00  0.00000000E+00
  0.00000000E+00  0.00000000E+00  0.00000000E+00
  0.00000000E+00  0.00000000E+00  0.00000000E+00
  0.00000000E+00  0.00000000E+00  0.00000000E+00
  0.00000000E+00  0.00000000E+00  0.00000000E+00
  0.00000000E+00  0.00000000E+00  0.00000000E+00
  0.00000000E+00  0.00000000E+00  0.00000000E+00
  0.00000000E+00  0.00000000E+00  0.00000000E+00
  0.00000000E+00  0.00000000E+00  0.00000000E+00
  0.00000000E+00  0.00000000E+00  0.00000000E+00
  0.00000000E+00  0.00000000E+00  0.00000000E+00
  0.00000000E+00  0.00000000E+00  0.00000000E+00
  0.00000000E+00  0.00000000E+00  0.00000000E+00
  0.00000000E+00  0.00000000E+00  0.00000000E+00
  0.00000000E+00  0.00000000E+00  0.00000000E+00
