Ca Ti O 
 1.0000000000000000
    12.4370679855000006    0.0000000000000000    0.0000000000000000
    -1.0659715856000000   13.9755822961000007    0.0000000000000000
    -0.5859648079000001   -2.0967458091000002   10.1808118850000007
 Ca  Ti  O  
  11  48  96
Selective dynamics
Cartesian
  8.5403265169413025  9.6677336162064602  5.7911510937289270   T   T   T
 -0.0711847343302259  2.8598554437629975  0.6857810093059027   T   T   T
 -0.6259177014780587  9.8330304081114512  0.6976595910657162   T   T   T
  6.1426859721316287  2.8202499865230033  0.6824390318241448   T   T   T
  5.6114666231561197  9.8514014995493575  0.6485446470063090   T   T   T
  3.9138843174610627  2.5480453489474071  7.1274138786376877   T   T   T
  3.3185419707722494  9.4745672850887388  7.1378542554666167   T   T   T
 10.1353077379522691  2.5520076060276708  7.1473169991357786   T   T   T
  2.1706285797603031  3.1198184834435847  4.1353393429932437   T   T   T
  1.7631214316008317 10.1126949469900911  4.2687033196512907   T   T   T
  8.3836253431179344  3.0086729257693841  4.1303484802523691   T   T   T
 -0.9641808359947305  4.6639923868342255 10.1296633515972481   T   T   T
 -1.5741624131789915 11.6672029170703109 10.2109306720083950   T   T   T
  5.2113379382027780  4.7063020055795324 10.0957001793491585   T   T   T
  4.7011337502804746 11.6589898456244789 10.1099225021581010   T   T   T
  0.3528548115634154 13.4521954662891012  2.5459808143323426   T   T   T
  0.8623135789455223  6.4922795438285767  2.6062713276627600   T   T   T
  6.6396377755622717 13.4555274873817687  2.5180094644250475   T   T   T
  7.0917233564730289  6.4629943836494022  2.5514622207629549   T   T   T
  4.1085570986256554 -1.3935573944203605  7.6706353161213476   T   T   T
  3.6727600983001141  5.6383746109348385  7.6863020863596345   T   T   T
 10.3941205997548991 -1.4609299161065963  7.6636633293773704   T   T   T
  9.8221132710014931  5.6285384847739071  7.7471332222518452   T   T   T
  2.7696052094806713 -0.8670395082877317  5.1460979782985827   T   T   T
  2.2533482652167947  6.1065577519622094  5.1152838165329220   T   T   T
  9.0085821492743197 -0.9701552999243976  5.0704535891684968   T   T   T
  8.4501170941344181  6.0144429113481523  5.0817338399472209   T   T   T
  0.9602732048787217  0.4100523966612255  8.0440863795467958   T   T   T
  0.4734729209361959  7.3636809439146580  8.0750573284325693   T   T   T
  7.2182209410533451  0.4191875242354781  8.0391538529552058   T   T   T
  6.7844380217602831  7.4953962971001928  8.0142509339506027   T   T   T
 -0.3899483800355724  0.8629381802821962  5.4893688846831523   T   T   T
 -0.9090849593648757  7.8048386523005862  5.4963167261775130   T   T   T
  5.8945488819188583  0.8733410483434912  5.5001254730668903   T   T   T
  5.3805109666128148  7.9518403091732770  5.4256998435145878   T   T   T
  4.5213338256462174  1.4367922125747332  3.0296983490050335   T   T   T
  3.9794424282561742  8.4010907633888223  2.9875444750317315   T   T   T
 10.7729790438633142  1.4338170657076164  3.0362089375589871   T   T   T
 10.1024025298973417  8.3787871005448640  2.9585640569469156   T   T   T
  3.0905468162775835  1.9236543823678858  0.4491163703186440   T   T   T
  2.5452076636719108  8.9269488918680295  0.4570424666005601   T   T   T
  9.3260192368033383  1.9313021381765771  0.4047501522513399   T   T   T
  8.7297973049901749  8.9371308791777082  0.5361251686893398   T   T   T
  2.1652039709891659  2.8932443055249819  9.8185816148915510   T   T   T
  1.5952243465126075  9.8900964298025897  9.8008929124627979   T   T   T
  8.3657656456728482  2.8930503127177620  9.8181094145929979   T   T   T
  7.9517402417909704  9.8694142757100103  9.7351274947676867   T   T   T
  0.7038531957888861  3.4766428091875499  7.1911645369353643   T   T   T
 -0.3307945377400673 10.1561962086678808  7.3410145194577732   T   T   T
  6.8914936250156140  3.4786462072550850  7.2223338579638821   T   T   T
  6.2466777869035122 10.5257269952063695  7.2697826324603776   T   T   T
  4.0467113076626289  4.5682244505050456  2.0380566163572826   T   T   T
  3.5035418261824485 11.5494907873755963  2.0783149645551902   T   T   T
 10.2582765064264425  4.5397414792587369  2.0627338005437901   T   T   T
  9.6091870662899890 11.4683387578945606  2.2113529906650342   T   T   T
  5.3431449012621117  4.0332106343951244  4.6324343676201467   T   T   T
  5.0236420342182715 10.9667521859204893  4.5447435362105209   T   T   T
 11.5909628913657166  4.0191446911774662  4.6546379147093528   T   T   T
 11.1722061042072021 10.9739180578123730  4.5848950861548206   T   T   T
 -0.4830959462243197 -0.7637714126093036  8.7752339399437709   T   T   T
 -1.0144877378790143  6.2297221121808528  8.7907363922066839   T   T   T
  5.7421797689102698 -0.7698323261524621  8.7657794519469423   T   T   T
  5.2105376562359957  6.2828434346994673  8.7553824427170355   T   T   T
  2.9122282325180224  0.3656143143971594  3.5952136717994541   T   T   T
  2.3646126282097035  7.3919957017591091  3.6023860025508854   T   T   T
  9.1315471586694503  0.3819307475301265  3.5757117202316464   T   T   T
  8.6144860499612452  7.2713351976362661  3.5960803494393887   T   T   T
  4.3324381877955460 -0.1070217252766359  6.1676908096256389   T   T   T
  3.8201603091308280  6.8694560735268997  6.1682721531323566   T   T   T
 10.5216457997381241 -0.1614922703281843  6.1823063991705043   T   T   T
 10.0236542197265681  6.7029606983054393  6.1055952235456203   T   T   T
  1.4683998592242884  0.8488899289130241  1.0224575956206077   T   T   T
  0.9267528465947106  7.8261562979846602  1.0087194297364048   T   T   T
  7.6886482731288677  0.8476918349705134  0.9844139557677170   T   T   T
  7.1403358994770132  7.8453854488553585  1.0015979756216089   T   T   T
  1.3109116526531193 -0.0542294243356381  6.1566549639816293   T   T   T
  0.7789129990275609  6.9823044391450875  6.1689187786092763   T   T   T
  7.5067434466546148  0.0123787499274376  6.1242291445363239   T   T   T
  7.0825865975164675  7.0504493370888541  6.1157704644958040   T   T   T
  2.7206505671659507 -0.5643757326035999  8.6352921669291263   T   T   T
  2.1818037969322770  6.4668982289753147  8.6284283140716216   T   T   T
  8.9505529182143455 -0.5184475312186065  8.6613521996088298   T   T   T
  8.4108461251212301  6.4412597902952848  8.6645022162570733   T   T   T
 -0.0671729645022031  0.4602462894219384  3.6056114806635473   T   T   T
 -0.6150622703513310  7.4299442025317424  3.5853622687729736   T   T   T
  6.1344302458564037  0.5311842372612926  3.5856524765339994   T   T   T
  5.5799613937336243  7.4266599547969303  3.5815847632700337   T   T   T
  4.7254174923349996  1.0191194801674190  1.0446798323090771   T   T   T
  4.2014405104610164  8.0207578459698006  1.0244880370813774   T   T   T
 10.9744710703444142  1.0455845600275226  1.0596462562906233   T   T   T
 10.4014298656433422  8.0098120144711089  1.0324223780919410   T   T   T
  1.2022552006888720  1.1444663681528482  9.9093831799651593   T   T   T
  0.6411459302193040  8.1428892727408879  9.9218803617720681   T   T   T
  7.4107795157236236  1.1608008847671087  9.9211915282813798   T   T   T
  6.8970860459140999  8.1491598628060338  9.8781100763864753   T   T   T
 -0.3788981354243496  1.6187941183849208  7.4992847841144057   T   T   T
 -1.1730793252653051  8.5563457910254197  7.5069878671152317   T   T   T
  5.8410791004487619  1.6339437843937274  7.5126688517296207   T   T   T
  5.3519361961433347  8.6934442218252350  7.4623589875833707   T   T   T
  3.0705381690032527  2.7565204237051764  2.1970884523072383   T   T   T
  2.5099101611279599  9.7549933652495220  2.2335985154004558   T   T   T
  9.3089582322537652  2.7468371317840599  2.1940231204033243   T   T   T
  8.6841066431449594  9.7080845107440510  2.3429043732032300   T   T   T
  4.2606355364331963  2.3125561803962329  4.8742406968907952   T   T   T
  3.8475657579839528  9.2572979339153569  4.8936163990050083   T   T   T
 10.5013037642834881  2.2765417187311363  4.8976461191686260   T   T   T
 10.2546672009364510  9.0949134233838969  4.7584605827033339   T   T   T
  1.9670904871258479  2.1633638481060529  7.8730026248266709   T   T   T
  1.3099534217656548  9.1942094473692055  7.8582981776938103   T   T   T
  8.1818394741752698  2.1719448197578273  7.8764053686935558   T   T   T
  7.8123848920368868  9.2006459641043286  7.8398574445455145   T   T   T
  0.5168895463032271  2.6409797096847383  5.4096275253845958   T   T   T
  0.0376365833794593  9.6678411219225460  5.4964551108108513   T   T   T
  6.7040562683604987  2.6660242494152389  5.4167656482844668   T   T   T
  6.3606544638520415  9.6932837276725188  5.3212094145718671   T   T   T
  5.5362192809225856  3.1868349050964313  2.8181272636164754   T   T   T
  4.9795905861113630 10.1680652881837066  2.7711728579764543   T   T   T
 11.7879414131807305  3.1749060181830733  2.8384603191714088   T   T   T
 11.1942994687927069 10.2037437441458980  2.8028685704253835   T   T   T
  4.1755838079609155  3.7367518577787311  0.1344628815468210   T   T   T
  3.6071441993532982 10.7412551324139862  0.1404585425899024   T   T   T
 10.3901507274477698  3.7504498876865520  0.1373256873387171   T   T   T
  9.8196076500064997 10.7252659767621470  0.2640435737228496   T   T   T
  0.4181109059065287  3.8338168329275577  9.1457496167127115   T   T   T
 -0.1882707722361137 10.7865305625193617  9.2152836263906881   T   T   T
  6.6345996372259419  3.8598956675197478  9.1391887940877155   T   T   T
  6.1353583671577363 10.8012264722511571  9.1768490897936790   T   T   T
  5.2051812614139958  4.4165030064317898  6.6166210996049326   T   T   T
  4.7020616088854892 11.3531939890261491  6.5890531253500946   T   T   T
 11.4527897439670756  4.3837192876565014  6.6235196708268180   T   T   T
 10.6899352194338491 11.2986222850852460  6.5860704937205021   T   T   T
  3.7164814709954022  4.9304944594603262  4.0322392289363744   T   T   T
  3.3056829090411171 11.8948176162342794  3.9905482573128030   T   T   T
  9.9129771677166136  4.8473422599541207  4.0286194458243960   T   T   T
  9.4282393820641772 11.8416957951478192  4.1605611267440841   T   T   T
  2.4129869425312576  5.4839609233059390  1.4931726087042039   T   T   T
  1.8680477162017313 12.4698670112008561  1.4785434017472037   T   T   T
  8.6180043425634114  5.4720715199256746  1.4868453834084219   T   T   T
  8.0987379451812220 12.4502043647330698  1.4628757987185161   T   T   T
  2.2651490879923863  4.5341507872152853  6.5235741633807924   T   T   T
  1.9330055718743000 11.5921481178786969  6.4332686413808693   T   T   T
  8.4677668136597291  4.5192913284325291  6.5524671959215155   T   T   T
  7.7885488706397377 11.6575494372995596  6.6391545296879890   T   T   T
  3.6120658511005863  4.0716757853043193  9.0354536164011190   T   T   T
  3.0846721433689526 11.0269490981460141  9.0187190132450326   T   T   T
  9.8409435861085228  4.0656460358817457  9.0392928159960917   T   T   T
  9.2866695814593765 11.1161719617523538  9.1377976423458573   T   T   T
  0.8095567683277601  5.1023274445094566  4.1011631354773783   T   T   T
  0.3221848775290034 12.0561314439834604  4.0929954440571130   T   T   T
  7.0153714145340400  5.0681558498042643  4.0900570465303581   T   T   T
  6.4613658031640355 12.1696621670244234  4.0442943812847671   T   T   T
  5.6264243374224741  5.5851184288673474  1.4585297034468980   T   T   T
  5.0950640245976668 12.5760704318473877  1.4631092719077496   T   T   T
 11.8503997250217150  5.5663636890651338  1.4763672322138972   T   T   T
 11.2594422212438516 12.5790134791031338  1.5381381843142772   T   T   T
