Ca V  Ni O 
1.0
       11.0735273361         0.0000000000         0.0000000000
       -4.3491624220        13.4761848977         0.0000000000
        4.3500712002        -1.6584917062        13.3717727776
   Ca    V   Ni    O
   15   32   16   96
Direct
     0.624938726         0.152847350         0.152955949
     0.124938719         0.152847350         0.152955949
     0.124938719         0.152847350         0.652955949
     0.124938719         0.652847350         0.152955949
     0.124938719         0.652847350         0.652955949
     0.624938726         0.152847350         0.652955949
     0.624938726         0.652847350         0.152955949
     0.624938726         0.652847350         0.652955949
     0.374978840         0.346633583         0.346584439
     0.374978840         0.346633583         0.846584439
     0.374978840         0.846633554         0.346584439
     0.374978840         0.846633554         0.846584439
     0.874978840         0.346633583         0.846584439
     0.874978840         0.846633554         0.346584439
     0.874978840         0.846633554         0.846584439
     0.178107604         0.418464690         0.186944664
     0.178107604         0.418464690         0.686944664
     0.178107604         0.918464661         0.186944664
     0.178107604         0.918464661         0.686944664
     0.678107619         0.418464690         0.186944664
     0.678107619         0.418464690         0.686944664
     0.678107619         0.918464661         0.186944664
     0.678107619         0.918464661         0.686944664
     0.322564304         0.083181508         0.315055609
     0.322564304         0.083181508         0.815055609
     0.322564304         0.583181500         0.315055609
     0.322564304         0.583181500         0.815055609
     0.822564304         0.083181508         0.315055609
     0.822564304         0.083181508         0.815055609
     0.822564304         0.583181500         0.315055609
     0.822564304         0.583181500         0.815055609
     0.071991213         0.187046215         0.418303847
     0.071991213         0.187046215         0.918303847
     0.071991213         0.687046230         0.418303847
     0.071991213         0.687046230         0.918303847
     0.571991205         0.187046215         0.418303847
     0.571991205         0.187046215         0.918303847
     0.571991205         0.687046230         0.418303847
     0.571991205         0.687046230         0.918303847
     0.427365869         0.315050125         0.083078206
     0.427365869         0.315050125         0.583078206
     0.427365869         0.815050125         0.083078206
     0.427365869         0.815050125         0.583078206
     0.927365899         0.315050125         0.083078206
     0.927365899         0.315050125         0.583078206
     0.927365899         0.815050125         0.083078206
     0.927365899         0.815050125         0.583078206
     0.375026554         0.037350722         0.037399814
     0.375026554         0.037350722         0.537399828
     0.375026554         0.537350714         0.037399814
     0.375026554         0.537350714         0.537399828
     0.875026584         0.037350722         0.037399814
     0.875026584         0.037350722         0.537399828
     0.875026584         0.537350714         0.037399814
     0.875026584         0.537350714         0.537399828
     0.124952465         0.463418901         0.463435054
     0.124952465         0.463418901         0.963435054
     0.124952465         0.963418901         0.463435054
     0.124952465         0.963418901         0.963435054
     0.624952435         0.463418901         0.463435054
     0.624952435         0.463418901         0.963435054
     0.624952435         0.963418901         0.463435054
     0.624952435         0.963418901         0.963435054
     0.325061738         0.502902985         0.400209695
     0.325061738         0.502902985         0.900209665
     0.325061738         0.002902985         0.400209695
     0.325061738         0.002902985         0.900209665
     0.825061738         0.502902985         0.400209695
     0.825061738         0.502902985         0.900209665
     0.825061738         0.002902985         0.400209695
     0.825061738         0.002902985         0.900209665
     0.075269960         0.100404970         0.497557729
     0.075269960         0.100404970         0.997557759
     0.075269960         0.600404978         0.497557729
     0.075269960         0.600404978         0.997557759
     0.575269938         0.100404970         0.497557729
     0.575269938         0.100404970         0.997557759
     0.575269938         0.600404978         0.497557729
     0.575269938         0.600404978         0.997557759
     0.424964964         0.400093615         0.502943873
     0.424964964         0.400093615         0.002943873
     0.424964964         0.900093615         0.502943873
     0.424964964         0.900093615         0.002943873
     0.924964964         0.400093615         0.502943873
     0.924964964         0.400093615         0.002943873
     0.924964964         0.900093615         0.502943873
     0.924964964         0.900093615         0.002943873
     0.174709320         0.497491986         0.100388624
     0.174709320         0.497491986         0.600388646
     0.174709320         0.997491956         0.100388624
     0.174709320         0.997491956         0.600388646
     0.674709320         0.497491986         0.100388624
     0.674709320         0.497491986         0.600388646
     0.674709320         0.997491956         0.100388624
     0.674709320         0.997491956         0.600388646
     0.369522274         0.030110050         0.186671212
     0.369522274         0.030110050         0.686671197
     0.369522274         0.530110061         0.186671212
     0.369522274         0.530110061         0.686671197
     0.869522274         0.030110050         0.186671212
     0.869522274         0.030110050         0.686671197
     0.869522274         0.530110061         0.186671212
     0.869522274         0.530110061         0.686671197
     0.380469382         0.186711684         0.030087641
     0.380469382         0.186711684         0.530087650
     0.380469382         0.686711669         0.030087641
     0.380469382         0.686711669         0.530087650
     0.880469382         0.186711684         0.030087641
     0.880469382         0.186711684         0.530087650
     0.880469382         0.686711669         0.030087641
     0.880469382         0.686711669         0.530087650
     0.124659322         0.315015942         0.466070682
     0.124659322         0.315015942         0.966070652
     0.124659322         0.815015912         0.466070682
     0.124659322         0.815015912         0.966070652
     0.624659300         0.315015942         0.466070682
     0.624659300         0.315015942         0.966070652
     0.624659300         0.815015912         0.466070682
     0.624659300         0.815015912         0.966070652
     0.125502154         0.466057420         0.314979315
     0.125502154         0.466057420         0.814979315
     0.125502154         0.966057420         0.314979315
     0.125502154         0.966057420         0.814979315
     0.625502169         0.466057420         0.314979315
     0.625502169         0.466057420         0.814979315
     0.625502169         0.966057420         0.314979315
     0.625502169         0.966057420         0.814979315
     0.239151612         0.181151256         0.325736582
     0.239151612         0.181151256         0.825736582
     0.239151612         0.681151271         0.325736582
     0.239151612         0.681151271         0.825736582
     0.739151597         0.181151256         0.325736582
     0.739151597         0.181151256         0.825736582
     0.739151597         0.681151271         0.325736582
     0.739151597         0.681151271         0.825736582
     0.990104079         0.173436865         0.316949993
     0.990104079         0.173436865         0.816949964
     0.990104079         0.673436880         0.316949993
     0.990104079         0.673436880         0.816949964
     0.490104079         0.173436865         0.316949993
     0.490104079         0.173436865         0.816949964
     0.490104079         0.673436880         0.316949993
     0.490104079         0.673436880         0.816949964
     0.510801852         0.325787872         0.181212500
     0.510801852         0.325787872         0.681212485
     0.510801852         0.825787902         0.181212500
     0.510801852         0.825787902         0.681212485
     0.010801852         0.325787872         0.181212500
     0.010801852         0.325787872         0.681212485
     0.010801852         0.825787902         0.181212500
     0.010801852         0.825787902         0.681212485
     0.259857774         0.316842735         0.173434556
     0.259857774         0.316842735         0.673434556
     0.259857774         0.816842735         0.173434556
     0.259857774         0.816842735         0.673434556
     0.759857774         0.316842735         0.173434556
     0.759857774         0.316842735         0.673434556
     0.759857774         0.816842735         0.173434556
     0.759857774         0.816842735         0.673434556
