Rb V  S  O  Ca
1.0
        9.4349088669         0.0000000000         0.0000000000
        4.1157115091         9.6459016286         0.0000000000
        2.0241569708         1.7071549813        12.8950818677
   Ca   Rb    V    S    O   
    3    8    4    8   38    
Direct
     0.410786033         0.724487126         0.178204149
     0.589031994         0.275812238         0.821813166
     0.900517285         0.015000202         0.644946873
     0.146408677         0.639669955         0.000283490
     0.853628218         0.360325485         0.999819636
     0.725814223         0.971603453         0.162357152
     0.274434090         0.028312629         0.837522626
     0.701919317         0.783467889         0.524213076
     0.298296660         0.216570526         0.475828439
     0.126662672         0.577888370         0.662976861
     0.873459697         0.422181726         0.336887807
     0.468667299         0.663533688         0.733091891
     0.531495333         0.336384594         0.266817570
     0.719262004         0.818384051         0.800697327
     0.280585736         0.181741700         0.199340984
     0.859611869         0.010850093         0.879912436
     0.140361682         0.989105880         0.120115384
     0.793360114         0.406512260         0.661937177
     0.206678182         0.593479514         0.338084698
     0.278795153         0.881600618         0.551213145
     0.721172631         0.118451990         0.448830217
     0.374474734         0.268739283         0.999948800
     0.625477016         0.731223106         0.000049526
     0.447790086         0.128922254         0.059983391
     0.552330792         0.871131897         0.939954340
     0.628239989         0.472372085         0.723209381
     0.371829659         0.527602196         0.276782513
     0.258801848         0.984332502         0.620260179
     0.741140127         0.015757447         0.379703879
     0.347264796         0.256653070         0.893539906
     0.652712286         0.743345380         0.106455803
     0.879041612         0.895808041         0.963842571
     0.120682381         0.104146652         0.036223311
     0.785171926         0.474937290         0.554603577
     0.214884713         0.525017858         0.445405692
     0.805652440         0.258211881         0.673249900
     0.194473296         0.741746247         0.326776803
     0.393705010         0.737931788         0.590721667
     0.606258452         0.262080133         0.409298539
     0.225418419         0.337559760         0.065252580
     0.774503589         0.662328780         0.934789240
     0.862919927         0.807340205         0.696010768
     0.136801004         0.192800283         0.303931981
     0.729501963         0.024203062         0.813298166
     0.270446479         0.975698292         0.186771140
     0.801804602         0.149993405         0.917707264
     0.198218629         0.850004017         0.082251616
     0.906928837         0.423433006         0.716614842
     0.093042359         0.576596558         0.283413082
     0.126276761         0.869465470         0.545490801
     0.873839498         0.130418330         0.454509199
     0.474430531         0.351977676         0.984574020
     0.525522172         0.648033619         0.015405278
     0.562857866         0.777794480         0.745843410
     0.437118202         0.222195789         0.254224926
     0.000944590         0.988540828         0.806811154
     0.999062598         0.011367202         0.193238735
     0.337622553         0.920555532         0.443577886
     0.662365139         0.079414360         0.556484163
     0.318562537         0.632805586         0.804700136
     0.681531608         0.367148608         0.195048556
