Ca Mn P  O 
1.0
       13.0861539841         0.0000000000         0.0000000000
        0.0000000000        14.9518394470         0.0000000000
        0.0000000000         0.0000000000        14.2567501068
   Ca   Mn    P    O
   15   32   32  144
Direct
     0.375000030         0.444343507         0.781113863
     0.375000030         0.944343507         0.781113863
     0.875000000         0.444343507         0.781113863
     0.875000000         0.944343507         0.781113863
     0.375000030         0.305656552         0.281113893
     0.375000030         0.805656552         0.281113893
     0.875000000         0.305656552         0.281113893
     0.875000000         0.805656552         0.281113893
     0.125000000         0.194343522         0.718886197
     0.125000000         0.694343507         0.718886197
     0.625000000         0.194343522         0.718886197
     0.125000000         0.055656485         0.218886152
     0.125000000         0.555656493         0.218886152
     0.625000000         0.055656485         0.218886152
     0.625000000         0.555656493         0.218886152
     0.375000030         0.175153285         0.884531498
     0.375000030         0.675153255         0.884531498
     0.875000000         0.175153285         0.884531498
     0.875000000         0.675153255         0.884531498
     0.125000000         0.324846774         0.115468413
     0.125000000         0.824846745         0.115468413
     0.625000000         0.324846774         0.115468413
     0.625000000         0.824846745         0.115468413
     0.125000000         0.425153226         0.615468383
     0.125000000         0.925153255         0.615468383
     0.625000000         0.425153226         0.615468383
     0.625000000         0.925153255         0.615468383
     0.374999970         0.074846670         0.384531409
     0.374999970         0.574846685         0.384531409
     0.875000000         0.074846670         0.384531409
     0.875000000         0.574846685         0.384531409
     0.249999970         0.000000000         0.000000000
     0.249999970         0.500000000         0.000000000
     0.750000000         0.000000000         0.000000000
     0.750000000         0.500000000         0.000000000
     0.250000000         0.250000030         0.499999970
     0.250000000         0.750000000         0.499999970
     0.750000000         0.250000030         0.499999970
     0.750000000         0.750000000         0.499999970
     0.000000000         0.250000030         0.499999970
     0.000000000         0.750000000         0.499999970
     0.500000000         0.250000030         0.499999970
     0.500000000         0.750000000         0.499999970
     0.000000000         0.000000000         0.000000000
     0.000000000         0.500000000         0.000000000
     0.500000000         0.000000000         0.000000000
     0.500000000         0.500000000         0.000000000
     0.125000000         0.185875952         0.935693026
     0.125000000         0.685875952         0.935693026
     0.625000000         0.185875952         0.935693026
     0.625000000         0.685875952         0.935693026
     0.374999970         0.314124495         0.064306878
     0.374999970         0.814124465         0.064306878
     0.875000000         0.314124495         0.064306878
     0.875000000         0.814124465         0.064306878
     0.374999970         0.435875595         0.564306796
     0.374999970         0.935875595         0.564306796
     0.875000000         0.435875595         0.564306796
     0.875000000         0.935875595         0.564306796
     0.125000000         0.064124085         0.435693055
     0.125000000         0.564124107         0.435693055
     0.625000000         0.064124085         0.435693055
     0.625000000         0.564124107         0.435693055
     0.374999970         0.206128478         0.698072016
     0.374999970         0.706128478         0.698072016
     0.875000000         0.206128478         0.698072016
     0.875000000         0.706128478         0.698072016
     0.374999970         0.043871310         0.198072568
     0.374999970         0.543871284         0.198072568
     0.875000000         0.043871310         0.198072568
     0.875000000         0.543871284         0.198072568
     0.124999978         0.456128031         0.801929474
     0.124999978         0.956128001         0.801929474
     0.625000000         0.456128031         0.801929474
     0.625000000         0.956128001         0.801929474
     0.124999985         0.293871880         0.301929086
     0.124999985         0.793871880         0.301929086
     0.625000000         0.293871880         0.301929086
     0.625000000         0.793871880         0.301929086
     0.028140068         0.292176247         0.363773614
     0.028140068         0.792176247         0.363773614
     0.528140068         0.292176247         0.363773614
     0.528140068         0.792176247         0.363773614
     0.278139770         0.207823738         0.636226177
     0.278139770         0.707823753         0.636226177
     0.778139770         0.207823738         0.636226177
     0.778139770         0.707823753         0.636226177
     0.471860439         0.042176269         0.136225998
     0.471860439         0.542176247         0.136225998
     0.971860409         0.042176269         0.136225998
     0.971860409         0.542176247         0.136225998
     0.221859828         0.457823753         0.863773584
     0.221859828         0.957823753         0.863773584
     0.721859813         0.457823753         0.863773584
     0.721859813         0.957823753         0.863773584
     0.471860260         0.207823738         0.636226118
     0.471860260         0.707823753         0.636226118
     0.971860290         0.207823738         0.636226118
     0.971860290         0.707823753         0.636226118
     0.221859932         0.292176247         0.363773614
     0.221859932         0.792176247         0.363773614
     0.721859932         0.292176247         0.363773614
     0.721859932         0.792176247         0.363773614
     0.028140184         0.457823753         0.863773465
     0.028140184         0.957823753         0.863773465
     0.528140187         0.457823753         0.863773465
     0.528140187         0.957823753         0.863773465
     0.278139591         0.042176265         0.136226013
     0.278139591         0.542176247         0.136226013
     0.778139591         0.042176265         0.136226013
     0.778139591         0.542176247         0.136226013
     0.125000000         0.150569290         0.495304048
     0.125000000         0.650569320         0.495304048
     0.625000000         0.150569290         0.495304048
     0.625000000         0.650569320         0.495304048
     0.375000030         0.349430859         0.504696071
     0.375000030         0.849430859         0.504696071
     0.875000000         0.349430859         0.504696071
     0.875000000         0.849430859         0.504696071
     0.375000030         0.400569111         0.004696093
     0.375000030         0.900569081         0.004696093
     0.875000000         0.400569111         0.004696093
     0.875000000         0.900569081         0.004696093
     0.125000000         0.099430680         0.995304108
     0.125000000         0.599430680         0.995304108
     0.625000000         0.099430680         0.995304108
     0.625000000         0.599430680         0.995304108
     0.374999970         0.058209412         0.947261751
     0.374999970         0.558209419         0.947261751
     0.875000000         0.058209412         0.947261751
     0.875000000         0.558209419         0.947261751
     0.125000000         0.441790670         0.052738246
     0.125000000         0.941790700         0.052738246
     0.625000000         0.441790670         0.052738246
     0.625000000         0.941790700         0.052738246
     0.125000000         0.308209330         0.552738249
     0.125000000         0.808209300         0.552738249
     0.625000000         0.308209330         0.552738249
     0.625000000         0.808209300         0.552738249
     0.375000030         0.191790581         0.447261751
     0.375000030         0.691790581         0.447261751
     0.875000000         0.191790581         0.447261751
     0.875000000         0.691790581         0.447261751
     0.375000030         0.117982477         0.759591043
     0.375000030         0.617982507         0.759591043
     0.875000000         0.117982477         0.759591043
     0.875000000         0.617982507         0.759591043
     0.125000000         0.382017583         0.240408912
     0.125000000         0.882017612         0.240408912
     0.625000000         0.382017583         0.240408912
     0.625000000         0.882017612         0.240408912
     0.125000000         0.367982358         0.740408897
     0.125000000         0.867982388         0.740408897
     0.625000000         0.367982358         0.740408897
     0.625000000         0.867982388         0.740408897
     0.375000030         0.132017493         0.259590983
     0.375000030         0.632017493         0.259590983
     0.875000000         0.132017493         0.259590983
     0.875000000         0.632017493         0.259590983
     0.217854828         0.063097313         0.367433220
     0.217854828         0.563097298         0.367433220
     0.717854857         0.063097313         0.367433220
     0.717854857         0.563097298         0.367433220
     0.467854887         0.436902732         0.632566810
     0.467854887         0.936902761         0.632566810
     0.967854857         0.436902732         0.632566810
     0.967854857         0.936902761         0.632566810
     0.282145113         0.313097268         0.132566795
     0.282145113         0.813097239         0.132566795
     0.782145143         0.313097268         0.132566795
     0.782145143         0.813097239         0.132566795
     0.032145191         0.186902687         0.867433250
     0.032145191         0.686902702         0.867433250
     0.532145202         0.186902687         0.867433250
     0.532145202         0.686902702         0.867433250
     0.282145083         0.436902732         0.632566810
     0.282145083         0.936902761         0.632566810
     0.782145083         0.436902732         0.632566810
     0.782145083         0.936902761         0.632566810
     0.032145180         0.063097313         0.367433220
     0.032145180         0.563097298         0.367433220
     0.532145202         0.063097313         0.367433220
     0.532145202         0.563097298         0.367433220
     0.217854798         0.186902687         0.867433250
     0.217854798         0.686902702         0.867433250
     0.717854798         0.186902687         0.867433250
     0.717854798         0.686902702         0.867433250
     0.467854887         0.313097268         0.132566795
     0.467854887         0.813097239         0.132566795
     0.967854857         0.313097268         0.132566795
     0.967854857         0.813097239         0.132566795
     0.375000030         0.230396926         0.002726078
     0.375000030         0.730396926         0.002726078
     0.875000000         0.230396926         0.002726078
     0.875000000         0.730396926         0.002726078
     0.125000000         0.030762928         0.726189911
     0.125000000         0.530762911         0.726189911
     0.625000000         0.030762928         0.726189911
     0.625000000         0.530762911         0.726189911
     0.125000000         0.219237208         0.226190031
     0.125000000         0.719237208         0.226190031
     0.625000000         0.219237208         0.226190031
     0.625000000         0.719237208         0.226190031
     0.375000030         0.280762285         0.773809552
     0.375000030         0.780762315         0.773809552
     0.875000000         0.280762285         0.773809552
     0.875000000         0.780762315         0.773809552
     0.375000030         0.019602994         0.502726138
     0.375000030         0.519603014         0.502726138
     0.875000000         0.019602994         0.502726138
     0.875000000         0.519603014         0.502726138
     0.125000000         0.480397135         0.497273803
     0.125000000         0.980397105         0.497273803
     0.625000000         0.480397135         0.497273803
     0.625000000         0.980397105         0.497273803
     0.125000000         0.269602835         0.997273803
     0.125000000         0.769602835         0.997273803
     0.625000000         0.269602835         0.997273803
     0.625000000         0.769602835         0.997273803
     0.375000030         0.469237924         0.273809344
     0.375000030         0.969237924         0.273809344
     0.875000000         0.469237924         0.273809344
     0.875000000         0.969237924         0.273809344
