Mn4 V4 P16 O56
1.0
   7.1483730000000003    0.0000000000000000    0.0000000000000000
   0.1731300000000000    8.1580110000000001    0.0000000000000000
   0.1151210000000000    0.5057820000000000   18.0516770000000015
Mn V P O
4 4 16 56
direct
   0.6036589999999999    0.0071389999999990    0.1287670000000000 Mn
   0.3545460000000000    0.0066879999999990    0.3790759999999990 Mn
   0.1051059999999990    0.0074300000000000    0.6297320000000000 Mn
   0.8442000000000001    0.9926670000000000    0.8780340000000000 Mn
   0.1600270000000000    0.4949100000000000    0.1223290000000000 V
   0.9086050000000000    0.4936180000000000    0.3716980000000000 V
   0.6584519999999990    0.4955179999999990    0.6213440000000000 V
   0.4029649999999990    0.5061550000000000    0.8718119999999990 V
   0.8766189999999990    0.7802239999999990    0.0322490000000000 P
   0.4851709999999990    0.6782859999999999    0.0295959999999990 P
   0.8674649999999990    0.2870040000000000    0.2177540000000000 P
   0.2582370000000000    0.1761019999999990    0.2208550000000000 P
   0.6268600000000001    0.7816540000000000    0.2816320000000000 P
   0.2360570000000000    0.6788989999999990    0.2799530000000000 P
   0.6173770000000000    0.2863830000000000    0.4681570000000000 P
   0.9854860000000000    0.6797310000000000    0.5297390000000000 P
   0.0079430000000000    0.1759480000000000    0.4709919999999990 P
   0.3760779999999990    0.7819140000000000    0.5316680000000000 P
   0.7569020000000000    0.1776829999999990    0.7206049999999991 P
   0.3680150000000000    0.2885390000000000    0.7189129999999990 P
   0.7380089999999990    0.6831000000000000    0.7787470000000000 P
   0.1279800000000000    0.7823580000000000    0.7820250000000000 P
   0.5115480000000000    0.1746859999999990    0.9702090000000000 P
   0.1222309999999990    0.2880240000000000    0.9684670000000000 P
   0.7082109999999990    0.6516020000000000    0.0394049999999990 O
   0.8364630000000000    0.9324620000000000    0.0777780000000000 O
   0.5559220000000000    0.1746319999999990    0.0525920000000000 O
   0.4290950000000000    0.8437739999999990    0.0592700000000000 O
   0.3981420000000000    0.5352080000000000    0.0737570000000000 O
   0.9278259999999990    0.4395079999999990    0.1711730000000000 O
   0.1066840000000000    0.3329050000000000    0.0505850000000000 O
   0.0476810000000000    0.6860320000000000    0.0643460000000000 O
   0.6970750000000000    0.2024730000000000    0.1930650000000000 O
   0.6565219999999991    0.8260710000000000    0.1997340000000000 O
   0.3424169999999990    0.0384510000000000    0.1744220000000000 O
   0.2970440000000000    0.3478000000000000    0.1875190000000000 O
   0.1990559999999990    0.6721450000000000    0.1955630000000000 O
   0.8548570000000000    0.3357910000000000    0.2999300000000000 O
   0.7986360000000000    0.6871330000000000    0.3130080000000000 O
   0.0355350000000000    0.1498690000000000    0.2133690000000000 O
   0.4593009999999990    0.6525179999999990    0.2894870000000000 O
   0.5870980000000000    0.9327340000000000    0.3280530000000000 O
   0.3089240000000000    0.1726150000000000    0.3024210000000000 O
   0.1801579999999990    0.8441329999999990    0.3104340000000000 O
   0.1487170000000000    0.5348880000000000    0.3227180000000000 O
   0.9487510000000000    0.6718879999999990    0.4454030000000000 O
   0.6774530000000000    0.4392629999999990    0.4216249999999990 O
   0.7856639999999990    0.1491249999999990    0.4630400000000001 O
   0.4472200000000001    0.2021089999999990    0.4429110000000000 O
   0.4062700000000000    0.8258960000000000    0.4497870000000000 O
   0.0929860000000000    0.0385830000000000    0.4246000000000000 O
   0.9300919999999990    0.8448319999999990    0.5605939999999990 O
   0.0464110000000000    0.3476070000000000    0.4373479999999990 O
   0.8972460000000000    0.5364550000000000    0.5726850000000000 O
   0.6056530000000000    0.3334870000000000    0.5503509999999990 O
   0.5477040000000000    0.6875749999999990    0.5629790000000000 O
   0.2086039999999990    0.6526640000000000    0.5396560000000000 O
   0.3364550000000000    0.9330950000000000    0.5779790000000000 O
   0.0584649999999990    0.1722800000000000    0.5526430000000000 O
   0.8432290000000000    0.0387070000000000    0.6758550000000000 O
   0.7965669999999990    0.3484330000000000    0.6870750000000000 O
   0.6973750000000000    0.6716650000000000    0.6948620000000000 O
   0.4290640000000000    0.4387540000000000    0.6711220000000000 O
   0.5351739999999990    0.1503530000000000    0.7141290000000000 O
   0.9611830000000000    0.6501739999999990    0.7881490000000000 O
   0.1967010000000000    0.2041010000000000    0.6942809999999990 O
   0.8077960000000000    0.1769860000000000    0.8028959999999991 O
   0.1579720000000000    0.8289190000000000    0.7001900000000001 O
   0.6854439999999991    0.8484649999999990    0.8072589999999999 O
   0.6567580000000000    0.5374780000000000    0.8240330000000000 O
   0.3570330000000000    0.3425130000000000    0.8003479999999999 O
   0.2979710000000000    0.6830809999999991    0.8098839999999990 O
   0.9473860000000000    0.2103980000000000    0.9407400000000000 O
   0.9099929999999991    0.8199879999999991    0.9504340000000000 O
   0.0773490000000000    0.9313490000000000    0.8281290000000000 O
   0.6033890000000000    0.0379330000000000    0.9267209999999990 O
   0.5521710000000000    0.3445760000000000    0.9338529999999990 O
   0.4481710000000000    0.6621049999999991    0.9459670000000000 O
   0.1712880000000000    0.4418310000000000    0.9207869999999990 O
   0.2878300000000000    0.1514550000000000    0.9621489999999990 O
