Mn V  P  O 
 1.0000000000000000
     7.1483730000000003    0.0000000000000000    0.0000000000000000
     0.1731300000000000    8.1580110000000001    0.0000000000000000
     0.1151210000000000    0.5057820000000000   18.0516770000000015
 Mn  V   P   O  
   4   4  16  56
Cartesian
  4.3224186156024826  0.0984704552412226  2.3266021000984596
  2.5603056262755524  0.2236776275003960  6.8365210274332000
  0.8023625990362974  0.3536669776798800 11.3492388571413656
  6.3644900064751155  8.6372780725819691 15.8658605273158280
  1.2083336085247078  4.1772999749413575  2.2178267376625351
  6.5961006204291452  4.3026917380193259  6.7308598018402055
  4.8422967880819145  4.4317037544317293 11.2436250659446095
  3.0796230731438667  4.5555190148350997 15.7575163205729698
  6.3304201274679421  6.3316181435553327  0.5983123899158163
  3.5347713840259538  5.6424585465677142  0.5009887861060387
  6.3575487468727925  2.3787963732039783  3.9772402312797319
  1.9997954486307579  1.5915404959118655  3.9825226774389733
  4.5697088300296658  6.4573666276381578  5.1085300334310908
  1.7745710853968011  5.7677849508274361  5.0127833642766415
  4.5954257404838801  2.5062236730915659  8.4921141841626859
  7.1667142541042237  5.8971309094809152  9.5243572032070265
  0.2399821277762393  1.7193439611080679  8.4959167495066144
  2.8136089176881858  6.5849573150030807  9.6226819388718461
  5.6327616017246962  1.8456771310074358 13.0076366638189800
  2.8416568274389724  2.6348282503078777 13.0052181814792736
  5.4054239792725705  6.0221265314888921 14.0426859058157323
  1.0529802382144295  6.7114459026857025 14.1379602120536170
  3.8732866055458075  1.9748365120283919 17.5258108481767145
  1.0797813395566089  2.7599040256239635 17.5167571525638976
  5.0905968648262929  5.2911776590806294  0.6898453616180008
  6.1038463067897606  7.5434334786251842  1.4977213913271235
  4.1796720332349162  1.5172670387258125  0.9276578277653549
  3.2711818675305175  7.0393779696978047  0.9516067657953053
  2.8359134089665745  4.5410537099983603  1.3356089310883097
  6.7741314353720226  3.5800011122619404  3.0491416312042015
  0.8942650882737213  2.7916504607168191  0.9097930250478838
  0.3368725782308484  5.4485586076341237  1.1292384713704224
  5.1238794708472346  1.6726790507769034  3.5474164893051556
  4.8028594535245288  6.7933931540248187  3.6503990255550636
  2.6017341908667153  0.5132528794300752  3.1034356788002944
  2.1684723804700679  3.0092589809820471  3.3355178884891341
  1.4459944209645936  5.5317421927912900  3.5114572976486573
  6.2922147057452511  2.9141487796160037  5.4233829216065494
  5.7245263381814526  5.5769663324346714  5.6439059855077272
  0.4103975879941313  1.3165302196608883  3.8940924137718054
  3.3304823432003605  5.4180755224263759  5.2031583131541579
  4.3384906698194428  7.6737386946534389  6.0008918102293922
  2.4149787207511997  1.6474605463353929  5.4372945010870346
  1.5101882688054937  7.1646924953614084  5.4623863030950988
  1.0761679046486592  4.6661500359956030  5.8461466863643903
  6.8334090678427666  5.6613852175211541  8.0246201922779186
  5.0153365775456518  3.7061680551952163  7.5629780700959994
  5.7984354863278886  1.4447933982752923  8.4115376667849944
  3.3619736263196258  1.8018200008491185  8.0592356864459589
  3.0458003612108278  6.9213369983815154  8.1645745278741497
  0.8411214047078416  0.6411158107694558  7.6163491675795516
  6.9013585806004807  7.2928664673802066  9.9768177585242235
  0.4093293742553724  3.1382401645938978  7.8501537070094560
  6.4669971878087109  4.7955445044735807 10.3595784586697004
  4.5285043504796620  3.0447033909448438  9.9367267459577313
  3.9672211830062492  5.7057183262590927 10.1619751413903021
  1.5732652587902274  5.5446945434704142  9.7166377654069933
  2.5829411216400295  7.8008628795544919 10.5153497066581973
  0.6574767701935935  1.7729551542465996  9.9502256980376576
  6.2325816669441769  0.7649949495673267 12.1293353284758574
  5.8040461311570990  3.2630130875311973 12.3611595761976805
  5.0769361244231499  5.7858681844000461 12.5407578118313729
  3.2599846900387810  3.8377778319248677 12.0812587111334064
  4.0430180533537667  1.5727212626460259 12.9194367284620721
  6.9611679668946236  5.6705814591805552 14.2369951741873049
  1.6084096197333091  1.9314853055657581 12.5699022710335111
  6.0490717101896054  1.8982801619273815 14.4620991294589540
  1.2831269814926096  7.0493829927632623 12.6800304460139657
  5.1376424274928620  7.4186233068365182 14.4937667932769596
  4.7082996777448853  4.9182356021551552 14.8758059672536671
  2.7761227759875498  3.1652648889337911 14.4540664042309750
  2.2084717002751635  5.8300045211551996 14.6733098365186390
  6.9953154156977311  2.0552212450179184 17.0829200748324688
  6.6778007200794747  7.1795486841256091 17.1932391935743993
  0.8237780344463652  7.9271733350944196 15.0319723326497741
  4.4708104332406666  0.8959461751486363 16.6435621245062997
  4.0414018892601566  3.3933589141943563 16.8828046848826787
  3.3186100589510907  5.9118677331698697 17.0518803421735150
  1.4967561192970378  3.9603635279729752 16.5880919578028738
  2.2838852857643275  1.6989247903520568 17.4404652177876116
