Ca Mn V  P  O 
 1.0000000000000000
     7.3615770339999997    0.0000000000000000    0.0000000000000000
     0.1764880905000000    8.2527450794000003    0.0000000000000000
     0.4044067635000000    0.4538283880000000   18.2490875539999990
 Ca  Mn  V   P   O  
   3   4   4  16  56
Selective dynamics
Cartesian
  5.2217725284616092  8.2499626561076251 10.4528221035320943   T   T   T
  1.2159169121687816  7.5966616013343007  2.2744109996916344   T   T   T
  6.8200958307714821  3.8318104916353741 15.9835273893398160   T   T   T
  4.5759480504224603  0.0951373498159762  2.3776611122754367   T   T   T
  2.7128639154498631  0.1398785916911408  6.8845291916800733   T   T   T
  1.0906503226962589  0.4089070577546235 11.4941856352259855   T   T   T
  6.7619528762699863  8.5002611493185949 16.0201165368024441   T   T   T
  1.2570647067199701  4.0681952240653789  2.2597921587802414   T   T   T
  6.9144511168885794  4.3280236433964312  6.7707692570801203   T   T   T
  5.1328435092692342  4.4369321994179707 11.3431797948809496   T   T   T
  3.3891197753994637  4.5851354152679686 15.9170416096748415   T   T   T
  6.4320895389642665  6.1808356185847879  0.5218333004234876   T   T   T
  3.5473937810032226  5.6263897433954702  0.5451015267504357   T   T   T
  6.6827129946936861  2.3342742209017144  4.0797998839327692   T   T   T
  2.1886627330525990  1.6651043896815205  4.1242668866526273   T   T   T
  4.7628493717524316  6.4602270834913122  5.1306591462845761   T   T   T
  1.8991887156893184  5.8022271435740764  5.0134564631157881   T   T   T
  4.9810952340840675  2.4770169848367281  8.6131724642667713   T   T   T
  7.4858879371994274  5.8810141080158873  9.5905395232828887   T   T   T
  0.4991019529178290  1.7833304419186737  8.6165371212376538   T   T   T
  2.9614461198610935  6.5524289928835557  9.6484685844564240   T   T   T
  6.0296589923428714  1.9641498892029408 13.1462951574166294   T   T   T
  3.1881634140491961  2.6688250090582790 13.1623348210627711   T   T   T
  5.7580529489906791  6.1524823749221644 14.0682152878160434   T   T   T
  1.2906897541059905  6.7469355221587159 14.2266104491808072   T   T   T
  4.3708772445932054  1.9179252245629472 17.7179953456734296   T   T   T
  1.5132531722971523  2.6026865437900391 17.7707631483790358   T   T   T
  5.1125280180688755  5.3181211978116014  0.8577645935524537   T   T   T
  6.3699016250886631  7.5261050497369126  1.3009257121290936   T   T   T
  4.3050968367281950  1.4640563776683828  0.9548111472060330   T   T   T
  3.2144022570065878  6.9927415809370910  1.1326053078733767   T   T   T
  2.8309888672900243  4.4836884909780483  1.3078252408844036   T   T   T
  7.0659342070626732  3.5319114016809103  3.1339403821486638   T   T   T
  0.9997245491239980  2.4469514147479328  1.0206003450265189   T   T   T
  0.2639052821058732  5.4079091519444917  1.1093427753241298   T   T   T
  5.5079048696296313  1.5561880955445473  3.5890050794669297   T   T   T
  5.0691535351752384  6.8802440568291106  3.6806599332178433   T   T   T
  2.7683886694542195  0.5561400795668131  3.2160535248603050   T   T   T
  2.3508712462160650  3.0618450712693366  3.5373656805796498   T   T   T
  1.5036968503871433  5.6491173994295441  3.4954715225576125   T   T   T
  6.6376551726862116  2.8029400777792945  5.5226801316558101   T   T   T
  5.8740921252464044  5.5613832382671760  5.6626062230389547   T   T   T
  0.5879699456523370  1.2884597627601735  3.9347960891954905   T   T   T
  3.4736396496260435  5.4641428575342879  5.0997802682701261   T   T   T
  4.4716273807734908  7.6626005025330226  6.0310067054550194   T   T   T
  2.5876931446181213  1.6138424098804023  5.5783490810993186   T   T   T
  1.6682154830488747  7.2266518062922049  5.4302997118910943   T   T   T
  1.2031811386260292  4.7257526706836526  5.8477406304893647   T   T   T
  7.1691961624335532  5.7505545166919863  8.1030726723516935   T   T   T
  5.2938802716390310  3.6483567084367028  7.6905391736459263   T   T   T
  6.2613024196321820  1.4283143542302401  8.6464588661336244   T   T   T
  3.8686582324117746  1.5198105252996692  8.2850032390102548   T   T   T
  3.1393359264564942  6.9198507793952100  8.1890502473453353   T   T   T
  1.0845690039680014  0.6642310487597965  7.7684312765619223   T   T   T
  7.2371151100708380  7.2938606386724558 10.1126397195863564   T   T   T
  0.6034776593295726  3.1821528853224303  8.0163469855031355   T   T   T
  6.7856513919420687  4.8107463757084155 10.4321394621348968   T   T   T
  4.8624100375459109  2.9011354285937485 10.1093796729026799   T   T   T
  4.2111353242038954  5.8118487919565505 10.1500789220000573   T   T   T
  1.7068698787675678  5.5886291624969502  9.8347852863087475   T   T   T
  2.8465311878290560  7.8216631130805068 10.5441643385743014   T   T   T
  0.9390785212428042  1.7543210979553248 10.0884077952110367   T   T   T
  6.5988142878961638  0.8583462908181394 12.2259448932973331   T   T   T
  6.2228311799319300  3.3782945747695297 12.5933253821011260   T   T   T
  5.4019680117479156  6.0214489074956870 12.5809179596433065   T   T   T
  3.5826075248842746  3.8893258843110154 12.2543458183088738   T   T   T
  4.4450798975066999  1.6240614117172700 13.0255201328620167   T   T   T
  7.3443988173448771  5.7274069213293615 14.2845344087018447   T   T   T
  2.0063271995299625  1.8991040976585518 12.6704271855209516   T   T   T
  6.4703564432750973  1.9415803351548802 14.6099150556688819   T   T   T
  1.4551967161289652  7.1671854810853572 12.7677462209426800   T   T   T
  5.5943038748943570  7.5505818656592592 14.5965364406913931   T   T   T
  5.1333161668516318  5.0364400571539960 14.9445269463504928   T   T   T
  3.0960884932288706  3.1062999956574209 14.6182233509619355   T   T   T
  2.4083372127993607  5.8729264864313304 14.7301915906917973   T   T   T
  7.6484950991946956  1.8922634543976395 17.2007212205657858   T   T   T
  6.9366760302314390  6.7765343274640406 17.2619954351175053   T   T   T
  1.0003989662301171  7.9421207513476331 15.1536285625003373   T   T   T
  4.9869018714569231  0.7594812533418469 16.9387458760437113   T   T   T
  4.6522146985311448  3.2891291612745395 17.0558848382395176   T   T   T
  3.7268221198880411  5.9660273123502714 17.2932430549677356   T   T   T
  1.7161674115497765  3.8933911020924166 16.9153065639849842   T   T   T
  2.7734879679814370  1.6291325320951053 17.5665968673637991   T   T   T
