Ca1 Si4 Mo2 O12
1.0
       10.7234420776         0.0000000000         0.0000000000
        3.2069314607        13.6325072724         0.0000000000
        3.2040219620         1.5418458940        13.5466934577
   Ca   Si   Mo    O
    7   32   16   96
Direct
     0.874462485         0.287730008         0.712274492
     0.374462485         0.287730008         0.212274507
     0.374462485         0.787729979         0.212274507
     0.374462485         0.787729979         0.712274492
     0.874462485         0.287730008         0.212274507
     0.874462485         0.787729979         0.212274507
     0.874462485         0.787729979         0.712274492
     0.125717506         0.094326504         0.183568999
     0.125717506         0.094326504         0.683569014
     0.125717506         0.594326496         0.183568999
     0.125717506         0.594326496         0.683569014
     0.625717521         0.094326504         0.183568999
     0.625717521         0.094326504         0.683569014
     0.625717521         0.594326496         0.183568999
     0.625717521         0.594326496         0.683569014
     0.124330498         0.316399992         0.405817509
     0.124330498         0.316399992         0.905817509
     0.124330498         0.816399992         0.405817509
     0.124330498         0.816399992         0.905817509
     0.624330521         0.316399992         0.405817509
     0.624330521         0.316399992         0.905817509
     0.624330521         0.816399992         0.405817509
     0.624330521         0.816399992         0.905817509
     0.371235013         0.181878000         0.087122500
     0.371235013         0.181878000         0.587122500
     0.371235013         0.681877971         0.087122500
     0.371235013         0.681877971         0.587122500
     0.871235013         0.181878000         0.087122500
     0.871235013         0.181878000         0.587122500
     0.871235013         0.681877971         0.087122500
     0.871235013         0.681877971         0.587122500
     0.378895491         0.412737995         0.318137497
     0.378895491         0.412737995         0.818137527
     0.378895491         0.912737966         0.318137497
     0.378895491         0.912737966         0.818137527
     0.878895521         0.412737995         0.318137497
     0.878895521         0.412737995         0.818137527
     0.878895521         0.912737966         0.318137497
     0.878895521         0.912737966         0.818137527
     0.125042498         0.057145499         0.442835987
     0.125042498         0.057145499         0.942835987
     0.125042498         0.557145476         0.442835987
     0.125042498         0.557145476         0.942835987
     0.625042498         0.057145499         0.442835987
     0.625042498         0.057145499         0.942835987
     0.625042498         0.557145476         0.442835987
     0.625042498         0.557145476         0.942835987
     0.375030488         0.454490006         0.045488499
     0.375030488         0.454490006         0.545488477
     0.375030488         0.954490006         0.045488499
     0.375030488         0.954490006         0.545488477
     0.875030518         0.454490006         0.045488499
     0.875030518         0.454490006         0.545488477
     0.875030518         0.954490006         0.045488499
     0.875030518         0.954490006         0.545488477
     0.233196497         0.168086499         0.163245499
     0.233196497         0.168086499         0.663245499
     0.233196497         0.668086529         0.163245499
     0.233196497         0.668086529         0.663245499
     0.733196497         0.168086499         0.163245499
     0.733196497         0.168086499         0.663245499
     0.733196497         0.668086529         0.163245499
     0.733196497         0.668086529         0.663245499
     0.016976999         0.336749494         0.331981987
     0.016976999         0.336749494         0.831982017
     0.016976999         0.836749494         0.331981987
     0.016976999         0.836749494         0.831982017
     0.516977012         0.336749494         0.331981987
     0.516977012         0.336749494         0.831982017
     0.516977012         0.836749494         0.331981987
     0.516977012         0.836749494         0.831982017
     0.272015005         0.333204001         0.338311493
     0.272015005         0.333204001         0.838311493
     0.272015005         0.833204031         0.338311493
     0.272015005         0.833204031         0.838311493
     0.772014976         0.333204001         0.338311493
     0.772014976         0.333204001         0.838311493
     0.772014976         0.833204031         0.338311493
     0.772014976         0.833204031         0.838311493
     0.478042006         0.161872998         0.166695997
     0.478042006         0.161872998         0.666696012
     0.478042006         0.661872983         0.166695997
     0.478042006         0.661872983         0.666696012
     0.978042006         0.161872998         0.166695997
     0.978042006         0.161872998         0.666696012
     0.978042006         0.661872983         0.166695997
     0.978042006         0.661872983         0.666696012
     0.106995001         0.049229499         0.296689004
     0.106995001         0.049229499         0.796689034
     0.106995001         0.549229503         0.296689004
     0.106995001         0.549229503         0.796689034
     0.606994987         0.049229499         0.296689004
     0.606994987         0.049229499         0.796689034
     0.606994987         0.549229503         0.296689004
     0.606994987         0.549229503         0.796689034
     0.143039003         0.203272000         0.450890005
     0.143039003         0.203272000         0.950890005
     0.143039003         0.703271985         0.450890005
     0.143039003         0.703271985         0.950890005
     0.643038988         0.203272000         0.450890005
     0.643038988         0.203272000         0.950890005
     0.643038988         0.703271985         0.450890005
     0.643038988         0.703271985         0.950890005
     0.396331996         0.431147486         0.198492497
     0.396331996         0.431147486         0.698492527
     0.396331996         0.931147456         0.198492497
     0.396331996         0.931147456         0.698492527
     0.896332026         0.431147486         0.198492497
     0.896332026         0.431147486         0.698492527
     0.896332026         0.931147456         0.198492497
     0.896332026         0.931147456         0.698492527
     0.353538990         0.301548988         0.068645500
     0.353538990         0.301548988         0.568645477
     0.353538990         0.801548958         0.068645500
     0.353538990         0.801548958         0.568645477
     0.853538990         0.301548988         0.068645500
     0.853538990         0.301548988         0.568645477
     0.853538990         0.801548958         0.068645500
     0.853538990         0.801548958         0.568645477
     0.421013504         0.101360999         0.009398500
     0.421013504         0.101360999         0.509398520
     0.421013504         0.601360977         0.009398500
     0.421013504         0.601360977         0.509398520
     0.921013474         0.101360999         0.009398500
     0.921013474         0.101360999         0.509398520
     0.921013474         0.601360977         0.009398500
     0.921013474         0.601360977         0.509398520
     0.329068005         0.490552515         0.398591012
     0.329068005         0.490552515         0.898591042
     0.329068005         0.990552545         0.398591012
     0.329068005         0.990552545         0.898591042
     0.829068005         0.490552515         0.398591012
     0.829068005         0.490552515         0.898591042
     0.829068005         0.990552545         0.398591012
     0.829068005         0.990552545         0.898591042
     0.172552004         0.022550000         0.094293997
     0.172552004         0.022550000         0.594294012
     0.172552004         0.522549987         0.094293997
     0.172552004         0.522549987         0.594294012
     0.672551990         0.022550000         0.094293997
     0.672551990         0.022550000         0.594294012
     0.672551990         0.522549987         0.094293997
     0.672551990         0.522549987         0.594294012
     0.077517003         0.405719489         0.477519512
     0.077517003         0.405719489         0.977519512
     0.077517003         0.905719519         0.477519512
     0.077517003         0.905719519         0.977519512
     0.577517033         0.405719489         0.477519512
     0.577517033         0.405719489         0.977519512
     0.577517033         0.905719519         0.477519512
     0.577517033         0.905719519         0.977519512
