Ca Mn P  O 
1.0
        9.9050779343         0.0000000000         0.0000000000
       -4.2180561416        13.8348199206         0.0000000000
       -0.2007139928        -0.0866021812        16.5003544771
   Ca   Mn    P    O
   15   16   32  112
Direct
     0.005924146         0.502049267         0.245891854
     0.253867626         0.251344383         0.496462166
     0.253867626         0.251344383         0.996462166
     0.253867626         0.751344383         0.496462166
     0.253867626         0.751344383         0.996462166
     0.753867626         0.251344383         0.496462166
     0.753867626         0.251344383         0.996462166
     0.753867626         0.751344383         0.496462166
     0.753867626         0.751344383         0.996462166
     0.005924146         0.002049267         0.245891854
     0.005924146         0.002049267         0.745891869
     0.005924146         0.502049267         0.745891869
     0.505924165         0.002049267         0.245891854
     0.505924165         0.002049267         0.745891869
     0.505924165         0.502049267         0.745891869
     0.253160477         0.251044989         0.246241629
     0.253160477         0.251044989         0.746241629
     0.253160477         0.751044989         0.246241629
     0.253160477         0.751044989         0.746241629
     0.753160477         0.251044989         0.246241629
     0.753160477         0.251044989         0.746241629
     0.753160477         0.751044989         0.246241629
     0.753160477         0.751044989         0.746241629
     0.003646532         0.001683864         0.496137142
     0.003646532         0.001683864         0.996137142
     0.003646532         0.501683891         0.496137142
     0.003646532         0.501683891         0.996137142
     0.503646553         0.001683864         0.496137142
     0.503646553         0.001683864         0.996137142
     0.503646553         0.501683891         0.496137142
     0.503646553         0.501683891         0.996137142
     0.269018799         0.054734200         0.372502536
     0.269018799         0.054734200         0.872502565
     0.269018799         0.554734230         0.372502536
     0.269018799         0.554734230         0.872502565
     0.769018769         0.054734200         0.372502536
     0.769018769         0.054734200         0.872502565
     0.769018769         0.554734230         0.372502536
     0.769018769         0.554734230         0.872502565
     0.053891886         0.343762487         0.368207276
     0.053891886         0.343762487         0.868207276
     0.053891886         0.843762517         0.368207276
     0.053891886         0.843762517         0.868207276
     0.553891897         0.343762487         0.368207276
     0.553891897         0.343762487         0.868207276
     0.553891897         0.843762517         0.368207276
     0.553891897         0.843762517         0.868207276
     0.452487260         0.158350557         0.124019071
     0.452487260         0.158350557         0.624019086
     0.452487260         0.658350587         0.124019071
     0.452487260         0.658350587         0.624019086
     0.952487230         0.158350557         0.124019071
     0.952487230         0.158350557         0.624019086
     0.952487230         0.658350587         0.124019071
     0.952487230         0.658350587         0.624019086
     0.237841189         0.447341472         0.119388327
     0.237841189         0.447341472         0.619388342
     0.237841189         0.947341442         0.119388327
     0.237841189         0.947341442         0.619388342
     0.737841189         0.447341472         0.119388327
     0.737841189         0.447341472         0.619388342
     0.737841189         0.947341442         0.119388327
     0.737841189         0.947341442         0.619388342
     0.221949071         0.088422656         0.452620208
     0.221949071         0.088422656         0.952620208
     0.221949071         0.588422656         0.452620208
     0.221949071         0.588422656         0.952620208
     0.721949100         0.088422656         0.452620208
     0.721949100         0.088422656         0.952620208
     0.721949100         0.588422656         0.452620208
     0.721949100         0.588422656         0.952620208
     0.983074069         0.349303782         0.449547410
     0.983074069         0.349303782         0.949547410
     0.983074069         0.849303782         0.449547410
     0.983074069         0.849303782         0.949547410
     0.483074069         0.349303782         0.449547410
     0.483074069         0.349303782         0.949547410
     0.483074069         0.849303782         0.449547410
     0.483074069         0.849303782         0.949547410
     0.411755472         0.033707496         0.377075434
     0.411755472         0.033707496         0.877075434
     0.411755472         0.533707500         0.377075434
     0.411755472         0.533707500         0.877075434
     0.911755443         0.033707496         0.377075434
     0.911755443         0.033707496         0.877075434
     0.911755443         0.533707500         0.377075434
     0.911755443         0.533707500         0.877075434
     0.151033238         0.279214174         0.369297117
     0.151033238         0.279214174         0.869297147
     0.151033238         0.779214144         0.369297117
     0.151033238         0.779214144         0.869297147
     0.651033223         0.279214174         0.369297117
     0.651033223         0.279214174         0.869297147
     0.651033223         0.779214144         0.369297117
     0.651033223         0.779214144         0.869297147
     0.249585390         0.112906076         0.298435450
     0.249585390         0.112906076         0.798435450
     0.249585390         0.612906098         0.298435450
     0.249585390         0.612906098         0.798435450
     0.749585390         0.112906076         0.298435450
     0.749585390         0.112906076         0.798435450
     0.749585390         0.612906098         0.298435450
     0.749585390         0.612906098         0.798435450
     0.150718912         0.453581035         0.349245250
     0.150718912         0.453581035         0.849245250
     0.150718912         0.953581035         0.349245250
     0.150718912         0.953581035         0.849245250
     0.650718927         0.453581035         0.349245250
     0.650718927         0.453581035         0.849245250
     0.650718927         0.953581035         0.349245250
     0.650718927         0.953581035         0.849245250
     0.453933448         0.331245482         0.294967681
     0.453933448         0.331245482         0.794967651
     0.453933448         0.831245482         0.294967681
     0.453933448         0.831245482         0.794967651
     0.953933477         0.331245482         0.294967681
     0.953933477         0.331245482         0.794967651
     0.953933477         0.831245482         0.294967681
     0.953933477         0.831245482         0.794967651
     0.053280085         0.170743838         0.196882039
     0.053280085         0.170743838         0.696882010
     0.053280085         0.670743823         0.196882039
     0.053280085         0.670743823         0.696882010
     0.553280115         0.170743838         0.196882039
     0.553280115         0.170743838         0.696882010
     0.553280115         0.670743823         0.196882039
     0.553280115         0.670743823         0.696882010
     0.357463449         0.047912195         0.142800108
     0.357463449         0.047912195         0.642800093
     0.357463449         0.547912180         0.142800108
     0.357463449         0.547912180         0.642800093
     0.857463479         0.047912195         0.142800108
     0.857463479         0.047912195         0.642800093
     0.857463479         0.547912180         0.142800108
     0.857463479         0.547912180         0.642800093
     0.254627407         0.388161927         0.193149537
     0.254627407         0.388161927         0.693149567
     0.254627407         0.888161898         0.193149537
     0.254627407         0.888161898         0.693149567
     0.754627407         0.388161927         0.193149537
     0.754627407         0.388161927         0.693149567
     0.754627407         0.888161898         0.193149537
     0.754627407         0.888161898         0.693149567
     0.353684187         0.221772522         0.123892210
     0.353684187         0.221772522         0.623892188
     0.353684187         0.721772552         0.123892210
     0.353684187         0.721772552         0.623892188
     0.853684187         0.221772522         0.123892210
     0.853684187         0.221772522         0.623892188
     0.853684187         0.721772552         0.123892210
     0.853684187         0.721772552         0.623892188
     0.096019007         0.469829798         0.114413932
     0.096019007         0.469829798         0.614413917
     0.096019007         0.969829798         0.114413932
     0.096019007         0.969829798         0.614413917
     0.596019030         0.469829798         0.114413932
     0.596019030         0.469829798         0.614413917
     0.596019030         0.969829798         0.114413932
     0.596019030         0.969829798         0.614413917
     0.522692323         0.154374704         0.042181894
     0.522692323         0.154374704         0.542181909
     0.522692323         0.654374719         0.042181894
     0.522692323         0.654374719         0.542181909
     0.022692323         0.154374704         0.042181894
     0.022692323         0.154374704         0.542181909
     0.022692323         0.654374719         0.042181894
     0.022692323         0.654374719         0.542181909
     0.284809977         0.413856566         0.039214283
     0.284809977         0.413856566         0.539214253
     0.284809977         0.913856566         0.039214283
     0.284809977         0.913856566         0.539214253
     0.784809947         0.413856566         0.039214283
     0.784809947         0.413856566         0.539214253
     0.784809947         0.913856566         0.039214283
     0.784809947         0.913856566         0.539214253
