Ca1 Sc2 V2 O8
1.0
        9.9366302490         0.0000000000         0.0000000000
        2.1832690981         9.6246581499         0.0000000000
       -5.9968960126        -4.7919827758        14.2045716032
   Ca   Sc    V    O
    7   16   16   64
Direct
     0.490309089         0.614992857         0.482571959
     0.490309089         0.114992879         0.982571959
     0.490309089         0.614992857         0.982571959
     0.990309119         0.114992879         0.482571959
     0.990309119         0.114992879         0.982571959
     0.990309119         0.614992857         0.482571959
     0.990309119         0.614992857         0.982571959
     0.330410421         0.455476314         0.160015151
     0.330410421         0.455476314         0.660015166
     0.330410421         0.955476284         0.160015151
     0.330410421         0.955476284         0.660015166
     0.830410421         0.455476314         0.160015151
     0.830410421         0.455476314         0.660015166
     0.830410421         0.955476284         0.160015151
     0.830410421         0.955476284         0.660015166
     0.159600034         0.034789845         0.319900811
     0.159600034         0.034789845         0.819900811
     0.159600034         0.534789860         0.319900811
     0.159600034         0.534789860         0.819900811
     0.659600019         0.034789845         0.319900811
     0.659600019         0.034789845         0.819900811
     0.659600019         0.534789860         0.319900811
     0.659600019         0.534789860         0.819900811
     0.090268813         0.215045214         0.179548711
     0.090268813         0.215045214         0.679548740
     0.090268813         0.715045214         0.179548711
     0.090268813         0.715045214         0.679548740
     0.590268791         0.215045214         0.179548711
     0.590268791         0.215045214         0.679548740
     0.590268791         0.715045214         0.179548711
     0.590268791         0.715045214         0.679548740
     0.408657134         0.283517748         0.317753643
     0.408657134         0.283517748         0.817753673
     0.408657134         0.783517718         0.317753643
     0.408657134         0.783517718         0.817753673
     0.908657134         0.283517748         0.317753643
     0.908657134         0.283517748         0.817753673
     0.908657134         0.783517718         0.317753643
     0.908657134         0.783517718         0.817753673
     0.227111578         0.351046115         0.211094677
     0.227111578         0.351046115         0.711094677
     0.227111578         0.851046085         0.211094677
     0.227111578         0.851046085         0.711094677
     0.727111578         0.351046115         0.211094677
     0.727111578         0.351046115         0.711094677
     0.727111578         0.851046085         0.211094677
     0.727111578         0.851046085         0.711094677
     0.484567016         0.110131137         0.211076751
     0.484567016         0.110131137         0.711076736
     0.484567016         0.610131145         0.211076751
     0.484567016         0.610131145         0.711076736
     0.984567046         0.110131137         0.211076751
     0.984567046         0.110131137         0.711076736
     0.984567046         0.610131145         0.211076751
     0.984567046         0.610131145         0.711076736
     0.044312239         0.190660834         0.401516944
     0.044312239         0.190660834         0.901516914
     0.044312239         0.690660834         0.401516944
     0.044312239         0.690660834         0.901516914
     0.544312239         0.190660834         0.401516944
     0.544312239         0.190660834         0.901516914
     0.544312239         0.690660834         0.401516944
     0.544312239         0.690660834         0.901516914
     0.354883015         0.459973305         0.401826888
     0.354883015         0.459973305         0.901826859
     0.354883015         0.959973335         0.401826888
     0.354883015         0.959973335         0.901826859
     0.854883015         0.459973305         0.401826888
     0.854883015         0.459973305         0.901826859
     0.854883015         0.959973335         0.401826888
     0.854883015         0.959973335         0.901826859
     0.267977446         0.146082699         0.279712766
     0.267977446         0.146082699         0.779712796
     0.267977446         0.646082699         0.279712766
     0.267977446         0.646082699         0.779712796
     0.767977476         0.146082699         0.279712766
     0.767977476         0.146082699         0.779712796
     0.767977476         0.646082699         0.279712766
     0.767977476         0.646082699         0.779712796
     0.011451875         0.383585483         0.279952437
     0.011451875         0.383585483         0.779952407
     0.011451875         0.883585453         0.279952437
     0.011451875         0.883585453         0.779952407
     0.511451900         0.383585483         0.279952437
     0.511451900         0.383585483         0.779952407
     0.511451900         0.883585453         0.279952437
     0.511451900         0.883585453         0.779952407
     0.433108568         0.276567608         0.085980654
     0.433108568         0.276567608         0.585980654
     0.433108568         0.776567578         0.085980654
     0.433108568         0.776567578         0.585980654
     0.933108568         0.276567608         0.085980654
     0.933108568         0.276567608         0.585980654
     0.933108568         0.776567578         0.085980654
     0.933108568         0.776567578         0.585980654
     0.153592795         0.059380818         0.085715085
     0.153592795         0.059380818         0.585715055
     0.153592795         0.559380829         0.085715085
     0.153592795         0.559380829         0.585715055
     0.653592825         0.059380818         0.085715085
     0.653592825         0.059380818         0.585715055
     0.653592825         0.559380829         0.085715085
     0.653592825         0.559380829         0.585715055
