Ca V  O 
 1.0000000000000000
    11.0148601532000008    0.0000000000000000    0.0000000000000000
    -0.0001855896000000   10.4011516553999996    0.0000000000000000
     3.6723958583999998   -6.1538260171000001   14.5152821726999992
 Ca  V   O  
  11  36  90
Cartesian
  7.3709274059979268  4.0724071116641065  6.4040803442329599
  1.8507535069070111  3.4860827952764333  7.2735242529406152
  3.7226451765530850  0.6140100535878640 14.0445740807883102
  7.3181268424987032  1.2616895833978776 14.1377089474837039
 11.0072829937419741  0.6305148253879140 14.0845170007023928
  3.6742304447656040  3.7788023756295028  0.2190490232746458
  5.4793971224704769  0.9618762403795266  7.3574609379291349
  7.3430894471674772  3.3880667661909154  0.4801718089490098
  9.3129237262963187  0.8846406277676575  7.5025840205448482
 10.9565166291211487  3.3175071626986927  0.4074625497691488
 12.8869333583458783  0.0587205349623326  7.4918989191800982
  3.7039921170139389 -1.0561638903000157  4.8195389500775523
  5.4821832910196653 -3.8966380870239550 12.0976461036849816
  7.3638552400674531 -1.1443434892807891  4.9940582432830141
  9.2118060937060786 -3.9136283637729701 12.1098307933063420
 10.9977316341779705 -1.1513348123750349  4.9095473435013224
 12.8373125278667732 -4.0189323763595546 12.1171968195374511
  1.8197731610663013  8.1630346879612858  2.4690145653446343
  3.7038398007210604  5.2988923692710781  9.5878372649282131
  5.5137267756824748  8.1941728884183380  2.4275651650987364
  7.3442656832373130  5.5359391266745455  9.7631829561844103
  9.2029682687730308  8.1409628803385665  2.3713563090335774
 10.9881375495321780  5.3026627615259798  9.5583949705697204
  1.8580588049608704  6.8926362117460682  5.5605406740752441
  3.7075589966978506  4.0656830465041907 12.8091096546212952
  5.4737611905279060  6.8403924547220667  5.4487879369831527
  7.3434396923053642  4.0237115649515598 12.5413325009184735
  9.1937882844296617  6.8456926690994964  5.4680678507357179
 10.9969800343898108  4.0048989082854316 12.6557141675524942
  3.6525741985920277  0.1735816979112942  1.6158942841640351
  5.5040076311136144 -2.5541817331025038  8.9465504599146612
  7.3551414690688626  0.1137187273310901  1.7622630590939714
  9.1992661119967476 -2.5795466895554373  8.9765963115853769
 11.0293081743770554  0.2285670441383422  1.9505626763391570
 12.8604873145953373 -2.6940570589889608  9.0724768267579385
  1.7880173345188637  4.6743349324542836  3.1456767707322366
  3.6341331432704198  1.8507007585814594 10.3436039554221519
  5.4898448050007547  4.6872592234710808  3.1823790469553916
  7.3610175672887985  1.9425573785221502 10.2294739173404814
  9.1669716547280817  4.6590575328470463  3.2822181801722872
 11.0865393973120039  1.8211134521330625 10.3808122844752120
  3.6462402930895021  2.4059463154305250  4.2230094927124791
  5.5748223651318254 -0.3945581745991067 11.3170208763255822
  7.2557455960417965  2.1961831141794681  4.0139771553791022
  9.1450990093384874 -0.4165673030619010 11.3166782369950170
 10.9742511158719420  2.3568249955610563  4.2536456757348926
 12.8711547649100915 -0.5103533635925289 11.4342495669501520
  1.8671398768574594 -2.6113722427517367  7.3101589485891409
  3.6660117977233773 -5.9375387756912898 14.4921509127666468
  5.5142774159454468 -3.1030284550853766  7.2986050292196492
  7.3253769790754832 -6.7392779110750931 14.5383032842393618
  9.1647217198848754 -3.0822171188834537  7.3164215820946961
 11.0340051199569142 -6.0656680490236221 14.5269079316096512
  1.8124724124617704 -1.5338142270989830  4.6128695101424713
  3.6107150272322355 -4.4391661243445446 11.8676169503751048
  5.5995014296524426 -1.5671923498530409  4.5386412135727969
  7.3508797896418967 -4.2938337153290371 11.8674136506908905
  9.1298147177934954 -1.6049727864850500  4.5831809286269474
 11.0694019555981509 -4.4541634481093473 11.7803175041577965
  3.7191387080091109  8.6352337541221704  2.7022256230715143
  5.4995621558585119  5.8913532505197290 10.0060481590355703
  7.3568072380909273  8.5580445470940258  2.5688292533917756
  9.1631104922236144  5.9190263909124958  9.9934819078474089
 10.9683996921356410  8.6296793440919579  2.7882493293088846
 12.8972531740977701  5.6946765049245807  9.8312678006152385
  1.8069833018890284 -0.2445313184076376  1.9498623476761114
  3.6698379457246437 -3.1466771356431096  9.2189241408349289
  5.5193443104252182 -0.2631223476370829  1.9397070238971803
  7.3296668243628487 -2.8697711090128402  9.2931304080774666
  9.2025271452278918 -0.3160872334811314  1.9245142589551478
 11.0545960182500327 -3.1231042454733848  9.2085754539110258
  3.6966274283947764  7.3536466095742918  5.3463224409157588
  5.5020598808592061  4.5654387307337521 12.5639342038632975
  7.3349038913626865  7.3087275293177214  5.3752906936904203
  9.2120715060361142  4.5462824344949038 12.5900558417120099
 11.0106854134677317  7.2988837579709962  5.3871807719811038
 12.8382912927952262  4.3941571376467863 12.5239858446012544
  3.8153556730490159 -0.2998530111571481  6.3569693197324719
  5.4713456740271562 -3.1393238187885948 13.6423527663917383
  7.4023969415198545 -0.4184135993417172  6.5082617963401272
  9.2232547592277498 -3.1753762983909626 13.6650841724191263
 10.9074383916288795 -0.4137115990489869  6.4519155829730384
 12.7879877027282038 -3.4541399540434843 13.7268001876544563
  1.7457577127465893  7.4431156283241906  0.9025040411718965
  3.7709853115165939  4.5945210274237942  8.0915284110540622
  5.5591600674602155  7.4847288260445479  0.8669987425988207
  7.3415214942694167  5.1442164991755304  8.1701327294284649
  9.2347950439979147  7.4610400299758499  0.7972684836444770
 10.9438242933389791  4.5548762803888501  8.0719340324710274
  1.8447300679536747  2.7867964717173295  3.8475949472389943
  3.7504248730316836 -0.0017762799640292 11.2181741139577991
  5.3962274083945374  2.7247627645233683  3.6681759857909819
  7.3508242939723862 -0.0663315927081707 10.7579792659405395
  9.1516790045377814  2.7326211892148726  4.0541057771975533
 10.9701861474944220 -0.0443997189685844 11.2194446100905996
  3.6245417459069214  4.3028598249618621  3.4709685530370060
  5.4881474216314414  1.4675970245881502 10.4363748048459506
  7.3016466785550431  4.2403479628358092  3.5978542995784886
  9.2303787751823165  1.4471146040374088 10.4471214655983129
 11.0193059177320638  4.3062656716489647  3.6520395504859713
 12.8703633462287517  1.4844786756639754 10.9390348618147453
  3.6319121771248408  0.6885794890937676  3.7494807293389987
  5.4763377407827019 -2.1463729884778044 11.0666043675974883
  7.3864333277979659  0.3333461643964028  3.8539223387558348
  9.2133359113343634 -2.1728670778445598 11.1044485846019434
 11.0070758311566141  0.5442238321087495  3.9886956020012683
 12.8579643011308722 -2.4745611550128626 11.2405059946942991
  1.8299324249730560  6.4166629482086863  3.5403878252929535
  3.6959703275393259  3.6760161992175076 10.5942115732136060
  5.4904058782829992  6.5235405046258643  3.4030045404851745
  7.3591873538593964  3.8395706309044653 10.4267336459619742
  9.1781730561573465  6.4870122742725949  3.4103763996253278
 11.0012054186679507  3.6243210640138526 10.6122497119609172
  1.7164395451680932  4.5801808651055724  1.4405931510960643
  3.3904842229650427  1.6715258641497392  8.6438258595869542
  5.5607430420057096  4.6195355918183099  1.4561049036186937
  7.3977977341142207  1.9455442629409661  8.4661659287133837
  9.1737737419582164  4.4694064923340449  1.5592118948756253
 11.3285211109224697  1.6335427620081897  8.6779939823577603
  3.6658419193047318  2.4446618609986150  5.9032562499031034
  5.7584135296694443 -0.2523474635480993 13.0202987362950555
  6.9699322811495978  2.0545979344198004  5.7262789943136703
  8.9605114621962052 -0.2532402171507875 13.0184460991277096
 11.1193087734963409  2.3663170437954393  5.9455754997390793
 12.8637985872623624 -0.5274395769988839 13.1963236254209129
  3.6397658860119328  1.8275400196452551  1.3208012957470092
  5.3744757332635906 -0.8782021291186110  8.8354014155343581
  7.3919659777815978  1.8687752056661779  1.9925453388552126
  9.3293583257265968 -0.8889801379471449  8.9358008793918220
 10.9657399068011809  1.9626936152966219  2.0653056823446403
 12.8775836705921929 -0.9649893257909817  9.3910731581462770
  1.8762077099642165  5.2440562929121235  5.8729741044079251
  3.8210437784051927  2.3682910326249851 12.7583918546560646
  5.5354518778999662  5.1367488066476978  5.4675652989780463
  7.3567187256294826  2.2657196036262426 12.2296622297843562
  9.1213660926917850  5.1372403961125741  5.4914344013085845
 10.8886895771163683  2.3044691196558111 12.7111950139556225
