Ca V  O                                 
   1.00000000000000     
    11.0675246484437153    0.0037628825416705   -0.0469280908616298
    -1.8412914499009545    7.8969295508745372    0.2777027786371741
    -0.0429968302619881   -2.7388585757420625   10.0227655874488857
Ca V O  
               5              18              45
Direct
  0.5215342611507836  0.1126777212846406  0.3255180840486886
  0.0172006178607234  0.9949582559348542  0.3619196571575998
  0.1352413230856655  0.8351410670130548  0.6786711148206948
  0.4846481896702741  0.9234193877775709  0.6560455607344338
  0.8145619867460638  0.9284081544511622  0.6501945276762982
  0.0472062914212970  0.2644437728684323  0.1177220169350690
  0.3745150728086131  0.2578428601102019  0.1144982755205461
  0.7172125383376624  0.2608936555737671  0.1150018745861274
  0.3063001564478682  0.8182303944192952  0.9189370377600383
  0.6379127142155454  0.8229196195663206  0.9156672502781547
  0.9661784231356023  0.8245065801916027  0.9207934939376301
  0.1159094851423035  0.6753258219915850  0.0892850404855423
  0.4468610451946375  0.6630866702836613  0.0931128029655710
  0.7834543319784402  0.6726979333836596  0.0996984085823343
  0.2226775478101288  0.3303960511594042  0.8888922680071545
  0.5620324480335199  0.3572523343162501  0.9088799660607947
  0.8953611755090520  0.3575196043920315  0.8994678492748847
  0.0903463840988934  0.5570765947350083  0.3946466436284126
  0.4285720151234145  0.5424194993777647  0.3964788365367511
  0.7604916577423211  0.5226326760666282  0.3945284600662760
  0.2337534357468627  0.3999108273416354  0.5770732217852128
  0.5680441790154873  0.3897976081556749  0.5902420642626680
  0.9061009527776278  0.3783185991337419  0.5763290558907954
  0.0022744361322182  0.0317661159184013  0.0165741599700340
  0.3429736580286544  0.0279452124497510  0.0107957047473874
  0.6741000632618537  0.0307114174421699  0.0133429693173497
  0.2756853468031437  0.6495715525761483  0.0329515714086810
  0.6101570073649114  0.6424223908459510  0.0433254067781803
  0.9438410497626393  0.6407886115297146  0.0270647552741465
  0.0688911245653898  0.3904885942867011  0.9477748861197455
  0.3979764334861642  0.3915691843507716  0.9545028365069896
  0.7366046902918697  0.4007935549915942  0.9598454266801397
  0.2137514095291309  0.2777563391048119  0.0728704123957442
  0.5495922889832627  0.2834295193541081  0.0864628376928991
  0.8858929359051260  0.2896328183948853  0.0811714010631519
  0.1285744709991974  0.7809517475141377  0.9175097619624779
  0.4661687833083192  0.7615117852938695  0.9350060416636836
  0.7911027301445870  0.7674095181178444  0.9400723759103755
  0.1338671832039751  0.8596610069807653  0.2000881359848705
  0.4749274995861228  0.8457191342288723  0.2071236316670806
  0.8349854767787406  0.8510540375649640  0.2156687339370507
  0.1894580211365877  0.1290256662600910  0.8010385371609559
  0.5309322386871784  0.1564043553340326  0.8228664915187878
  0.8529995755897417  0.1532869456601347  0.8211426869074003
  0.0923721124420780  0.5276660326004219  0.2090439700480431
  0.4184626253903829  0.5157431077131704  0.2130635826902250
  0.7573033991686984  0.5182250114264804  0.2149678296049871
  0.2435266489121091  0.4415513588846025  0.7545140380058584
  0.5806404292406384  0.4618855869355656  0.7644452634026138
  0.9117691764969180  0.4492985977143036  0.7544650842609570
  0.0472194684869862  0.2309573274403576  0.2707164245112992
  0.3643560539720951  0.2183104370750613  0.2665456494248204
  0.7126967463724796  0.2219541254720454  0.2683395959016153
  0.3166371727875870  0.8130827696449217  0.7491323715720597
  0.6388864378130421  0.8365301418202762  0.7511493820015716
  0.9500942450609386  0.8296337143258938  0.7548848405203898
  0.0833095808675353  0.4903712500495274  0.5694928620269764
  0.4118343569031353  0.4493552057861834  0.5579899023675310
  0.7434359177632075  0.4231787270735623  0.5551195907032564
  0.2536491265132383  0.5183451052472776  0.4256930660610792
  0.5806200648831989  0.4568038031859558  0.4152012547601842
  0.9171154430844624  0.4674469517034936  0.4128948319518244
  0.0994733226260252  0.7730044409401984  0.4498273628747000
  0.4849613698898239  0.7551963830979673  0.4506803638977104
  0.8021107982859732  0.7372835878273349  0.4545277206491534
  0.1804207978570176  0.1880363517106289  0.5208276900026831
  0.5251148799907170  0.1688431067547569  0.5527933368013365
  0.8940469295901039  0.1610996798423727  0.5371140562903420
 
  0.00000000E+00  0.00000000E+00  0.00000000E+00
  0.00000000E+00  0.00000000E+00  0.00000000E+00
  0.00000000E+00  0.00000000E+00  0.00000000E+00
  0.00000000E+00  0.00000000E+00  0.00000000E+00
  0.00000000E+00  0.00000000E+00  0.00000000E+00
  0.00000000E+00  0.00000000E+00  0.00000000E+00
  0.00000000E+00  0.00000000E+00  0.00000000E+00
  0.00000000E+00  0.00000000E+00  0.00000000E+00
  0.00000000E+00  0.00000000E+00  0.00000000E+00
  0.00000000E+00  0.00000000E+00  0.00000000E+00
  0.00000000E+00  0.00000000E+00  0.00000000E+00
  0.00000000E+00  0.00000000E+00  0.00000000E+00
  0.00000000E+00  0.00000000E+00  0.00000000E+00
  0.00000000E+00  0.00000000E+00  0.00000000E+00
  0.00000000E+00  0.00000000E+00  0.00000000E+00
  0.00000000E+00  0.00000000E+00  0.00000000E+00
  0.00000000E+00  0.00000000E+00  0.00000000E+00
  0.00000000E+00  0.00000000E+00  0.00000000E+00
  0.00000000E+00  0.00000000E+00  0.00000000E+00
  0.00000000E+00  0.00000000E+00  0.00000000E+00
  0.00000000E+00  0.00000000E+00  0.00000000E+00
  0.00000000E+00  0.00000000E+00  0.00000000E+00
  0.00000000E+00  0.00000000E+00  0.00000000E+00
  0.00000000E+00  0.00000000E+00  0.00000000E+00
  0.00000000E+00  0.00000000E+00  0.00000000E+00
  0.00000000E+00  0.00000000E+00  0.00000000E+00
  0.00000000E+00  0.00000000E+00  0.00000000E+00
  0.00000000E+00  0.00000000E+00  0.00000000E+00
  0.00000000E+00  0.00000000E+00  0.00000000E+00
  0.00000000E+00  0.00000000E+00  0.00000000E+00
  0.00000000E+00  0.00000000E+00  0.00000000E+00
  0.00000000E+00  0.00000000E+00  0.00000000E+00
  0.00000000E+00  0.00000000E+00  0.00000000E+00
  0.00000000E+00  0.00000000E+00  0.00000000E+00
  0.00000000E+00  0.00000000E+00  0.00000000E+00
  0.00000000E+00  0.00000000E+00  0.00000000E+00
  0.00000000E+00  0.00000000E+00  0.00000000E+00
  0.00000000E+00  0.00000000E+00  0.00000000E+00
  0.00000000E+00  0.00000000E+00  0.00000000E+00
  0.00000000E+00  0.00000000E+00  0.00000000E+00
  0.00000000E+00  0.00000000E+00  0.00000000E+00
  0.00000000E+00  0.00000000E+00  0.00000000E+00
  0.00000000E+00  0.00000000E+00  0.00000000E+00
  0.00000000E+00  0.00000000E+00  0.00000000E+00
  0.00000000E+00  0.00000000E+00  0.00000000E+00
  0.00000000E+00  0.00000000E+00  0.00000000E+00
  0.00000000E+00  0.00000000E+00  0.00000000E+00
  0.00000000E+00  0.00000000E+00  0.00000000E+00
  0.00000000E+00  0.00000000E+00  0.00000000E+00
  0.00000000E+00  0.00000000E+00  0.00000000E+00
  0.00000000E+00  0.00000000E+00  0.00000000E+00
  0.00000000E+00  0.00000000E+00  0.00000000E+00
  0.00000000E+00  0.00000000E+00  0.00000000E+00
  0.00000000E+00  0.00000000E+00  0.00000000E+00
  0.00000000E+00  0.00000000E+00  0.00000000E+00
  0.00000000E+00  0.00000000E+00  0.00000000E+00
  0.00000000E+00  0.00000000E+00  0.00000000E+00
  0.00000000E+00  0.00000000E+00  0.00000000E+00
  0.00000000E+00  0.00000000E+00  0.00000000E+00
  0.00000000E+00  0.00000000E+00  0.00000000E+00
  0.00000000E+00  0.00000000E+00  0.00000000E+00
  0.00000000E+00  0.00000000E+00  0.00000000E+00
  0.00000000E+00  0.00000000E+00  0.00000000E+00
  0.00000000E+00  0.00000000E+00  0.00000000E+00
  0.00000000E+00  0.00000000E+00  0.00000000E+00
  0.00000000E+00  0.00000000E+00  0.00000000E+00
  0.00000000E+00  0.00000000E+00  0.00000000E+00
  0.00000000E+00  0.00000000E+00  0.00000000E+00
