Ca1 V4 Ni2 O12
1.0
       13.7748861313         0.0000000000         0.0000000000
       -1.9106827556        13.3221619039         0.0000000000
       -2.6702859462         2.9562644754        10.7937592753
   Ca    V   Ni    O
    7   32   16   96
Direct
     0.634554505         0.206178993         0.161765993
     0.134554505         0.206178993         0.161765993
     0.134554505         0.206178993         0.661765993
     0.134554505         0.706179023         0.161765993
     0.134554505         0.706179023         0.661765993
     0.634554505         0.706179023         0.161765993
     0.634554505         0.706179023         0.661765993
     0.099626496         0.316399992         0.367985487
     0.099626496         0.316399992         0.867985487
     0.099626496         0.816399992         0.367985487
     0.099626496         0.816399992         0.867985487
     0.599626482         0.316399992         0.367985487
     0.599626482         0.316399992         0.867985487
     0.599626482         0.816399992         0.367985487
     0.599626482         0.816399992         0.867985487
     0.195493504         0.430480987         0.099404998
     0.195493504         0.430480987         0.599404991
     0.195493504         0.930480957         0.099404998
     0.195493504         0.930480957         0.599404991
     0.695493519         0.430480987         0.099404998
     0.695493519         0.430480987         0.599404991
     0.695493519         0.930480957         0.099404998
     0.695493519         0.930480957         0.599404991
     0.306593508         0.100648999         0.385645002
     0.306593508         0.100648999         0.885645032
     0.306593508         0.600648999         0.385645002
     0.306593508         0.600648999         0.885645032
     0.806593537         0.100648999         0.385645002
     0.806593537         0.100648999         0.885645032
     0.806593537         0.600648999         0.385645002
     0.806593537         0.600648999         0.885645032
     0.391354501         0.196430996         0.127214506
     0.391354501         0.196430996         0.627214491
     0.391354501         0.696430981         0.127214506
     0.391354501         0.696430981         0.627214491
     0.891354501         0.196430996         0.127214506
     0.891354501         0.196430996         0.627214491
     0.891354501         0.696430981         0.127214506
     0.891354501         0.696430981         0.627214491
     0.038171001         0.047851000         0.384577006
     0.038171001         0.047851000         0.884577036
     0.038171001         0.547851026         0.384577006
     0.038171001         0.547851026         0.884577036
     0.538170993         0.047851000         0.384577006
     0.538170993         0.047851000         0.884577036
     0.538170993         0.547851026         0.384577006
     0.538170993         0.547851026         0.884577036
     0.457715005         0.469035000         0.134815007
     0.457715005         0.469035000         0.634814978
     0.457715005         0.969035029         0.134815007
     0.457715005         0.969035029         0.634814978
     0.957715034         0.469035000         0.134815007
     0.957715034         0.469035000         0.634814978
     0.957715034         0.969035029         0.134815007
     0.957715034         0.969035029         0.634814978
     0.018877000         0.415849000         0.320305496
     0.018877000         0.415849000         0.820305467
     0.018877000         0.915848970         0.320305496
     0.018877000         0.915848970         0.820305467
     0.518877029         0.415849000         0.320305496
     0.518877029         0.415849000         0.820305467
     0.518877029         0.915848970         0.320305496
     0.518877029         0.915848970         0.820305467
     0.035483502         0.197406501         0.387356013
     0.035483502         0.197406501         0.887356043
     0.035483502         0.697406530         0.387356013
     0.035483502         0.697406530         0.887356043
     0.535483479         0.197406501         0.387356013
     0.535483479         0.197406501         0.887356043
     0.535483479         0.697406530         0.387356013
     0.535483479         0.697406530         0.887356043
     0.084385499         0.496860504         0.071824498
     0.084385499         0.496860504         0.571824491
     0.084385499         0.996860504         0.071824498
     0.084385499         0.996860504         0.571824491
     0.584385514         0.496860504         0.071824498
     0.584385514         0.496860504         0.571824491
     0.584385514         0.996860504         0.071824498
     0.584385514         0.996860504         0.571824491
     0.168895006         0.326642007         0.252402008
     0.168895006         0.326642007         0.752402008
     0.168895006         0.826642036         0.252402008
     0.168895006         0.826642036         0.752402008
     0.668895006         0.326642007         0.252402008
     0.668895006         0.326642007         0.752402008
     0.668895006         0.826642036         0.252402008
     0.668895006         0.826642036         0.752402008
     0.192448497         0.035337001         0.402821004
     0.192448497         0.035337001         0.902821004
     0.192448497         0.535336971         0.402821004
     0.192448497         0.535336971         0.902821004
     0.692448497         0.035337001         0.402821004
     0.692448497         0.035337001         0.902821004
     0.692448497         0.535336971         0.402821004
     0.692448497         0.535336971         0.902821004
     0.169526502         0.317956507         0.019661000
     0.169526502         0.317956507         0.519661009
     0.169526502         0.817956507         0.019661000
     0.169526502         0.817956507         0.519661009
     0.669526517         0.317956507         0.019661000
     0.669526517         0.317956507         0.519661009
     0.669526517         0.817956507         0.019661000
     0.669526517         0.817956507         0.519661009
     0.332387507         0.197125494         0.470870495
     0.332387507         0.197125494         0.970870495
     0.332387507         0.697125494         0.470870495
     0.332387507         0.697125494         0.970870495
     0.832387507         0.197125494         0.470870495
     0.832387507         0.197125494         0.970870495
     0.832387507         0.697125494         0.470870495
     0.832387507         0.697125494         0.970870495
     0.315957993         0.482695013         0.143102497
     0.315957993         0.482695013         0.643102527
     0.315957993         0.982694983         0.143102497
     0.315957993         0.982694983         0.643102527
     0.815958023         0.482695013         0.143102497
     0.815958023         0.482695013         0.643102527
     0.815958023         0.982694983         0.143102497
     0.815958023         0.982694983         0.643102527
     0.295984000         0.166034997         0.224583000
     0.295984000         0.166034997         0.724583030
     0.295984000         0.666034997         0.224583000
     0.295984000         0.666034997         0.724583030
     0.795984030         0.166034997         0.224583000
     0.795984030         0.166034997         0.724583030
     0.795984030         0.666034997         0.224583000
     0.795984030         0.666034997         0.724583030
     0.399126500         0.018985000         0.432045490
     0.399126500         0.018985000         0.932045460
     0.399126500         0.518984973         0.432045490
     0.399126500         0.518984973         0.932045460
     0.899126530         0.018985000         0.432045490
     0.899126530         0.018985000         0.932045460
     0.899126530         0.518984973         0.432045490
     0.899126530         0.518984973         0.932045460
     0.435722500         0.318281502         0.120053001
     0.435722500         0.318281502         0.620052993
     0.435722500         0.818281531         0.120053001
     0.435722500         0.818281531         0.620052993
     0.935722470         0.318281502         0.120053001
     0.935722470         0.318281502         0.620052993
     0.935722470         0.818281531         0.120053001
     0.935722470         0.818281531         0.620052993
     0.492697507         0.119801998         0.181067497
     0.492697507         0.119801998         0.681067467
     0.492697507         0.619801998         0.181067497
     0.492697507         0.619801998         0.681067467
     0.992697477         0.119801998         0.181067497
     0.992697477         0.119801998         0.681067467
     0.992697477         0.619801998         0.181067497
     0.992697477         0.619801998         0.681067467
