Ca Mn V  P  O 
1.0
       10.0397548676         0.0000000000         0.0000000000
        2.3967290247         6.9451909465         0.0000000000
        0.0195867490         0.0259591874        25.5017130456
   Ca   Mn    V    P    O
   11    6    6   24   84
Direct
     0.111112557         0.261835098         0.309167802
     0.118589230         0.264560610         0.631394446
     0.618589222         0.264560610         0.631394446
     0.115338616         0.261476278         0.967948139
     0.615338624         0.261476278         0.967948139
     0.379566967         0.729849339         0.136243820
     0.879566967         0.729849339         0.136243820
     0.387800366         0.747919559         0.472250640
     0.887800336         0.747919559         0.472250640
     0.381486595         0.732331693         0.801341891
     0.881486595         0.732331693         0.801341891
     0.114610940         0.262471646         0.492661119
     0.614610910         0.262471646         0.492661119
     0.391014785         0.739902556         0.661843777
     0.891014814         0.739902556         0.661843777
     0.389551848         0.738255680         0.998151302
     0.889551878         0.738255680         0.998151302
     0.109152563         0.266648084         0.168287277
     0.609152555         0.266648084         0.168287277
     0.109714873         0.265002280         0.830606639
     0.609714866         0.265002280         0.830606639
     0.389238894         0.738102555         0.330198646
     0.889238894         0.738102555         0.330198646
     0.191797599         0.492289782         0.066413887
     0.691797614         0.492289782         0.066413887
     0.192322895         0.522308230         0.396554708
     0.692322910         0.522308230         0.396554708
     0.193411365         0.495469838         0.730356157
     0.693411350         0.495469838         0.730356157
     0.105274431         0.893933415         0.257491559
     0.605274439         0.893933415         0.257491559
     0.109037362         0.893631220         0.585732281
     0.609037340         0.893631220         0.585732281
     0.107736126         0.890602589         0.921811700
     0.607736111         0.890602589         0.921811700
     0.391995281         0.100450478         0.093758598
     0.891995311         0.100450478         0.093758598
     0.396381527         0.118760340         0.416746676
     0.896381497         0.118760340         0.416746676
     0.392894626         0.102313094         0.756998241
     0.892894626         0.102313094         0.756998241
     0.303657979         0.499035329         0.233695731
     0.803658009         0.499035329         0.233695731
     0.310874403         0.495597869         0.561618686
     0.810874403         0.495597869         0.561618686
     0.306795090         0.493163437         0.897441983
     0.806795120         0.493163437         0.897441983
     0.019297769         0.162778065         0.102955073
     0.519297779         0.162778065         0.102955073
     0.021847125         0.161711663         0.765993237
     0.521847129         0.161711663         0.765993237
     0.026040517         0.181715697         0.419794828
     0.526040494         0.181715697         0.419794828
     0.081201576         0.075394057         0.889959276
     0.581201553         0.075394057         0.889959276
     0.077077545         0.083499566         0.228280067
     0.577077568         0.083499566         0.228280067
     0.086205706         0.077066943         0.553521395
     0.586205721         0.077066943         0.553521395
     0.092961043         0.527102530         0.019204579
     0.592961073         0.527102530         0.019204579
     0.095794596         0.530962050         0.682834506
     0.595794618         0.530962050         0.682834506
     0.094652109         0.557504773         0.348910540
     0.594652116         0.557504773         0.348910540
     0.114882283         0.509877145         0.782928824
     0.614882290         0.509877145         0.782928824
     0.114339277         0.509485722         0.119206876
     0.614339292         0.509485722         0.119206876
     0.114807025         0.542402744         0.448880941
     0.614807010         0.542402744         0.448880941
     0.201154858         0.384420007         0.235464126
     0.701154828         0.384420007         0.235464126
     0.205757648         0.385549158         0.561009347
     0.705757618         0.385549158         0.561009347
     0.200013861         0.384387046         0.896304071
     0.700013876         0.384387046         0.896304071
     0.312043697         0.076387800         0.143841386
     0.812043667         0.076387800         0.143841386
     0.330745012         0.089577012         0.469546288
     0.830744982         0.089577012         0.469546288
     0.313143730         0.080339193         0.807407916
     0.813143730         0.080339193         0.807407916
     0.281542003         0.263673425         0.056133270
     0.781542003         0.263673425         0.056133270
     0.275827587         0.291937053         0.384876072
     0.775827587         0.291937053         0.384876072
     0.283848017         0.266897559         0.719633818
     0.783848047         0.266897559         0.719633818
     0.216312081         0.727727175         0.221012071
     0.716312051         0.727727175         0.221012071
     0.223498270         0.723854899         0.886542678
     0.723498285         0.723854899         0.886542678
     0.226290271         0.727000594         0.550969899
     0.726290286         0.727000594         0.550969899
     0.183770150         0.912478864         0.308434427
     0.683770180         0.912478864         0.308434427
     0.179955751         0.919472992         0.637705505
     0.679955721         0.919472992         0.637705505
     0.180648014         0.918675184         0.973219216
     0.680648029         0.918675184         0.973219216
     0.292301804         0.609509647         0.066060461
     0.792301774         0.609509647         0.066060461
     0.298783958         0.631608546         0.396777153
     0.798783958         0.631608546         0.396777153
     0.293718815         0.612847567         0.731000304
     0.793718815         0.612847567         0.731000304
     0.381683528         0.488257974         0.286107510
     0.881683528         0.488257974         0.286107510
     0.387401104         0.475738704         0.614408612
     0.887401104         0.475738704         0.614408612
     0.382127583         0.470612973         0.950391769
     0.882127583         0.470612973         0.950391769
     0.402241260         0.458850890         0.186510891
     0.902241230         0.458850890         0.186510891
     0.408305764         0.461207926         0.513925016
     0.908305764         0.461207926         0.513925016
     0.405314654         0.455965400         0.850075722
     0.905314684         0.455965400         0.850075722
     0.421640456         0.913584709         0.062353112
     0.921640456         0.913584709         0.062353112
     0.421116203         0.915085435         0.726044059
     0.921116233         0.915085435         0.726044059
     0.414998591         0.940328360         0.383575529
     0.914998591         0.940328360         0.383575529
     0.475805193         0.833333313         0.264618963
     0.975805163         0.833333313         0.264618963
     0.480878502         0.829491615         0.591346979
     0.980878472         0.829491615         0.591346979
     0.480668098         0.825782001         0.929098129
     0.980668068         0.825782001         0.929098129
