Ca2 V6 O15
1.0
       11.0148601532         0.0000000000         0.0000000000
       -0.0001855896        10.4011516554         0.0000000000
        3.6723958584        -6.1538260171        14.5152821727
   Ca    V    O
   11   36   90
Direct
     0.669235647         0.680881977         0.492374510
     0.002569000         0.680881977         0.492374510
     0.002569000         0.680881977         0.992374539
     0.335902333         0.680881977         0.992374539
     0.669235647         0.680881977         0.992374539
     0.330760658         0.319133997         0.007639000
     0.330760658         0.319133997         0.507638991
     0.664093971         0.319133997         0.007639000
     0.664093971         0.319133997         0.507638991
     0.997427344         0.319133997         0.007639000
     0.997427344         0.319133997         0.507638991
     0.220778003         0.103523001         0.337670505
     0.220778003         0.103523001         0.837670505
     0.554111362         0.103523001         0.337670505
     0.554111362         0.103523001         0.837670505
     0.887444675         0.103523001         0.337670505
     0.887444675         0.103523001         0.837670505
     0.112557329         0.896479011         0.162325993
     0.112557329         0.896479011         0.662325978
     0.445890665         0.896479011         0.162325993
     0.445890665         0.896479011         0.662325978
     0.779223979         0.896479011         0.162325993
     0.779223979         0.896479011         0.662325978
     0.040502332         0.888023019         0.378410488
     0.040502332         0.888023019         0.878410459
     0.373835653         0.888023019         0.378410488
     0.373835653         0.888023019         0.878410459
     0.707168996         0.888023019         0.378410488
     0.707168996         0.888023019         0.878410459
     0.292829335         0.111997999         0.121592999
     0.292829335         0.111997999         0.621592999
     0.626162648         0.111997999         0.121592999
     0.626162648         0.111997999         0.621592999
     0.959496021         0.111997999         0.121592999
     0.959496021         0.111997999         0.621592999
     0.096257329         0.585793972         0.211322501
     0.096257329         0.585793972         0.711322486
     0.429590672         0.585793972         0.211322501
     0.429590672         0.585793972         0.711322486
     0.762924016         0.585793972         0.211322501
     0.762924016         0.585793972         0.711322486
     0.237072334         0.414204001         0.288687497
     0.237072334         0.414204001         0.788687468
     0.570405662         0.414204001         0.288687497
     0.570405662         0.414204001         0.788687468
     0.903738976         0.414204001         0.288687497
     0.903738976         0.414204001         0.788687468
     0.000000000         0.000010000         0.499997497
     0.000000000         0.000010000         0.999997497
     0.333333343         0.000010000         0.499997497
     0.333333343         0.000010000         0.999997497
     0.666666687         0.000010000         0.499997497
     0.666666687         0.000010000         0.999997497
     0.061937999         0.039739002         0.314184994
     0.061937999         0.039739002         0.814185023
     0.395271331         0.039739002         0.314184994
     0.395271331         0.039739002         0.814185023
     0.728604674         0.039739002         0.314184994
     0.728604674         0.039739002         0.814185023
     0.271400005         0.960246027         0.185801506
     0.271400005         0.960246027         0.685801506
     0.604733348         0.960246027         0.185801506
     0.604733348         0.960246027         0.685801506
     0.938066661         0.960246027         0.185801506
     0.938066661         0.960246027         0.685801506
     0.122168995         0.073129997         0.133530498
     0.122168995         0.073129997         0.633530498
     0.455502331         0.073129997         0.133530498
     0.455502331         0.073129997         0.633530498
     0.788835645         0.073129997         0.133530498
     0.788835645         0.073129997         0.633530498
     0.211164340         0.926869988         0.366468012
     0.211164340         0.926869988         0.866468012
     0.544497669         0.926869988         0.366468012
     0.544497669         0.926869988         0.866468012
     0.877830982         0.926869988         0.366468012
     0.877830982         0.926869988         0.866468012
     0.185846671         0.235453993         0.442369998
     0.185846671         0.235453993         0.942369998
     0.519180000         0.235453993         0.442369998
     0.519180000         0.235453993         0.942369998
     0.852513313         0.235453993         0.442369998
     0.852513313         0.235453993         0.942369998
     0.147502333         0.764514983         0.057604499
     0.147502333         0.764514983         0.557604492
     0.480835676         0.764514983         0.057604499
     0.480835676         0.764514983         0.557604492
     0.814168990         0.764514983         0.057604499
     0.814168990         0.764514983         0.557604492
     0.080186665         0.431461990         0.259391010
     0.080186665         0.431461990         0.759391010
     0.413520008         0.431461990         0.259391010
     0.413520008         0.431461990         0.759391010
     0.746853352         0.431461990         0.259391010
     0.746853352         0.431461990         0.759391010
     0.253143668         0.568542004         0.240615502
     0.253143668         0.568542004         0.740615487
     0.586476982         0.568542004         0.240615502
     0.586476982         0.568542004         0.740615487
     0.919810355         0.568542004         0.240615502
     0.919810355         0.568542004         0.740615487
     0.244503006         0.230182007         0.266458005
     0.244503006         0.230182007         0.766458035
     0.577836335         0.230182007         0.266458005
     0.577836335         0.230182007         0.766458035
     0.911169648         0.230182007         0.266458005
     0.911169648         0.230182007         0.766458035
     0.088830672         0.769810021         0.233538002
     0.088830672         0.769810021         0.733538032
     0.422163993         0.769810021         0.233538002
     0.422163993         0.769810021         0.733538032
     0.755497336         0.769810021         0.233538002
     0.755497336         0.769810021         0.733538032
     0.133680001         0.508724988         0.099087499
     0.133680001         0.508724988         0.599087477
     0.467013329         0.508724988         0.099087499
     0.467013329         0.508724988         0.599087477
     0.800346673         0.508724988         0.099087499
     0.800346673         0.508724988         0.599087477
     0.199651346         0.491254002         0.400913000
     0.199651346         0.491254002         0.900913000
     0.532984674         0.491254002         0.400913000
     0.532984674         0.491254002         0.900913000
     0.866317987         0.491254002         0.400913000
     0.866317987         0.491254002         0.900913000
     0.294715315         0.268270999         0.115762003
     0.294715315         0.268270999         0.615761995
     0.628048658         0.268270999         0.115762003
     0.628048658         0.268270999         0.615761995
     0.961381972         0.268270999         0.115762003
     0.961381972         0.268270999         0.615761995
     0.038608667         0.731752992         0.384254992
     0.038608667         0.731752992         0.884254992
     0.371942014         0.731752992         0.384254992
     0.371942014         0.731752992         0.884254992
     0.705275357         0.731752992         0.384254992
     0.705275357         0.731752992         0.884254992
