Co4 P8 O28
1.0
  -0.0312120000000000   -0.0024389999999990    5.0563000000000002
  14.6678560000000004   -7.5126539999999995    2.4388519999999998
   2.9448989999999999    7.0158719999999999    2.5057960000000001
Co P O
4 8 28
direct
   0.7299580000000000    0.7526929999999999    0.2503420000000000 Co
   0.0281830000000000    0.5063430000000000    0.9935280000000000 Co
   0.2260790000000000    0.2553749999999990    0.7431600000000000 Co
   0.5195820000000000    0.0037930000000000    0.4916529999999991 Co
   0.4055979999999990    0.3456490000000000    0.0449750000000000 P
   0.9055960000000000    0.8448380000000000    0.5425610000000000 P
   0.9559970000000000    0.0934800000000000    0.7928780000000000 P
   0.4608140000000000    0.5949220000000000    0.2920220000000000 P
   0.0870089999999990    0.1509250000000000    0.4490780000000000 P
   0.5968730000000000    0.6542749999999991    0.9530800000000000 P
   0.5587770000000000    0.4036530000000000    0.7015150000000000 P
   0.0502500000000000    0.8995320000000000    0.1995970000000000 P
   0.0083140000000000    0.1749230000000000    0.8691000000000001 O
   0.5131590000000000    0.6766420000000000    0.3701520000000000 O
   0.1978180000000000    0.4263450000000000    0.1206500000000000 O
   0.6932619999999990    0.9243920000000000    0.6189990000000000 O
   0.3308700000000001    0.0781480000000000    0.3839220000000000 O
   0.8389800000000001    0.5805979999999999    0.8881540000000000 O
   0.4450889999999990    0.3311030000000000    0.6369020000000000 O
   0.9511729999999990    0.8244700000000000    0.1318860000000000 O
   0.6469600000000001    0.3706149999999990    0.8710430000000000 O
   0.1443780000000000    0.8701190000000000    0.3697789999999990 O
   0.8626520000000000    0.1177440000000000    0.6183930000000000 O
   0.3686230000000000    0.6193919999999991    0.1185870000000000 O
   0.2436920000000000    0.2873950000000000    0.9715720000000000 O
   0.7442820000000000    0.7848910000000000    0.4705860000000000 O
   0.2465629999999990    0.0362230000000000    0.7197749999999991 O
   0.7496640000000000    0.5372570000000000    0.2220780000000000 O
   0.1931480000000000    0.2198480000000000    0.5328079999999999 O
   0.7046169999999990    0.7232890000000000    0.0346070000000000 O
   0.3061620000000000    0.4725820000000000    0.7845460000000000 O
   0.7918330000000000    0.9669160000000000    0.2823950000000000 O
   0.5559100000000000    0.3089790000000000    0.1634130000000000 O
   0.0532119999999990    0.8077240000000000    0.6617839999999990 O
   0.7252879999999990    0.0562340000000000    0.9115280000000000 O
   0.2281060000000000    0.5595780000000000    0.4137809999999990 O
   0.8059680000000000    0.4285810000000000    0.5715549999999990 O
   0.2915410000000000    0.9261819999999999    0.0674540000000000 O
   0.9444129999999999    0.1762989999999990    0.3192210000000000 O
   0.4599049999999990    0.6797190000000000    0.8206049999999990 O
