Co P  O 
 1.0000000000000000
    -0.0312120000000000   -0.0024389999999990    5.0563000000000002
    14.6678560000000004   -7.5126539999999995    2.4388519999999998
     2.9448989999999999    7.0158719999999999    2.5057960000000001
 Co  P   O  
   4   8  28
Cartesian
 11.7623165394281646 -3.9054569953545801  6.1380261191374954
 10.3398964787364278  3.2350212821509294  3.8557058013656484
  5.9241737160096166  3.3634819868760015  3.6349474672497615
  1.5164696433231957  3.4872986048192205  3.8992288651345195
  5.1312267396765163 -2.2900358635074243  2.9980813336157048
 13.9249264216119801 -2.5403887748660354  7.9960584053632058
  3.6166772432784340  4.8517197841059874  7.0620819786679760
  9.4853988631546180 -2.4143933653291012  4.5047590671072788
  3.5914832261380285  2.0205255217112765  1.9941613001516305
 12.3712132991559258  1.7686791362644934  6.9953041132713381
  8.0162896103763366  1.8928245537402872  5.5107455793245679
 13.9018266978474507 -5.3686073634705558  2.9449691710079557
  4.9527535504758413  4.6963451710082307  2.8557403457795569
 10.8001480970289911 -2.5776281476026175  5.3346440953567065
  6.4400826654461545 -2.4516679218409401  2.1526543881887887
 15.2245184988000517 -2.6988289534954810  7.1336089909407132
  2.4318852504412902  2.1708387965937663  3.0340617988247880
 11.2110620758463853  1.9162019434112680  8.0393350917498569
  6.8573273663918890  2.0389505508733397  4.4712597080517602
 12.6953541522407143 -5.2255541787313637  6.9823842668823639
  7.9842228666594721  3.3119850749497970  6.3605459212279225
 13.8859944938904594 -3.9515598398811962  3.7964394870011025
  3.5348650330797313  3.4391095341327245  6.2009099945280042
  9.3881614083370195 -3.8258944857786847  3.6424268995434770
  6.8623890913347072  4.6556966942171405  4.5207244554408055
 12.6946880019117359 -2.6182315981838737  7.0356477749760904
  2.4300235759657562  4.7770426964630062  2.9847582419525418
  8.2759042237182481 -2.4968313152054229  5.4953196013805750
  4.9412767904614245  2.0830347970093341  2.7846711133262603
 10.7770818818161853 -5.1824989101187038  5.2741744600404177
  9.3665597192757133  1.9578141001561555  4.7185204151642157
 15.2160675090718343 -5.3008078063162314  7.1972999071930293
  5.1136901816193099 -1.1315280061683277  3.9108881074513131
 13.9631448536559208 -1.3796532175861231  3.8526567816992494
  3.6038789943427147  6.0119447735067988  6.1512278355884931
  9.4554951733343717 -1.2537549338446965  3.5952787626816041
  7.8986184060489295  0.7447281973749352  6.4291552840973889
 13.8114704914843056 -6.5171069976329417  3.8658088018396839
  3.4429753111734733  0.8726920045191557  6.1291410462938822
 12.2301767982666743  0.6243035196521244  6.0758530187781847
