Ca Sr Cr F 
1.0
        7.6255774498         0.0000000000         0.0000000000
        3.8313323882        10.3129256894         0.0000000000
        3.8138115061         0.6311515387        27.9312485967
   Ca   Sr   Cr    F
   11   16   20  104
Direct
     0.751901567         0.502616286         0.501028240
     0.913797855         0.365670562         0.376647323
     0.008024812         0.746189117         0.749596834
     0.152045593         0.136140868         0.123188481
     0.085618459         0.638111055         0.623798907
     0.852936268         0.862377465         0.876235664
     0.509245634         0.744267225         0.748905361
     0.745835066         0.001369715         0.002176166
     0.494065791         0.249534726         0.251442045
     0.256052613         0.995560169         0.997457743
     0.993454278         0.250832915         0.249641344
     0.999211907         0.328848422         0.751328647
     0.999847353         0.668190777         0.250507802
     0.417220414         0.833538413         0.248518199
     0.598047554         0.235278323         0.594142318
     0.584787190         0.161624819         0.751527250
     0.310777634         0.464551806         0.850821257
     0.680467367         0.611945212         0.994875133
     0.116312124         0.039564658         0.650543690
     0.211390778         0.115629226         0.495023876
     0.793472826         0.891953170         0.503489196
     0.692946136         0.533118904         0.149156928
     0.061771315         0.740688801         0.094217680
     0.939840972         0.255733728         0.905891955
     0.873399019         0.967002153         0.350049525
     0.321942717         0.385399997         0.005378081
     0.397386223         0.762246966         0.405668110
     0.412369460         0.473665804         0.719910443
     0.635659575         0.613148510         0.615047455
     0.585347772         0.519868672         0.279757112
     0.081239268         0.335207105         0.600876093
     0.117045842         0.701425493         0.963602602
     0.711222947         0.916076660         0.657336354
     0.716089785         0.205137014         0.463760138
     0.628906071         0.116063625         0.115231842
     0.526834071         0.166909441         0.897714198
     0.474630564         0.830630660         0.101992473
     0.885226548         0.296556801         0.036089737
     0.213405669         0.415065050         0.157359034
     0.374278426         0.881160200         0.884393156
     0.364529639         0.385470510         0.384706169
     0.883176446         0.981532812         0.220231965
     0.786734581         0.584150136         0.842970848
     0.909405649         0.671775818         0.398722351
     0.283816010         0.086480662         0.342389405
     0.123088002         0.013979970         0.779534161
     0.291435063         0.798873365         0.536842048
     0.683293760         0.377824187         0.230279759
     0.363361239         0.546026647         0.421617299
     0.940578163         0.120332278         0.735714912
     0.740283132         0.727437794         0.107751809
     0.964530468         0.407755613         0.833181143
     0.003428340         0.654182792         0.835265398
     0.213448405         0.935896218         0.086483695
     0.841538906         0.424302876         0.300982684
     0.296462327         0.372252494         0.766970217
     0.538637877         0.114011817         0.485427260
     0.366940081         0.708588481         0.601689637
     0.156146988         0.780953526         0.899448693
     0.772809684         0.539088011         0.910795569
     0.788198113         0.062563874         0.913369358
     0.272179782         0.041518927         0.410330385
     0.001529715         0.341065615         0.164467961
     0.714708030         0.883715510         0.244626403
     0.362580538         0.232743040         0.146939114
     0.073492646         0.515314460         0.366025627
     0.073527806         0.777917504         0.393821955
     0.700367987         0.824926972         0.423649073
     0.254861474         0.440573037         0.588103831
     0.014373670         0.627978384         0.021190139
     0.317858607         0.619201660         0.767526865
     0.575772345         0.241392463         0.833571911
     0.341244251         0.618622601         0.256350845
     0.261396915         0.269929528         0.891651154
     0.028908290         0.394244552         0.534538329
     0.826798737         0.960821509         0.080026574
     0.434147418         0.457367808         0.161814719
     0.543001354         0.168160602         0.049388774
     0.223177224         0.460312098         0.089553982
     0.166713059         0.540290594         0.930546701
     0.238597363         0.269248962         0.351250738
     0.174810171         0.036315951         0.919909775
     0.159626544         0.204599962         0.044802330
     0.465044022         0.891604006         0.515495062
     0.154328287         0.569404185         0.698221445
     0.737151563         0.665469110         0.553005934
     0.738945186         0.565181553         0.414563775
     0.005021356         0.158110380         0.336089969
     0.663663745         0.288962036         0.400113255
     0.804617941         0.620423615         0.769439876
     0.197590962         0.377857536         0.229990289
     0.731289566         0.734409273         0.649044216
     0.909774065         0.296265334         0.455339849
     0.727007866         0.959978878         0.589280725
     0.835373402         0.457621247         0.069157891
     0.448826849         0.984947681         0.136306733
     0.730272770         0.085199438         0.667415380
     0.898695827         0.500934780         0.629491985
     0.965038955         0.615789056         0.466309518
     0.098848037         0.706090033         0.547161460
     0.164773747         0.876358986         0.480586201
     0.985015392         0.371282578         0.978435576
     0.553848505         0.013394360         0.863033652
     0.626714468         0.465369731         0.581533074
     0.328130037         0.885130346         0.811461151
     0.521217883         0.658116817         0.324879438
     0.147395596         0.956392765         0.571505666
     0.942583561         0.917763531         0.800549328
     0.644048572         0.767115355         0.853239477
     0.562647521         0.361147791         0.503296614
     0.551024437         0.049327016         0.336862296
     0.364189863         0.607722461         0.984690666
     0.679277301         0.108773410         0.187559724
     0.061729148         0.877473831         0.265271574
     0.077905804         0.857457936         0.001999020
     0.443904519         0.643816411         0.498608887
     0.919227719         0.229129255         0.604637027
     0.293046147         0.183456853         0.576979935
     0.843143463         0.794494331         0.954501867
     0.028080756         0.588847458         0.167711124
     0.836237133         0.124916561         0.520820796
     0.478357553         0.331757605         0.676165223
     0.993036807         0.833396494         0.663634598
     0.301860601         0.122386590         0.269522578
     0.289656937         0.911138415         0.331964731
     0.923311174         0.140484706         0.997909307
     0.428381890         0.755903363         0.166257575
     0.001333170         0.841289401         0.175716400
     0.119697712         0.270051122         0.666931510
     0.847283781         0.216397151         0.100159384
     0.859425545         0.742060483         0.333359540
     0.657343507         0.378575832         0.743749142
     0.541833937         0.893147051         0.036186695
     0.551586866         0.318762958         0.925123870
     0.478261858         0.391962737         0.312620074
     0.064175107         0.076731153         0.198454991
     0.637033582         0.388963133         0.015824487
     0.286754370         0.115697563         0.755752265
     0.261843026         0.335419774         0.450436592
     0.458435923         0.828969061         0.950646400
     0.460402012         0.103735909         0.963506460
     0.441623747         0.974916041         0.661289811
     0.004763961         0.151901975         0.825140774
     0.793016255         0.123241678         0.269528985
     0.559686244         0.550048888         0.837335944
     0.694083750         0.877477229         0.730063319
     0.448418319         0.679186821         0.074831404
     0.523351550         0.598989785         0.683726668
     0.702572167         0.624796271         0.234534591
     0.214748055         0.873469055         0.728541017
     0.855875909         0.043532565         0.430010796
