Trisodium tetramanganese dodecaoxotellur
   1.00000000000000     
     9.3541609999999995    0.0000000000000000    0.0000000000000000
     0.0000000000000000    9.6163319999999999    0.0000000000000000
     0.0000000000000000    0.0000000000000000   11.2118099999999998
   Ca   Mn   Te   O 
    11    16     8    48
Direct
  0.4343336666495708  0.2345585580449913  0.3202621687848001
  0.0781649631307620  0.7457779974786520  0.6391503203530995
  0.4220202178281123  0.7430107589049062  0.6381180877939752
  0.7516472385397648  0.2893431612846505  0.8475890449753422
  0.9185429461807224  0.7629240831293851  0.1577983080874522
  0.4223522772929270  0.2275473717811161  0.8481969699484951
  0.0800190292877711  0.2342715317869726  0.8483329578568600
  0.2500691741012065  0.7125398171375248  0.1516134561159730
  0.5781901664793588  0.7624048749004272  0.1576019514979820
  0.7507189528483560  0.7664057283228549  0.6841300843715937
  0.9274939413607221  0.2525338327622548  0.3570924327276552
  0.9126036564499186  0.5958533907242206  0.3875551100951723
  0.9055992244204594  0.0933601487900506  0.1329919379397446
  0.0789026225096358  0.4145869888343446  0.0951645708241836
  0.4189267242446844  0.4051984204425816  0.6161557173416065
  0.5917059926587472  0.0866680722981873  0.6169902484079701
  0.5943395200315092  0.0894031648766805  0.1278804905052207
  0.9098353725386478  0.0793365424441622  0.6199814449331348
  0.0852199322972082  0.4025843039378091  0.6151554625952309
  0.5844861573237117  0.5882662755254899  0.9022965909934844
  0.4091617182742937  0.9052662053676224  0.8694925591846271
  0.0908070075765019  0.9231720598395231  0.3863371689641556
  0.9191242982195758  0.5858354273028746  0.9104678222852596
  0.0912029732379993  0.9080840958265682  0.8717081378055429
  0.4051765049943912  0.9131453491740685  0.3850717390540900
  0.5843867526325145  0.5781217343285147  0.3843311514731075
  0.4168421999089255  0.4181818100134939  0.0779290523165550
  0.7529408971137894  0.4492495944956017  0.6016785806890159
  0.2480430568562440  0.5716028031765220  0.8697041001378122
  0.7458077513470031  0.9324487999366861  0.4059814832529292
  0.2443463637230873  0.0414716146873034  0.0972423702458274
  0.7531157549715527  0.9574184067418285  0.9105999109500266
  0.2490051787301484  0.0689869063665808  0.6022288959965397
  0.7464472357485750  0.4255762608110262  0.1287219633565947
  0.2434350970610507  0.5437532727011336  0.3927811404177154
  0.0636047354555241  0.6077095282752362  0.0408989735359404
  0.2469665317426230  0.8617520576783414  0.4965206194463684
  0.7515588956224488  0.0174050623751683  0.7419706245225998
  0.0906338079396372  0.4122775202319159  0.4306643170286902
  0.6093783770762673  0.1007374985638966  0.9449385027957098
  0.4031864626956725  0.1009342796355865  0.4828065304936071
  0.8982387638289777  0.5967688278228639  0.5776865575343358
  0.9369326308355740  0.3925791298431821  0.9601440025990527
  0.7570310031032813  0.4310844000221055  0.4296722138600374
  0.7541084927598248  0.5460021353782323  0.8073707714847205
  0.9061583042306497  0.4844735362900067  0.2288254682194829
  0.4072547175544648  0.5269096533608089  0.7656231208298230
  0.2483912080732471  0.9671444537149381  0.2625287441073122
  0.4508782585482913  0.0144079431612843  0.7209514944063087
  0.7453292033385412  0.2206927642526499  0.2102790025947348
  0.6000527047497863  0.8895924587445253  0.5353082190303288
  0.8989386357026825  0.1003189515367257  0.9483209484374121
  0.5387462037200051  0.0024179636690594  0.2804817071936517
  0.2457450400993473  0.5822439234175534  0.5634654904970595
  0.5710708741784429  0.2718663926210975  0.6850834769730660
  0.4384825851748818  0.2213075500262205  0.1207402327653005
  0.4352662015761763  0.6146976504082947  0.0312648648577816
  0.2524167378896008  0.3740844967186432  0.9384341764772942
  0.8962236830137730  0.8885298859389003  0.5315447453518934
  0.0898264373878510  0.5200841686983638  0.7664173895779586
  0.2525836417651577  0.2670804933355925  0.6709514594011058
  0.4077522384546685  0.4234813819864195  0.4314702893867591
  0.4343710529675761  0.7250759075469798  0.3259642262239826
  0.5819426526542729  0.4827062329205627  0.2227995594331781
  0.6014422289831829  0.5896656278282909  0.5761019003978374
  0.0484293232924089  0.0009182894752915  0.7231494073380909
  0.2565134187895836  0.4523739923392668  0.1833881751193153
  0.9461641707635048  0.0003547183074354  0.2870288871492947
  0.1009623050592988  0.8920243657107363  0.0541132441437613
  0.7466164763663952  0.7356551238536733  0.3324444687834525
  0.7495412843179147  0.6326305010531479  0.0521152468630507
  0.9450107336259673  0.7706426947418252  0.8369748036705593
  0.0923982916876990  0.1045056119898141  0.4812841837110026
  0.0464823776285308  0.2315071203496310  0.1575505754008095
  0.3961741062036048  0.9033687879953162  0.0586906370402689
  0.2504223657675235  0.7880880462809283  0.7809618671739160
  0.7510284241473471  0.9487458934392095  0.1114452639436939
  0.2423652594005923  0.0518573665174816  0.8984464148117569
  0.0629154512124957  0.7340914917799001  0.3247271861931030
  0.7583639808911796  0.1355521217239426  0.5137956988377340
  0.9352244311907121  0.2653659618990974  0.6843661766199841
  0.5648781265195386  0.7697301077689740  0.8291539880091747
  0.5641066455824276  0.3962386473283649  0.9528462911775292
 
             NaN             NaN             NaN
             NaN             NaN             NaN
             NaN             NaN             NaN
             NaN             NaN             NaN
             NaN             NaN             NaN
             NaN             NaN             NaN
             NaN             NaN             NaN
             NaN             NaN             NaN
             NaN             NaN             NaN
             NaN             NaN             NaN
             NaN             NaN             NaN
             NaN             NaN             NaN
             NaN             NaN             NaN
             NaN             NaN             NaN
             NaN             NaN             NaN
             NaN             NaN             NaN
             NaN             NaN             NaN
             NaN             NaN             NaN
             NaN             NaN             NaN
             NaN             NaN             NaN
             NaN             NaN             NaN
             NaN             NaN             NaN
             NaN             NaN             NaN
             NaN             NaN             NaN
             NaN             NaN             NaN
             NaN             NaN             NaN
             NaN             NaN             NaN
             NaN             NaN             NaN
             NaN             NaN             NaN
             NaN             NaN             NaN
             NaN             NaN             NaN
             NaN             NaN             NaN
             NaN             NaN             NaN
             NaN             NaN             NaN
             NaN             NaN             NaN
             NaN             NaN             NaN
             NaN             NaN             NaN
             NaN             NaN             NaN
             NaN             NaN             NaN
             NaN             NaN             NaN
             NaN             NaN             NaN
             NaN             NaN             NaN
             NaN             NaN             NaN
             NaN             NaN             NaN
             NaN             NaN             NaN
             NaN             NaN             NaN
             NaN             NaN             NaN
             NaN             NaN             NaN
             NaN             NaN             NaN
             NaN             NaN             NaN
             NaN             NaN             NaN
             NaN             NaN             NaN
             NaN             NaN             NaN
             NaN             NaN             NaN
             NaN             NaN             NaN
             NaN             NaN             NaN
             NaN             NaN             NaN
             NaN             NaN             NaN
             NaN             NaN             NaN
             NaN             NaN             NaN
             NaN             NaN             NaN
             NaN             NaN             NaN
             NaN             NaN             NaN
             NaN             NaN             NaN
             NaN             NaN             NaN
             NaN             NaN             NaN
             NaN             NaN             NaN
             NaN             NaN             NaN
             NaN             NaN             NaN
             NaN             NaN             NaN
             NaN             NaN             NaN
             NaN             NaN             NaN
             NaN             NaN             NaN
             NaN             NaN             NaN
             NaN             NaN             NaN
             NaN             NaN             NaN
             NaN             NaN             NaN
             NaN             NaN             NaN
             NaN             NaN             NaN
             NaN             NaN             NaN
             NaN             NaN             NaN
             NaN             NaN             NaN
             NaN             NaN             NaN
