Ca3 Mn3 V3 P12 O42
1.0
   7.1519990000000000    0.0000000000000000    0.0000000000000000
   0.1925170000000000    8.1609929999999995    0.0000000000000000
   1.8729079999999989    0.3478730000000000   13.5303970000000007
Ca Mn V P O
3 3 3 12 42
direct
   0.1622660000000000    0.8635879999999990    0.1655039999999990 Ca
   0.8281179999999990    0.8634590000000000    0.4996879999999990 Ca
   0.8404840000000000    0.3579640000000000    0.8322090000000000 Ca
   0.5602650000000000    0.0071449999999990    0.1717469999999990 Mn
   0.2284459999999990    0.0073260000000000    0.5065480000000000 Mn
   0.8845700000000001    0.9925029999999990    0.8374170000000000 Mn
   0.1195600000000000    0.4947820000000000    0.1632680000000000 V
   0.7842600000000001    0.4949540000000000    0.4950890000000000 V
   0.4453760000000000    0.5058670000000000    0.8291029999999990 V
   0.8656149999999990    0.7800400000000001    0.0430280000000000 P
   0.4753340000000000    0.6782279999999991    0.0395779999999990 P
   0.7952610000000000    0.2871800000000000    0.2901710000000000 P
   0.1846290000000000    0.1760540000000000    0.2950129999999990 P
   0.5326320000000000    0.7820020000000000    0.3753229999999990 P
   0.1428110000000000    0.6794249999999999    0.3734639999999990 P
   0.8495050000000000    0.1776980000000000    0.6275959999999990 P
   0.4608520000000000    0.2887020000000000    0.6252100000000000 P
   0.8117080000000000    0.6826869999999990    0.7049369999999990 P
   0.2001400000000000    0.7820560000000000    0.7092590000000000 P
   0.5214300000000001    0.1746069999999990    0.9603870000000000 P
   0.1329000000000000    0.2879589999999990    0.9578190000000000 P
   0.6951039999999991    0.6515949999999990    0.0525519999999990 O
   0.8101670000000000    0.9324279999999990    0.1038610000000000 O
   0.5379880000000000    0.1746950000000000    0.0702670000000000 O
   0.4092429999999990    0.8436180000000000    0.0791960000000000 O
   0.3738470000000000    0.5352660000000000    0.0983349999999990 O
   0.8710430000000000    0.4393829999999990    0.2281460000000000 O
   0.0904509999999990    0.3328580000000000    0.0675390000000000 O
   0.9647530000000000    0.1499100000000000    0.2847210000000000 O
   0.0260360000000000    0.6857519999999990    0.0857920000000000 O
   0.6331340000000000    0.2026230000000000    0.2574480000000000 O
   0.5893910000000000    0.8261229999999991    0.2661260000000000 O
   0.2844150000000000    0.0383270000000000    0.2328609999999990 O
   0.2342149999999990    0.3475729999999990    0.2505250000000000 O
   0.1337890000000000    0.6725360000000000    0.2608189999999990 O
   0.7552800000000001    0.3366520000000000    0.3997759999999990 O
   0.6945920000000000    0.6873420000000000    0.4166280000000000 O
   0.3629989999999990    0.6529159999999991    0.3858490000000000 O
   0.4776320000000000    0.9328900000000001    0.4375700000000000 O
   0.2079490000000000    0.1721700000000000    0.4038350000000000 O
   0.9508050000000000    0.0389809999999990    0.5676559999999991 O
   0.9008379999999990    0.3482590000000000    0.5824420000000000 O
   0.0768490000000000    0.8445720000000000    0.4144310000000000 O
   0.0415370000000000    0.5354510000000000    0.4302700000000000 O
   0.7991769999999990    0.6701070000000000    0.5929130000000000 O
   0.5363000000000000    0.4393749999999990    0.5617449999999991 O
   0.6304090000000000    0.1509780000000000    0.6186250000000000 O
   0.2983000000000000    0.2034659999999990    0.5931130000000000 O
   0.8729929999999990    0.1773080000000000    0.7373080000000000 O
   0.2574090000000000    0.8285340000000000    0.6002219999999990 O
   0.7497030000000000    0.8483830000000000    0.7423500000000001 O
   0.7155530000000000    0.5374880000000000    0.7654339999999999 O
   0.4235569999999990    0.3418140000000000    0.7343670000000000 O
   0.3609070000000000    0.6825610000000000    0.7465440000000000 O
   0.9677100000000001    0.2105870000000000    0.9209339999999990 O
   0.0317670000000000    0.6498990000000000    0.7171759999999990 O
   0.9259890000000000    0.8195880000000000    0.9338810000000000 O
   0.1340110000000000    0.9310029999999990    0.7709260000000000 O
   0.6278440000000000    0.0376009999999990    0.9023780000000000 O
   0.5740520000000000    0.3444470000000000    0.9120680000000000 O
   0.4661460000000000    0.6621490000000000    0.9278900000000001 O
   0.1975900000000000    0.4419420000000000    0.8944970000000000 O
   0.3008650000000000    0.1514559999999990    0.9491930000000000 O
