Ca Mn V  P  O 
 1.0000000000000000
     7.1519990000000000    0.0000000000000000    0.0000000000000000
     0.1925170000000000    8.1609929999999995    0.0000000000000000
     1.8729079999999989    0.3478730000000000   13.5303970000000007
 Ca  Mn  V   P   O  
   3   3   3  12  42
Cartesian
  1.1966341010502459  7.6021837487631458  2.1004067084887930
  6.5617542605208090  7.8182446731449611  6.6245568643323072
  8.1883868365292294  3.7706068705198499 11.3016241061453826
  4.4074367345908767  0.0864818947836043  2.2319381564836323
  2.6463201463028021  0.2418601685155818  6.8784959383858624
  8.1124544963699989  8.3378486119873934 11.3390862782278088
  1.1947387661189464  4.0432115821183965  2.2810644605563879
  6.5666970648646181  4.2161121485277322  6.6733135814653810
  4.7980378712972804  4.3930341784844877 11.2637227236559596
  6.3358177229524104  6.1458696643047581  0.4211614878510873
  3.5015526079063646  5.5339869160338155  0.5489552486304329
  6.3597388039730651  2.2822602195111390  4.0357941500042891
  2.0833051232381767  1.6347640996723949  4.0997197660393132
  4.6020328400570740  6.4307422901650542  4.8869536533159614
  1.7390191366880847  5.7490693132367632  5.0155060554708344
  7.4204747089340186  1.8568336440257882  8.6016827793797095
  4.5476568117901763  2.5518433886163554  8.5232006739800585
  7.0815095022677017  5.9976253671818345  9.4008645277477711
  2.8424030967248108  6.6090496011592084  9.5406615508628914
  5.7306199503479345  1.7672184136047695 12.9933193212728284
  2.9119003726662021  2.4644434900966874 13.1422474772879774
  5.0853310921892358  5.2422999998194024  0.7885404066445680
  6.2037913254723076  7.5226610553912145  1.1250287008191364
  4.1741481503529050  1.4906199501463344  0.9593365825422840
  3.1964676799144809  6.9397067046540117  1.0927540179837909
  2.8754425356186859  4.4010247494777053  1.3311550002960553
  6.6852046001240168  3.5368007842456022  3.2310777973283340
  0.9549031700249979  2.3028137910873503  1.1199951053581392
  7.6495541916615277  1.2405466962191216  3.8744405471398982
  0.3966221113180046  5.4524061015995580  1.0257010569613199
  5.2222468119434309  1.4393760890705711  3.5358273676549379
  4.8645007684676420  6.7485288834311543  3.4112940117703729
  2.6702117664516569  0.4883839778170457  3.2591238909541369
  2.3133904673041776  3.0287130557017083  3.5762906612467908
  1.3752497712404836  5.7560123216061827  3.5142919133230208
  6.2795968139431757  2.5338316174955353  5.5471965198898667
  5.8018887768455345  5.6845888785773715  5.4422201120356046
  3.3397080830603523  5.4937678004960713  5.0740042588833560
  4.4125135585306019  7.7081305660447965  5.7438460738101158
  2.3977988191121633  1.5970725720176442  5.5861461515181974
  8.0087721729084240  0.6848367517171805  7.8031408719275639
  7.6904033295697358  3.2354604906109996  8.0495278796258187
  1.4531798988954800  7.1239955256224716  5.6421469641217170
  1.1595704168670715  4.5887033684635288  5.7848171098752106
  6.7510350124123102  5.8986283898450198  7.9066800785251523
  4.8946227503301039  3.7487436024180267  7.6386690149172054
  5.8375683061017307  1.5112349527917321  8.4124116391667627
  3.3969834642708299  1.6971832338289130  8.0826468867402177
  7.7689549977063388  1.8305152165206515 10.0928237347549139
  3.1691681668071183  6.9447124545657815  8.0786707552005641
  6.8403137641626914  7.3758170252881490  9.9352057694474532
  6.5028980680708557  4.8426523532987416 10.2283870870430196
  4.3939714052419685  2.9398016973003043  9.9999015413454089
  3.9070685863592276  5.7302612228901282 10.1206412344345278
  8.8370015022904997  1.7794345326125534 12.5535863892609996
  1.5270155522598989  5.6277625094974182  9.5740630555068975
  8.3203739934521561  6.5981688655546114 12.4309597874164464
  2.5314938930001647  7.8593342847355583 10.3668145099118938
  6.3197993866631048  0.5661385182781977 12.2776936378724173
  6.0545514382126457  3.1210000316404640 12.3272047452171574
  5.1399681757666587  5.8135759665480373 12.5759615685650257
  3.1276264796247326  3.7839094360180110 12.3559751374294677
  4.1480790947387138  1.4850382627682097 12.8347021510481838
