Ca V  O                                 
   1.00000000000000     
    10.9655885695999995    0.0000000000000000    0.0000000000000000
    -1.8643554801000000   14.2891268287000006    0.0000000000000000
    -1.8525292359000001    0.1709672118000000    8.2915385771000008
   Ca   V    O 
    19    28    56
Direct
  0.6621935382212095  0.3126608217272768  0.6517290485433427
  0.0093694445758648  0.3189827260960720  0.6521922379535258
  0.0390939713477239  0.8280043780417859  0.6503806246294243
  0.5373445849312928  0.8250664714859491  0.6510344164229955
  0.2609834962746103  0.2580565645657192  0.5161653107887240
  0.2524244803722491  0.7495011158753380  0.4972474577252368
  0.7536722248463922  0.7498089269216304  0.4956834211097945
  0.4808710761885996  0.1781197530250369  0.3602863912860547
  0.4665162943124960  0.6734496046980517  0.3429598756540649
  0.9504468117393229  0.1750657081993269  0.3625357990258518
  0.9693341295547268  0.6768997523565705  0.3397633965290440
  0.3919799231451290  0.0355892649922893  0.0778579263816093
  0.3905611032028640  0.5329055118114538  0.0648556191503502
  0.8954613649407386  0.0305385006786879  0.0804671745664415
  0.8886688297682386  0.5330440563821427  0.0594654833587017
  0.1083216512515404  0.4652919841529169  0.9274552591789715
  0.1061406176393176  0.9683576628031004  0.9310251000637928
  0.5992631270405616  0.4619259273687836  0.9125618962689527
  0.6034622119616765  0.9638112648718611  0.9326128188757475
  0.4165688786601407  0.1023510193101910  0.7157542658939832
  0.4255568440402862  0.6011891879125588  0.7046734349580791
  0.9113973848052095  0.1034743781181969  0.7196237917654555
  0.9224059786133967  0.6032058153257389  0.7024847314592504
  0.0744979153376723  0.3995605147301039  0.2922677184851649
  0.0839392915372636  0.8976165170427060  0.2876447510240508
  0.5749682942289682  0.3921002927746789  0.2712971769631572
  0.5818557168196709  0.8966359630225189  0.2909719777461640
  0.2799176823661292  0.3162781098266503  0.1428578487814346
  0.2931210403954459  0.8173807072711374  0.1377491415711040
  0.7830050528855561  0.3148910991959586  0.1370083614007011
  0.7876581726022076  0.8148946220613307  0.1323480244562592
  0.1473690805235437  0.0406024984768601  0.5777674575050474
  0.1477129858053861  0.5324378595669536  0.5639250628013297
  0.6492859822203813  0.0371615149522175  0.5772710941536505
  0.6545213922507211  0.5405748637135451  0.5598191118976428
  0.9890538781539606  0.2517676159254477  0.0087169855641828
  1.0101018932578376  0.7482323604195779  0.9939890517800558
  0.4911449165508806  0.2540595892463154  0.9965059006951010
  0.4950227513336832  0.7494785658991919  0.9981741285430165
  0.3660366950890617  0.4648977910464785  0.4359781839521214
  0.3532129258672561  0.9643357737716446  0.4331562651451715
  0.8620429361926467  0.4610876838015777  0.4128676776048752
  0.8524641848766553  0.9611796134673128  0.4315475421364417
  0.2098877137349588  0.1854209130066020  0.8727287756435773
  0.2103431115901085  0.6804256907705536  0.8524950652803729
  0.7053035325474279  0.1718770535299917  0.8806701497821391
  0.7163265824787797  0.6836844124874780  0.8602416179771987
  0.3695294944191405  0.2270828250832663  0.7794474130164243
  0.3742888439271436  0.7301351908078493  0.7600994393331284
  0.8578882777229091  0.2360105585347182  0.7775364147049616
  0.8805148581507807  0.7335125219929383  0.7604904434345916
  0.0851004620174186  0.1748345570299500  0.6286293156505056
  0.0885113425543278  0.6708276369782491  0.6111650252114397
  0.5820152829387540  0.1602038510024014  0.6358812019237352
  0.5918973801030462  0.6731245475858059  0.6164973888679034
  0.4136501216089329  0.3311665749802004  0.3712032628804822
  0.4146954815499358  0.8283631182947805  0.3819359039555982
  0.9119037624757951  0.3330757762013916  0.3710914641830262
  0.9157013291990286  0.8275878154205119  0.3760177073151145
  0.3084472571848160  0.0976678493235138  0.4887850031111910
  0.3105934777601490  0.5954122146948874  0.4798880653118860
  0.8065398394154981  0.0861784454594440  0.4923353721436363
  0.8164404812651593  0.5984177330238764  0.4727216815988916
  0.1185571715659101  0.2711464605561160  0.2444094112082166
  0.1322041081796104  0.7667766061688689  0.2316945711034568
  0.6202317347340044  0.2680211185711565  0.2212573144363994
  0.6238905076265350  0.7657926381147682  0.2327585849864801
  0.5008032112475499  0.4820455252072491  0.6471701833546397
  0.4859927885821282  0.9763528440762226  0.6598295677865330
  0.9877458648028299  0.4769121228563116  0.6495586164744295
  0.9883428955077592  0.9808855759289664  0.6616303116560424
  0.4462162882135891  0.3833976636814235  0.0515736233225159
  0.4568838525850639  0.8830754475251881  0.0688753333563751
  0.9522884322826716  0.3832673983772704  0.0633009434364387
  0.9613873924287096  0.8803669589896389  0.0646452734638596
  0.1962026590935634  0.4061824712359802  0.5163876449291342
  0.1935214383307635  0.9063551662743282  0.5181798324416617
  0.7018646298442844  0.4215895203809199  0.4790549462292900
  0.6934175842767373  0.9012449101423338  0.5185799889866501
  0.0114523725456563  0.0212715040987441  0.3494365267171021
  0.0177385810052280  0.5261641244791997  0.3320382035342128
  0.5138573863764225  0.0208549339144025  0.3489768303609990
  0.5155748510625467  0.5218695041720222  0.3310260518830706
  0.3427141336314880  0.1914209991244174  0.0958914767188276
  0.3401955836307260  0.6873765458772576  0.0808757947402892
  0.8376359330269084  0.1846626530847734  0.0961609892062165
  0.8511023198374896  0.6903968543191135  0.0771997699319804
  0.1443289075163769  0.3089952999772350  0.9201647279410927
  0.1634817255829951  0.8116402967064824  0.9108092275592957
  0.6519974177369503  0.3054561617268845  0.9147604757572830
  0.6532315117529116  0.8081501487551191  0.9152206957049613
  0.0374385031974484  0.1201221354866190  0.9406594285889021
  0.0451967777011713  0.6154036370525885  0.9263235729987798
  0.5377822672630793  0.1135442455665309  0.9423531736750593
  0.5429165072501557  0.6167731403105190  0.9295149460509102
  0.2375634988982487  0.4453935310745518  0.1959760502751307
  0.2414348065203051  0.9456832316990050  0.1939813772592876
  0.7374320663368313  0.4437231249239310  0.1742115049922272
  0.7393063357646483  0.9424507374415531  0.1929250903157155
  0.2577084452397963  0.0557771723468709  0.8150518107757342
  0.2596267746020620  0.5515366237931848  0.7972203576513573
  0.7597599362995749  0.0501450932869281  0.8182208256939540
  0.7635825133309576  0.5536408506348390  0.7986597571511925
 
             NaN             NaN             NaN
             NaN             NaN             NaN
             NaN             NaN             NaN
             NaN             NaN             NaN
             NaN             NaN             NaN
             NaN             NaN             NaN
             NaN             NaN             NaN
             NaN             NaN             NaN
             NaN             NaN             NaN
             NaN             NaN             NaN
             NaN             NaN             NaN
             NaN             NaN             NaN
             NaN             NaN             NaN
             NaN             NaN             NaN
             NaN             NaN             NaN
             NaN             NaN             NaN
             NaN             NaN             NaN
             NaN             NaN             NaN
             NaN             NaN             NaN
             NaN             NaN             NaN
             NaN             NaN             NaN
             NaN             NaN             NaN
             NaN             NaN             NaN
             NaN             NaN             NaN
             NaN             NaN             NaN
             NaN             NaN             NaN
             NaN             NaN             NaN
             NaN             NaN             NaN
             NaN             NaN             NaN
             NaN             NaN             NaN
             NaN             NaN             NaN
             NaN             NaN             NaN
             NaN             NaN             NaN
             NaN             NaN             NaN
             NaN             NaN             NaN
             NaN             NaN             NaN
             NaN             NaN             NaN
             NaN             NaN             NaN
             NaN             NaN             NaN
             NaN             NaN             NaN
             NaN             NaN             NaN
             NaN             NaN             NaN
             NaN             NaN             NaN
             NaN             NaN             NaN
             NaN             NaN             NaN
             NaN             NaN             NaN
             NaN             NaN             NaN
             NaN             NaN             NaN
             NaN             NaN             NaN
             NaN             NaN             NaN
             NaN             NaN             NaN
             NaN             NaN             NaN
             NaN             NaN             NaN
             NaN             NaN             NaN
             NaN             NaN             NaN
             NaN             NaN             NaN
             NaN             NaN             NaN
             NaN             NaN             NaN
             NaN             NaN             NaN
             NaN             NaN             NaN
             NaN             NaN             NaN
             NaN             NaN             NaN
             NaN             NaN             NaN
             NaN             NaN             NaN
             NaN             NaN             NaN
             NaN             NaN             NaN
             NaN             NaN             NaN
             NaN             NaN             NaN
             NaN             NaN             NaN
             NaN             NaN             NaN
             NaN             NaN             NaN
             NaN             NaN             NaN
             NaN             NaN             NaN
             NaN             NaN             NaN
             NaN             NaN             NaN
             NaN             NaN             NaN
             NaN             NaN             NaN
             NaN             NaN             NaN
             NaN             NaN             NaN
             NaN             NaN             NaN
             NaN             NaN             NaN
             NaN             NaN             NaN
             NaN             NaN             NaN
             NaN             NaN             NaN
             NaN             NaN             NaN
             NaN             NaN             NaN
             NaN             NaN             NaN
             NaN             NaN             NaN
             NaN             NaN             NaN
             NaN             NaN             NaN
             NaN             NaN             NaN
             NaN             NaN             NaN
             NaN             NaN             NaN
             NaN             NaN             NaN
             NaN             NaN             NaN
             NaN             NaN             NaN
             NaN             NaN             NaN
             NaN             NaN             NaN
             NaN             NaN             NaN
             NaN             NaN             NaN
             NaN             NaN             NaN
             NaN             NaN             NaN
             NaN             NaN             NaN
