Ca V  O 
 1.0000000000000000
    10.9655885695999995    0.0000000000000000    0.0000000000000000
    -1.8643554801000000   14.2891268287000006    0.0000000000000000
    -1.8525292359000001    0.1709672118000000    8.2915385771000008
 Ca  V   O  
  19  28  56
Cartesian
  5.3745907201617218  4.5891653296086741  5.3984231591894627
 -1.6253137510279745  4.7166343771077512  5.3718919339243669
 -2.3153070063790704 11.9370883685613514  5.4207075600285215
  3.1510841016034496 11.9180961009413462  5.4222929806174927
  1.4521261137025143  3.7358502288994617  4.2518614185386117
  0.4216896387038588 10.8079496763698124  4.1394225733500507
  5.9093165983362850 10.8180345624935583  4.1320162235899147
  4.2812718835120371  2.6004354988243272  2.9522781831000260
  3.1516243888937190  9.6813093741592144  2.8416698049591700
  9.3939874911802601  2.5794617602627796  2.9871837749593624
  8.6771127208294523  9.6885148056417751  2.8348105181211687
  4.0710260115468673  0.5238913794979633  0.6014111325519320
  3.1770293194016830  7.6440491284322043  0.5079437593334096
  9.5936190804264019  0.4819074628239226  0.6441567152006309
  8.6270621770390967  7.6225433802043714  0.4679574231922299
 -1.3732020604771087  6.7930713239090261  7.6993051792145462
 -2.3428516689735761 13.9644229245636300  7.7451590582721570
  4.0184268508051630  6.7192618043878074  7.5644575536610938
  3.1404996838341801 13.9203763770610447  7.7809215908101885
  3.1652194381996672  1.6242266444599989  5.9510920079140881
  2.2435859669886589  8.7681924962445326  5.8819965746466396
  8.5908378158635088  1.6243497471186619  5.9549808890206251
  7.7342122638310524  8.7689036243111307  5.8821822042428913
 -0.4407577324842424  5.6707111103899148  2.3654890793500871
 -1.3971839656443741 12.8404321326228477  2.3850212409472249
  5.0346383402185735  5.6976652036395867  2.2701579537534284
  4.0741082157038919 12.8303268164405644  2.3807724119417140
  2.2771462799056144  4.5527443399516354  1.1751868918240851
  1.3363775348151516 11.7239524639529886  1.1697447659175995
  7.7260606022567453  4.5803199197692628  1.1842474176410593
  6.8251963826300521 11.7005601258695897  1.1682112435581979
  0.4635888486443199  0.6536734466017023  4.7373436049175401
 -0.4366579288855898  7.7458743622591273  4.6984571598428788
  5.9674359588135824  0.6172493559563155  4.7719636508828707
  5.0191639434022006  7.8038017146786549  4.6430392778042799
 -0.4994708083243013  3.5656177143825070  0.0409662674175590
 -1.3939096450363675 10.7068879824608807 -0.0143539946554451
  4.9943641171822462  3.5684043512423878 -0.0515348515437949
  4.0853938543296442 10.7020475798506371 -0.0115278500914490
  2.3017886280649598  6.6611633621164241  3.5572885077089431
  1.2940777628782920 13.8665690683621587  3.5879037059075962
  7.7687706127493659  6.7241226958650060  3.4611819162712321
  6.7831774962083884 13.8228884007652226  3.6057612386274558
  0.3924973877386650  2.7413099542158217  7.1403789306344780
 -0.5050632054666137  9.8781985814126472  7.0986683123149747
  5.8944410005639369  2.6150745996422136  7.2262408265000548
  4.9785605516675639  9.8651895441555020  7.0985191996343069
  2.3028428911437921  3.4246493130400970  6.3898853563141413
  1.3872319490602878 10.6493706605346610  6.2834896918229912
  7.6892606735185964  3.5044069169946375  6.3963554436409460
  6.8866840395818434 10.6307856704292778  6.2740501685373058
 -0.5357896826899834  2.6139966377671122  5.1226054298535759
 -1.4188024382106705  9.7342150862178585  5.0712914928562780
  4.9926780085563012  2.4206636100470278  5.1720057026518376
  4.0677939111499306  9.7325290672182838  5.0535951986936762
  3.2729677641673058  4.7485342512032398  3.1568405987549224
  2.2629395329629163 11.8734209172746787  3.1975203429242587
  8.6916427272055099  4.8376999241231626  3.1204243439915960
  7.7609539430909731 11.8662437594779515  3.2035148402228106
  2.3553709411338177  1.5277027766392433  4.1277632120189942
  1.4144428785905623  8.6234677097194474  4.0331172599134462
  7.7763573322521742  1.3674791397491002  4.1642221656553646
  6.8908983273818674  8.6644567263853478  4.0125832797715981
  0.3672999897940707  3.8381469830560446  2.0221245036126043
 -0.5406254817535662 10.9532090417671508  1.9876194266003790
  5.8248531953182452  3.8934714098560845  1.8489217311368249
  4.9215530058097414 10.9519796960778901  1.9933033108068532
  3.3382995070732351  6.9553934005619595  5.3836717066339395
  2.3171448390953926 14.0719450085319107  5.5323765545540011
  8.6783322227697859  6.9354048061621354  5.4620395447824253
  7.7782073729933927 14.0786538424584649  5.5486633372489713
  4.1272751894816899  5.5156259288698921  0.4354041247314038
  3.2205878589092944 12.6528157198027706  0.5280766757575511
  9.6481634704693846  5.4905851862807848  0.5058559522039670
  8.7169820309190804 12.6503150537358877  0.5300942803658342
  0.3957335840955697  5.8150057759218905  4.1868865738602903
 -0.5560660132781012 12.9764209443157661  4.2323005927384019
  5.9659817746278856  6.0996124662242499  4.0260798668091136
  4.9180960712670609 12.9610117152034992  4.2473936185098458
 -0.5579748514154143  0.4011577188997496  2.8217812314582265
 -1.4644990767043859  7.5149917488372369  2.7266843798546119
  4.9849147271448198  0.3794670404306391  2.8083048548497822
  4.0278138006421980  7.5416392862772321  2.7154302515012816
  3.3126641851325682  2.7325912010221538  0.7610218023463762
  2.3536462464332142  9.8549140829070137  0.7124274708652538
  8.7582481085372201  2.7115523150199348  0.8172712997683197
  7.8585030541916083  9.8372299120436590  0.7125787754973403
 -0.6603676819229203  4.5700662951568738  7.5556773929964276
 -1.5250951727136566 11.7487388371470374  7.5590296142347002
  4.9166926965137545  4.5661013905980026  7.5743505509097435
  3.9510033485965805 11.7300301150475050  7.5572780485511766
 -1.4980107808268632  1.8116987794519175  7.7897223282067563
 -2.3911911378197663  8.9304178538962962  7.7443637967839321
  3.9879630001136213  1.7520736847859621  7.8171346444771235
  3.0867301728024414  8.9194421093655158  7.7340274259364685
  1.4020764898480462  6.4471798519753944  1.5761041485992999
  0.4351044762541855 13.6246312782832248  1.5943934618466979
  6.8972392912940625  6.4712847551109807  1.4688068512242731
  5.9321809338406410 13.6054152410332634  1.6089377730408754
  1.2997064298579590  0.8437569210355258  6.7355575144462776
  0.3965585029419669  7.9736531861070938  6.6854619578629109
  6.8088880767172117  0.7639198550894845  6.7636628697693117
  5.8637174085921728  7.9335467309386853  6.6114198360002288
