Ca V  S  O  F 
1.0
       10.4123277664         0.0000000000         0.0000000000
        0.0000000000         7.0705742836         0.0000000000
        0.0000000000         0.0728285736         8.0760542654
   Ca    V    S    O    F
    3    4    4   16   12
Direct
     0.542056799         0.851797879         0.156412408
     0.040348105         0.648185074         0.655614913
     0.959651887         0.648185074         0.155614898
     0.760936797         0.995163858         0.496478498
     0.239063188         0.995163858         0.996478498
     0.737310469         0.504954755         0.497311801
     0.262689561         0.504954755         0.997311771
     0.249986306         0.251652718         0.679258585
     0.750013709         0.251652718         0.179258570
     0.749060810         0.748706460         0.835883975
     0.250939190         0.748706460         0.335883915
     0.173540667         0.117346264         0.790377617
     0.826459348         0.117346264         0.290377617
     0.341308981         0.140257090         0.582103312
     0.658691049         0.140257090         0.082103312
     0.158375561         0.363809496         0.581559479
     0.841624379         0.363809496         0.081559494
     0.325982809         0.384098232         0.789857507
     0.674017191         0.384098232         0.289857477
     0.808124781         0.599650443         0.724919260
     0.191875264         0.599650443         0.224919289
     0.643551767         0.675401330         0.938182354
     0.356448233         0.675401330         0.438182414
     0.854259908         0.822731256         0.937423229
     0.145740092         0.822731256         0.437423229
     0.689747512         0.898545086         0.723166585
     0.310252488         0.898545086         0.223166630
     0.424105912         0.983097136         0.931767404
     0.575894058         0.983097136         0.431767404
     0.750754952         0.249873236         0.597043097
     0.249245003         0.249873236         0.097043127
     0.078034587         0.521415949         0.931289911
     0.921965480         0.521415949         0.431289881
     0.573757589         0.584587514         0.573449194
     0.426242381         0.584587514         0.073449180
     0.252704382         0.750988126         0.853393137
     0.747295618         0.750988126         0.353393167
     0.925145924         0.913789153         0.572291672
     0.074854068         0.913789153         0.072291672
