Ca Sc V  O                              
   1.00000000000000     
     9.9050897765099375   -0.0300913126131231   -0.0128710030995053
     2.1482348214311666    9.5488782715006781   -0.0108814581765527
    -5.9828536910329566   -4.7511606646977134   15.5449192413166628
   Ca   Sc   V    O 
     7    16    16    64
Direct
  0.4909924493438585  0.6151978981638880  0.4821092623388640
  0.4951661692278664  0.1139880240468333  0.9837126498489576
  0.4910487155525320  0.6178479216729303  0.9829773825038186
  0.9917557374578251  0.1161903265121972  0.4837338512389326
  0.9918410943960191  0.1138770155786709  0.9829939821966203
  0.9914713368033266  0.6155359298596699  0.4828793493535721
  0.9885283179230875  0.6185204380851872  0.9837436657837607
  0.3351604846216239  0.4599485626850082  0.1702964348464663
  0.3325943758238277  0.4658358698258743  0.6734688347521682
  0.3360823178133073  0.9609785350604295  0.1723124347164860
  0.3355716738165586  0.9606781961302925  0.6692443866257849
  0.8351536088285788  0.4600062406862686  0.1703768549809235
  0.8339020113605206  0.4584220248797626  0.6693273805799534
  0.8365444068543242  0.9613869898631271  0.1732328319723625
  0.8411541972386744  0.9572438966114152  0.6733895047461649
  0.1567581372501229  0.0391439735811053  0.3151186085024361
  0.1576093004681563  0.0323079675202304  0.8122062088591325
  0.1552392691955224  0.5299586214635760  0.3103926040432921
  0.1541542038901940  0.5299519829980927  0.8122501053379969
  0.6575478496851535  0.0258704501735608  0.3152250114794066
  0.6556682252354776  0.0314361037633428  0.8105037093078432
  0.6545044473085230  0.5302646938933984  0.3103960515890641
  0.6544430914385367  0.5291226032001357  0.8106068573796683
  0.0910939195769827  0.2160068213487488  0.1807526018869365
  0.0904170942755277  0.2152274537747869  0.6806598445588872
  0.0914807769405125  0.7159723578958775  0.1813027437843311
  0.0907101412797394  0.7153938729868343  0.6810639346818715
  0.5898170778477215  0.2149169241291834  0.1813256225621328
  0.5850989271167512  0.2095977647760169  0.6695999858216126
  0.5895252250389553  0.7143847446572996  0.1807455883240644
  0.5898330020310750  0.7145905432184771  0.6794706533289465
  0.4148195088338053  0.2777327158133141  0.3162525908564691
  0.4071017348244765  0.2828308709233940  0.8123898948883559
  0.4006617495294538  0.7883593021987459  0.3163621344833070
  0.4066063964474647  0.7824082611096329  0.8119596147828616
  0.9040197738489810  0.2816690719358945  0.3125387338179284
  0.9046823749786168  0.2795298541460678  0.8123828135433696
  0.9077266671053141  0.7806131957023092  0.3125787182568041
  0.9049072543218318  0.7794677364522568  0.8119588830064798
  0.2180195339505547  0.3527319264604850  0.2083792363792648
  0.2244483340386080  0.3519437989522143  0.7130388589309143
  0.2282164546785857  0.8539319285513536  0.2162812564826023
  0.2254480283574801  0.8512638935137153  0.7128278739394205
  0.7249667099189950  0.3487409149080595  0.2121969003784876
  0.7198508213419748  0.3490977441048969  0.7101269747397156
  0.7252540932287090  0.8534857954866084  0.2154942423430938
  0.7249613448269905  0.8503559963684910  0.7122419821258926
  0.4876868730975392  0.1121036027503625  0.2162759078096488
  0.4902371684685442  0.1108483449493431  0.7099419901014280
  0.4901325871615543  0.6053649062286456  0.2084147165239734
  0.4873151210278222  0.6117277930097473  0.7123372687645980
  0.9897391650475059  0.1116807620105643  0.2154456753079749
  0.9885281505417060  0.1108771609271510  0.7129611128184136
  0.9869994265704809  0.6130817223511131  0.2121671572486069
  0.9874065362801547  0.6113941033175675  0.7128693944798153
  0.0454590204428229  0.1981114587298540  0.3908528433269250
  0.0486861829169838  0.1946856158169605  0.8900643341588834
  0.0493859236113270  0.6925359344463980  0.3892438723538024
  0.0469341435399211  0.6937578256030963  0.8898561045896485
  0.5545911138697144  0.2104392769835999  0.3883345052475947
  0.5471529325575077  0.1937265676239904  0.8885319656887956
  0.5444996122074257  0.6922245336246100  0.3860030531493808
  0.5480632383274616  0.6947963723958562  0.8888643363859053
  0.3401751890961338  0.4436072548927445  0.3859978008259488
  0.3402359010452879  0.4452585590221786  0.8901366520388194
  0.3324293236799813  0.9278570682052781  0.3883362597209570
  0.3420191204689621  0.9461166525697544  0.8897953473790423
  0.8386367567010413  0.4464418257472986  0.3892385119511125
  0.8403996273285800  0.4447142062727796  0.8886268396890311
  0.8441349385521388  0.9425376053677548  0.3908769958780368
  0.8398077155746794  0.9441989650703256  0.8888126237706044
  0.2707639002480300  0.1487758726269100  0.2787882658366809
  0.2708690311162876  0.1450442490931884  0.7759766585451265
  0.2709237909674305  0.6425801960907352  0.2755364250801888
  0.2697212248391032  0.6452815605727025  0.7775313780626666
  0.7688210878966956  0.1460144565221500  0.2793277122981914
  0.7730838187153186  0.1435748250880179  0.7782633126488472
  0.7710507772703197  0.6435092321767508  0.2765446865510668
  0.7695400390199162  0.6435519493375866  0.7762998610679278
  0.0049554892952780  0.3827677481497583  0.2765925311324988
  0.0048312396586145  0.3808834905120332  0.7761502655547597
  0.0097872819955952  0.8831371806775586  0.2793813859011275
  0.0075267708409814  0.8822119794737412  0.7775123959571872
  0.5040386030658658  0.3828799440740487  0.2755724503584920
  0.5047957389927432  0.3849559913886367  0.7785878507013043
  0.5073162150562845  0.8798337801360853  0.2788912642255902
  0.5064118808441956  0.8826781287308857  0.7762596506874784
  0.4377482019239715  0.2803481832152626  0.0991054220569672
  0.4430630963723856  0.2879870040019850  0.6038580512974333
  0.4400240038552410  0.7872198019217729  0.1000080050955410
  0.4368161117170504  0.7821618054263391  0.5982735267819531
  0.9359543431224007  0.2811887789901606  0.0988414375407658
  0.9396303194099508  0.2853927012317731  0.5990896642642657
  0.9396568843890065  0.7879852247162038  0.1005926788440729
  0.9383562797114940  0.7838282997512177  0.5989532280847452
  0.1602053371100279  0.0623634845342994  0.1000048512919578
  0.1599065975555071  0.0634797718513841  0.5990326816079714
  0.1616672667722154  0.5682474154998319  0.0990565179230451
  0.1612311831551733  0.5645594932754491  0.5989698366638516
  0.6611894189958885  0.0621549735248506  0.1005686875594399
  0.6616493717686490  0.0656877192649945  0.6037067808897972
  0.6630377173039320  0.5671181129068424  0.0988037456645774
  0.6619043700264542  0.5655474526501580  0.5982636107280784
 
  0.00000000E+00  0.00000000E+00  0.00000000E+00
  0.00000000E+00  0.00000000E+00  0.00000000E+00
  0.00000000E+00  0.00000000E+00  0.00000000E+00
  0.00000000E+00  0.00000000E+00  0.00000000E+00
  0.00000000E+00  0.00000000E+00  0.00000000E+00
  0.00000000E+00  0.00000000E+00  0.00000000E+00
  0.00000000E+00  0.00000000E+00  0.00000000E+00
  0.00000000E+00  0.00000000E+00  0.00000000E+00
  0.00000000E+00  0.00000000E+00  0.00000000E+00
  0.00000000E+00  0.00000000E+00  0.00000000E+00
  0.00000000E+00  0.00000000E+00  0.00000000E+00
  0.00000000E+00  0.00000000E+00  0.00000000E+00
  0.00000000E+00  0.00000000E+00  0.00000000E+00
  0.00000000E+00  0.00000000E+00  0.00000000E+00
  0.00000000E+00  0.00000000E+00  0.00000000E+00
  0.00000000E+00  0.00000000E+00  0.00000000E+00
  0.00000000E+00  0.00000000E+00  0.00000000E+00
  0.00000000E+00  0.00000000E+00  0.00000000E+00
  0.00000000E+00  0.00000000E+00  0.00000000E+00
  0.00000000E+00  0.00000000E+00  0.00000000E+00
  0.00000000E+00  0.00000000E+00  0.00000000E+00
  0.00000000E+00  0.00000000E+00  0.00000000E+00
  0.00000000E+00  0.00000000E+00  0.00000000E+00
  0.00000000E+00  0.00000000E+00  0.00000000E+00
  0.00000000E+00  0.00000000E+00  0.00000000E+00
  0.00000000E+00  0.00000000E+00  0.00000000E+00
  0.00000000E+00  0.00000000E+00  0.00000000E+00
  0.00000000E+00  0.00000000E+00  0.00000000E+00
  0.00000000E+00  0.00000000E+00  0.00000000E+00
  0.00000000E+00  0.00000000E+00  0.00000000E+00
  0.00000000E+00  0.00000000E+00  0.00000000E+00
  0.00000000E+00  0.00000000E+00  0.00000000E+00
  0.00000000E+00  0.00000000E+00  0.00000000E+00
  0.00000000E+00  0.00000000E+00  0.00000000E+00
  0.00000000E+00  0.00000000E+00  0.00000000E+00
  0.00000000E+00  0.00000000E+00  0.00000000E+00
  0.00000000E+00  0.00000000E+00  0.00000000E+00
  0.00000000E+00  0.00000000E+00  0.00000000E+00
  0.00000000E+00  0.00000000E+00  0.00000000E+00
  0.00000000E+00  0.00000000E+00  0.00000000E+00
  0.00000000E+00  0.00000000E+00  0.00000000E+00
  0.00000000E+00  0.00000000E+00  0.00000000E+00
  0.00000000E+00  0.00000000E+00  0.00000000E+00
  0.00000000E+00  0.00000000E+00  0.00000000E+00
  0.00000000E+00  0.00000000E+00  0.00000000E+00
  0.00000000E+00  0.00000000E+00  0.00000000E+00
  0.00000000E+00  0.00000000E+00  0.00000000E+00
  0.00000000E+00  0.00000000E+00  0.00000000E+00
  0.00000000E+00  0.00000000E+00  0.00000000E+00
  0.00000000E+00  0.00000000E+00  0.00000000E+00
  0.00000000E+00  0.00000000E+00  0.00000000E+00
  0.00000000E+00  0.00000000E+00  0.00000000E+00
  0.00000000E+00  0.00000000E+00  0.00000000E+00
  0.00000000E+00  0.00000000E+00  0.00000000E+00
  0.00000000E+00  0.00000000E+00  0.00000000E+00
  0.00000000E+00  0.00000000E+00  0.00000000E+00
  0.00000000E+00  0.00000000E+00  0.00000000E+00
  0.00000000E+00  0.00000000E+00  0.00000000E+00
  0.00000000E+00  0.00000000E+00  0.00000000E+00
  0.00000000E+00  0.00000000E+00  0.00000000E+00
  0.00000000E+00  0.00000000E+00  0.00000000E+00
  0.00000000E+00  0.00000000E+00  0.00000000E+00
  0.00000000E+00  0.00000000E+00  0.00000000E+00
  0.00000000E+00  0.00000000E+00  0.00000000E+00
  0.00000000E+00  0.00000000E+00  0.00000000E+00
  0.00000000E+00  0.00000000E+00  0.00000000E+00
  0.00000000E+00  0.00000000E+00  0.00000000E+00
  0.00000000E+00  0.00000000E+00  0.00000000E+00
  0.00000000E+00  0.00000000E+00  0.00000000E+00
  0.00000000E+00  0.00000000E+00  0.00000000E+00
  0.00000000E+00  0.00000000E+00  0.00000000E+00
  0.00000000E+00  0.00000000E+00  0.00000000E+00
  0.00000000E+00  0.00000000E+00  0.00000000E+00
  0.00000000E+00  0.00000000E+00  0.00000000E+00
  0.00000000E+00  0.00000000E+00  0.00000000E+00
  0.00000000E+00  0.00000000E+00  0.00000000E+00
  0.00000000E+00  0.00000000E+00  0.00000000E+00
  0.00000000E+00  0.00000000E+00  0.00000000E+00
  0.00000000E+00  0.00000000E+00  0.00000000E+00
  0.00000000E+00  0.00000000E+00  0.00000000E+00
  0.00000000E+00  0.00000000E+00  0.00000000E+00
  0.00000000E+00  0.00000000E+00  0.00000000E+00
  0.00000000E+00  0.00000000E+00  0.00000000E+00
  0.00000000E+00  0.00000000E+00  0.00000000E+00
  0.00000000E+00  0.00000000E+00  0.00000000E+00
  0.00000000E+00  0.00000000E+00  0.00000000E+00
  0.00000000E+00  0.00000000E+00  0.00000000E+00
  0.00000000E+00  0.00000000E+00  0.00000000E+00
  0.00000000E+00  0.00000000E+00  0.00000000E+00
  0.00000000E+00  0.00000000E+00  0.00000000E+00
  0.00000000E+00  0.00000000E+00  0.00000000E+00
  0.00000000E+00  0.00000000E+00  0.00000000E+00
  0.00000000E+00  0.00000000E+00  0.00000000E+00
  0.00000000E+00  0.00000000E+00  0.00000000E+00
  0.00000000E+00  0.00000000E+00  0.00000000E+00
  0.00000000E+00  0.00000000E+00  0.00000000E+00
  0.00000000E+00  0.00000000E+00  0.00000000E+00
  0.00000000E+00  0.00000000E+00  0.00000000E+00
  0.00000000E+00  0.00000000E+00  0.00000000E+00
  0.00000000E+00  0.00000000E+00  0.00000000E+00
  0.00000000E+00  0.00000000E+00  0.00000000E+00
  0.00000000E+00  0.00000000E+00  0.00000000E+00
  0.00000000E+00  0.00000000E+00  0.00000000E+00
