Ca V  P  O                              
   1.00000000000000     
    10.5155344009000000    0.0000000000000000    0.0000000000000000
     0.0000067011000000    7.1892080306999997    0.0000000000000000
     0.0000045097000000    3.2146597663000001    7.8328516333999998
  Ca_sv/a4736583  V_pv/1175d3c8c  P/df60c54a93ef  O/818f92134a0a
               3               4               8              28
Selective dynamics
Direct
  0.7824928961019566  0.3857203829906268  0.0932134498988972   T   T   T
  0.2035998118023272  0.6227468404718977  0.8965381700701869   T   T   T
  0.2915076899059272  0.6088498515943215  0.4013577596073432   T   T   T
  0.6128974391240050  0.7393195828516994  0.7380110872428602   T   T   T
  0.8888248212966019  0.7294094367119968  0.2499683892887887   T   T   T
  0.1039302669475433  0.2546879070452732  0.7599470646112252   T   T   T
  0.3943445273393493  0.2648593658176139  0.2517246933862296   T   T   T
  0.8601564465156102  0.9479415965210194  0.8109078633996560   T   T   T
  0.6438723634051584  0.9716948516485502  0.2917610808659035   T   T   T
  0.9083680391473337  0.6359306322187379  0.6840693527135002   T   T   T
  0.5904526543303206  0.6457424574278434  0.1772904122924928   T   T   T
  0.4065099999595176  0.3729471035353171  0.8130204259603246   T   T   T
  0.0882554913356017  0.3529298419576392  0.3199311581419266   T   T   T
  0.3555460939108528  0.0447841304255405  0.6979119381515630   T   T   T
  0.1479822329841625  0.0294573428768814  0.2027558452437646   T   T   T
  0.7207819295954394  0.9648086520833417  0.7551189820403579   T   T   T
  0.8818378521797499  0.7960972220863596  0.9951540214777808   T   T   T
  0.4221011260908938  0.8429100244781296  0.7403832845760903   T   T   T
  0.9372257961724486  0.8565532066986137  0.6872141997926491   T   T   T
  0.7843973511592282  0.9991131687961570  0.2320045455177677   T   T   T
  0.6189134931587006  0.8407248052744123  0.4763492164420668   T   T   T
  0.6042662441694588  0.6342750778743920  0.0012086314213491   T   T   T
  0.0835343792877268  0.8245214109768355  0.2460051900867839   T   T   T
  0.5707725338401843  0.8702157657233940  0.1711721628040550   T   T   T
  0.7864264252507596  0.5603473372837726  0.7914644481323663   T   T   T
  0.8984868851372738  0.6512791937800202  0.5029231923677742   T   T   T
  0.0277377985327547  0.5162033735543829  0.7776197502832574   T   T   T
  0.5246756582893042  0.4889409636439908  0.7312602714454712   T   T   T
  0.7166814484066037  0.5669842363977722  0.2726870720351044   T   T   T
  0.2813708553201195  0.4572924716880920  0.7060729877748031   T   T   T
  0.4681291760581843  0.5350583494467784  0.2648706693750924   T   T   T
  0.9644254395245042  0.4545626496806889  0.2359669298853149   T   T   T
  0.1113962664011581  0.3619260832480151  0.4944697598679682   T   T   T
  0.2088974261212115  0.4496098393367234  0.2091877228267762   T   T   T
  0.4222237515921208  0.1477979677651788  0.8203332351605539   T   T   T
  0.9262822795104952  0.1477584984333973  0.7775317079407600   T   T   T
  0.3770574847182431  0.3734727501095705  0.9900502701139118   T   T   T
  0.3674140348446926  0.1948710169670349  0.5140328846114599   T   T   T
  0.2161615129276200  0.9989184494537824  0.7647012085324860   T   T   T
  0.0793854550237327  0.1261116761515382  0.3294502030992703   T   T   T
  0.5835810093514127  0.1829427369791290  0.2322953928301459   T   T   T
  0.1290105990595620  0.1793420138402624  0.0208479622777560   T   T   T
  0.2879711901701469  0.9926607021532874  0.2645878574061840   T   T   T
 
  0.00000000E+00  0.00000000E+00  0.00000000E+00
  0.00000000E+00  0.00000000E+00  0.00000000E+00
  0.00000000E+00  0.00000000E+00  0.00000000E+00
  0.00000000E+00  0.00000000E+00  0.00000000E+00
  0.00000000E+00  0.00000000E+00  0.00000000E+00
  0.00000000E+00  0.00000000E+00  0.00000000E+00
  0.00000000E+00  0.00000000E+00  0.00000000E+00
  0.00000000E+00  0.00000000E+00  0.00000000E+00
  0.00000000E+00  0.00000000E+00  0.00000000E+00
  0.00000000E+00  0.00000000E+00  0.00000000E+00
  0.00000000E+00  0.00000000E+00  0.00000000E+00
  0.00000000E+00  0.00000000E+00  0.00000000E+00
  0.00000000E+00  0.00000000E+00  0.00000000E+00
  0.00000000E+00  0.00000000E+00  0.00000000E+00
  0.00000000E+00  0.00000000E+00  0.00000000E+00
  0.00000000E+00  0.00000000E+00  0.00000000E+00
  0.00000000E+00  0.00000000E+00  0.00000000E+00
  0.00000000E+00  0.00000000E+00  0.00000000E+00
  0.00000000E+00  0.00000000E+00  0.00000000E+00
  0.00000000E+00  0.00000000E+00  0.00000000E+00
  0.00000000E+00  0.00000000E+00  0.00000000E+00
  0.00000000E+00  0.00000000E+00  0.00000000E+00
  0.00000000E+00  0.00000000E+00  0.00000000E+00
  0.00000000E+00  0.00000000E+00  0.00000000E+00
  0.00000000E+00  0.00000000E+00  0.00000000E+00
  0.00000000E+00  0.00000000E+00  0.00000000E+00
  0.00000000E+00  0.00000000E+00  0.00000000E+00
  0.00000000E+00  0.00000000E+00  0.00000000E+00
  0.00000000E+00  0.00000000E+00  0.00000000E+00
  0.00000000E+00  0.00000000E+00  0.00000000E+00
  0.00000000E+00  0.00000000E+00  0.00000000E+00
  0.00000000E+00  0.00000000E+00  0.00000000E+00
  0.00000000E+00  0.00000000E+00  0.00000000E+00
  0.00000000E+00  0.00000000E+00  0.00000000E+00
  0.00000000E+00  0.00000000E+00  0.00000000E+00
  0.00000000E+00  0.00000000E+00  0.00000000E+00
  0.00000000E+00  0.00000000E+00  0.00000000E+00
  0.00000000E+00  0.00000000E+00  0.00000000E+00
  0.00000000E+00  0.00000000E+00  0.00000000E+00
  0.00000000E+00  0.00000000E+00  0.00000000E+00
  0.00000000E+00  0.00000000E+00  0.00000000E+00
  0.00000000E+00  0.00000000E+00  0.00000000E+00
  0.00000000E+00  0.00000000E+00  0.00000000E+00
