Ca V  P  O 
 1.0000000000000000
    10.2391030000000001    0.0000000000000000    0.0000000000000000
     0.0000000000000000    7.0945799999999997    0.0000000000000000
     0.0000000000000000    2.9927039999999998    7.5238379999999996
 Ca  V   P   O  
   4   4   8  28
Cartesian
  2.1747589568783114  7.1318429809303039  6.8644089656600356
  2.9447925431216890  5.6354909809303075  3.1024899656600295
  7.2943104568783088  4.4517930190696839  4.4213480343399691
  8.0643440431216824  2.9554410190696885  0.6594290343399608
  6.0984851358019068  7.4176902843768726  5.5172292788138728
  9.2601693641980773  5.9213382843768700  1.7553102788138266
  0.9789336358019131  4.1659457156231321  5.7685277211861710
  4.1406178641980897  2.6695937156231153  2.0066087211861308
  8.5892083169103870  9.2533044676226037  5.8982260142128702
  6.7694461830897321  7.7569524676228347  2.1363070142125529
  9.2818933407927080  6.6316562556831018  5.1181452714338933
  6.0767611592074360  5.1353042556829287  1.3562262714334457
  4.1623418407925579  4.9519797443170681  6.1676117285665493
  0.9572096592072832  3.4556277443168963  2.4056927285661054
  3.4696568169102622  2.3303315323771572  5.3875309857874472
  1.6498946830896053  0.8339795323774026  1.6256119857871332
  7.1131207065207436  2.2597007314556796  5.4673018276095551
  8.8813451068817191  8.6771317359206446  7.2586826071330757
  4.0884422579180439  8.0546238469369236  5.6710318289451589
  9.3004381013287283  8.2090723772912195  4.8522648462876239
  8.2455337934791419  0.7633487314556500  1.7053828276095768
  6.4773093931182490  7.1807797359205372  3.4967636071332961
  6.1734602443291617  4.3873057046186545  0.0562714024427382
  1.0311092420819374  6.5582718469368189  1.9091128289451940
  6.0582163986712452  6.7127203772912205  1.0903458462876439
  7.9781307736161846  6.2873327780217023  5.8980448307604441
  9.1851942556708224  5.8836577046185035  3.8181904024424433
  0.2705637888613344  6.2619379414738425  5.9452324867472504
  5.3901152888614563  5.3216980585261888  5.3405245132526318
  7.3805237263838244  4.7909807780217211  2.1361258307604860
  2.8585792736161664  5.2963032219782908  5.3877121692395153
  4.8489877111385367  4.7655859414738044  2.1833134867473571
  9.9685392111386584  3.8253460585261649  1.5786055132527566
  1.0539087443291693  4.2036262953814960  3.7056475975575589
  2.2609722263838097  3.7999512219782883  1.6257931692395573
  4.1808866013287505  3.3745636227087759  6.4334921537123471
  9.2079937579180537  3.5290121530631828  5.6147251710548112
  4.0656427556708472  5.6999782953813343  7.4675665975572585
  3.7617936068817688  2.9065042640794507  4.0270743928667052
  1.9935692065208479  9.3239352685443340  5.8184551723904070
  0.9386648986712541  1.8782116227087806  2.6715731537123806
  6.1506607420819623  2.0326601530630777  1.8528061710548454
  1.3577578931182719  1.4101522640793571  0.2651553928669318
  3.1259822934792503  7.8275832685443190  2.0565361723904503
