Ca Ti Mn Si O  F                        
   1.00000000000000     
     9.9872684479000000    0.0000000000000000    0.0000000000000000
     0.0000000000000000   10.9652748108000004    0.0000000000000000
     0.0000000000000000   -4.3438069094999996   13.5038650633999993
   Ca   Ti   Mn   Si   O    F 
    11     8    12    16    64     8
Selective dynamics
Direct
  0.1141239311784221  0.3121856841431558  0.5012409156574799   T   T   T
  0.6034926318094226  0.1934543134900128  0.9823290527623131   T   T   T
  0.3967788358697595  0.8048449997502768  0.0197269237524115   T   T   T
  0.8986965549632734  0.6937927810389027  0.4905315546922943   T   T   T
  0.3725872342403991  0.4212198866629867  0.9130116763753339   T   T   T
  0.6286551594644084  0.5737404197799715  0.0926748274429550   T   T   T
  0.8715098161389401  0.0782215754729789  0.5862969400420642   T   T   T
  0.1274399186269952  0.9161378534164447  0.4099853055543285   T   T   T
  0.1208604368910415  0.9164509358609835  0.9108908879782061   T   T   T
  0.8794158195348618  0.0808484139281459  0.0878872975635020   T   T   T
  0.6128686118743821  0.5719593887523720  0.5789466235567673   T   T   T
  0.4045854964810005  0.7781879817510541  0.7483979575376022   T   T   T
  0.5895713520652163  0.2252067370046625  0.2506458964432169   T   T   T
  0.8999816670931736  0.7205808451570739  0.7479798540798086   T   T   T
  0.1002839414704895  0.2841248464997963  0.2507019244035264   T   T   T
  0.0976133969959447  0.2735564660713750  0.7674406550673244   T   T   T
  0.9043419463071393  0.7298271942848741  0.2351713467610083   T   T   T
  0.5968950083554611  0.2265252249361276  0.7330861544316460   T   T   T
  0.4050624749387720  0.7743203634870774  0.2690346819967389   T   T   T
  0.3936602045260288  0.8102330283153308  0.5134839100465813   T   T   T
  0.6014813222504397  0.1912873068209716  0.4835979416102735   T   T   T
  0.8935384076747380  0.6846366759448854  0.9828168695286289   T   T   T
  0.1078451252693994  0.3146426543051212  0.0182763018096793   T   T   T
  0.3666877160409629  0.4369240280975127  0.6832345194509536   T   T   T
  0.6236545666585857  0.5566181486054042  0.3224300129977189   T   T   T
  0.8651369693862799  0.0581284683693909  0.8147548794569055   T   T   T
  0.1377281137466148  0.9490993273270462  0.1898476254572759   T   T   T
  0.1369025768800650  0.9388300380040846  0.6813609458432898   T   T   T
  0.8647568069289289  0.0648297478588108  0.3153899339167665   T   T   T
  0.6383166718451760  0.5607515831688504  0.8121132755136129   T   T   T
  0.3610840064930201  0.4386591446178351  0.1928136051655472   T   T   T
  0.3360102298835137  0.1215844913588802  0.8595427934623915   T   T   T
  0.6655638730865853  0.8742132482531327  0.1396339241314064   T   T   T
  0.8422071348983925  0.3770601411562812  0.6402951768675924   T   T   T
  0.1601198713519423  0.6187483036481528  0.3587980790618015   T   T   T
  0.6709929801938630  0.8749689585159685  0.6386745531171619   T   T   T
  0.3297134482861060  0.1297424995327573  0.3604471085108469   T   T   T
  0.1730208631048961  0.6245361662756325  0.8599841671242624   T   T   T
  0.8232445030947322  0.3737747249067657  0.1418966600637364   T   T   T
  0.1657217547353999  0.6211083956684107  0.5879196836278637   T   T   T
  0.8337648612586623  0.3782190020344723  0.4125648266391274   T   T   T
  0.6654742811458058  0.8782091409556799  0.9126881452938448   T   T   T
  0.3319698401879849  0.1191571621205656  0.0864239685122736   T   T   T
  0.3332120674920871  0.1237271171034910  0.5859275413485712   T   T   T
  0.6702564881589546  0.8818375505946507  0.4131695363688351   T   T   T
  0.8290954975582498  0.3766595822889906  0.9144917710542471   T   T   T
  0.1704534080249109  0.6242573736940945  0.0871563048884147   T   T   T
  0.5199900168817163  0.3811812443294164  0.2696080798565691   T   T   T
  0.4835963137293947  0.6190030492319499  0.7226069132163877   T   T   T
  0.0196095579317969  0.1202339847135318  0.2214700267608461   T   T   T
  0.9770924489983273  0.8828394336809580  0.7781182493087317   T   T   T
  0.2211989002264881  0.4778644491901653  0.8055876044201122   T   T   T
  0.7769114861333543  0.5172831944414038  0.2069266452833104   T   T   T
  0.7206085747711212  0.0195293053821477  0.7002711007749719   T   T   T
  0.2809776235552952  0.9808227062473310  0.3052338651097366   T   T   T
  0.0177922914107764  0.1118208017978268  0.7282076758687865   T   T   T
  0.9842387228834223  0.8913149633568204  0.2697638569887925   T   T   T
  0.5206834951309274  0.3893988532405079  0.7736607595946076   T   T   T
  0.4794296997126483  0.6114212592475601  0.2291822068520882   T   T   T
  0.5131003957967266  0.8400113700743574  0.6455364013810990   T   T   T
  0.4886851097123141  0.1566070387424943  0.3494213503299154   T   T   T
  0.0161148250454886  0.6635603513623940  0.8519126011466726   T   T   T
  0.9795748552334276  0.3305251856261923  0.1432379977139922   T   T   T
  0.2282814918933152  0.2414942709972318  0.8767868453530346   T   T   T
  0.7717020753374888  0.7527099557162460  0.1234477199796010   T   T   T
  0.7341863874325533  0.2585022018879971  0.6297604810312464   T   T   T
  0.2731700565539130  0.7351387476750432  0.3740479117819696   T   T   T
  0.7447715088947917  0.0149538608760728  0.9281212503702291   T   T   T
  0.2525004862402051  0.9826913799690837  0.0724829007171649   T   T   T
  0.2329395887711489  0.4889110847880694  0.5927887173486355   T   T   T
  0.7574383172969946  0.5158733389847642  0.4302060300391232   T   T   T
  0.7602114552329157  0.7545534407792617  0.6508636848924599   T   T   T
  0.2299751792551114  0.2366180678718960  0.3402584780460733   T   T   T
  0.2660322004330498  0.7410128352558378  0.8444316663513940   T   T   T
  0.7303522756770332  0.2525412709384663  0.1495481019788125   T   T   T
  0.2689628066952717  0.9803065096385822  0.5699210339723185   T   T   T
  0.7327730452180057  0.0252955990490284  0.4255514501936692   T   T   T
  0.7702266639260401  0.5183376580653670  0.9194738422242001   T   T   T
  0.2332033841777859  0.4808077119159395  0.0719303283504072   T   T   T
  0.3718417636433741  0.1169469230183800  0.9725813159793901   T   T   T
  0.6283487956317866  0.8757322762789524  0.0260283020525493   T   T   T
  0.8732128920371361  0.3720418128734420  0.5243637615956210   T   T   T
  0.1347316279597864  0.6063140542689724  0.4701916150446278   T   T   T
  0.4798128933661376  0.1686453916282293  0.8296220426027995   T   T   T
  0.5212271212540104  0.8302607641282815  0.1716089662839502   T   T   T
  0.9867766760967955  0.3332182813505596  0.6711934425712536   T   T   T
  0.0180428441625779  0.6845709045151130  0.3406923226403148   T   T   T
  0.2061449116824194  0.6512325518221511  0.9799427923916744   T   T   T
  0.7857113461229719  0.3674221361742260  0.0258587510930692   T   T   T
  0.7113710025610286  0.8616152245136918  0.5218150108155559   T   T   T
  0.2979511645583393  0.1552778139788514  0.4806893458655208   T   T   T
  0.9909389162115135  0.3587903295818551  0.9003949608449350   T   T   T
  0.0082145256147601  0.6381460614355822  0.1026289322752065   T   T   T
  0.4960166106000226  0.1350009092799548  0.6010922790585744   T   T   T
  0.5077899929845142  0.8677250490389816  0.3992120080614280   T   T   T
  0.2747466692949810  0.9817930409328793  0.7986656492872894   T   T   T
  0.7292480346619257  0.0130379732995169  0.1978816425908316   T   T   T
  0.7816813113433966  0.5189506598985777  0.6976937798172542   T   T   T
  0.1957526451763762  0.4798163225852521  0.2819752738666655   T   T   T
  0.2584395885414077  0.7506622232548326  0.6336078178599119   T   T   T
  0.7398808443729135  0.2527228919215430  0.3600621451379569   T   T   T
  0.7568933439278624  0.7496582124980532  0.8629174040715725   T   T   T
  0.2393811011049571  0.2474153923763701  0.1329217602753957   T   T   T
  0.5173851440259626  0.8687325644271887  0.8644860609115292   T   T   T
  0.4787053808176232  0.1286849048207655  0.1367414217161495   T   T   T
  0.0121049579640835  0.6447278703777941  0.6291474349394703   T   T   T
  0.9819188054533454  0.3666662168513231  0.3639120813468043   T   T   T
  0.2560746427111609  0.2406152103519414  0.6678773495014132   T   T   T
  0.7494409266767341  0.7626232311521830  0.3355274911138215   T   T   T
  0.7474227961320234  0.2527539377659436  0.8429156029694043   T   T   T
  0.2523691365549644  0.7444052853482382  0.1630191694245617   T   T   T
  0.0186283993096193  0.1126108605430281  0.9652714247302888   T   T   T
  0.9774186254136530  0.8830770030051688  0.0294331712549808   T   T   T
  0.5217772943013887  0.3790316650692149  0.5509591152024731   T   T   T
  0.5067505137911966  0.6327097993257847  0.4601588951103567   T   T   T
  0.0008897786163192  0.8919367051687492  0.5421120336905856   T   T   T
  0.0073751176646793  0.1087601553157856  0.4615767272828123   T   T   T
  0.4981465831008656  0.6083148766188898  0.9666483556361976   T   T   T
  0.5009739909051454  0.3881641180983872  0.0379703608806600   T   T   T
 
  0.00000000E+00  0.00000000E+00  0.00000000E+00
  0.00000000E+00  0.00000000E+00  0.00000000E+00
  0.00000000E+00  0.00000000E+00  0.00000000E+00
  0.00000000E+00  0.00000000E+00  0.00000000E+00
  0.00000000E+00  0.00000000E+00  0.00000000E+00
  0.00000000E+00  0.00000000E+00  0.00000000E+00
  0.00000000E+00  0.00000000E+00  0.00000000E+00
  0.00000000E+00  0.00000000E+00  0.00000000E+00
  0.00000000E+00  0.00000000E+00  0.00000000E+00
  0.00000000E+00  0.00000000E+00  0.00000000E+00
  0.00000000E+00  0.00000000E+00  0.00000000E+00
  0.00000000E+00  0.00000000E+00  0.00000000E+00
  0.00000000E+00  0.00000000E+00  0.00000000E+00
  0.00000000E+00  0.00000000E+00  0.00000000E+00
  0.00000000E+00  0.00000000E+00  0.00000000E+00
  0.00000000E+00  0.00000000E+00  0.00000000E+00
  0.00000000E+00  0.00000000E+00  0.00000000E+00
  0.00000000E+00  0.00000000E+00  0.00000000E+00
  0.00000000E+00  0.00000000E+00  0.00000000E+00
  0.00000000E+00  0.00000000E+00  0.00000000E+00
  0.00000000E+00  0.00000000E+00  0.00000000E+00
  0.00000000E+00  0.00000000E+00  0.00000000E+00
  0.00000000E+00  0.00000000E+00  0.00000000E+00
  0.00000000E+00  0.00000000E+00  0.00000000E+00
  0.00000000E+00  0.00000000E+00  0.00000000E+00
  0.00000000E+00  0.00000000E+00  0.00000000E+00
  0.00000000E+00  0.00000000E+00  0.00000000E+00
  0.00000000E+00  0.00000000E+00  0.00000000E+00
  0.00000000E+00  0.00000000E+00  0.00000000E+00
  0.00000000E+00  0.00000000E+00  0.00000000E+00
  0.00000000E+00  0.00000000E+00  0.00000000E+00
  0.00000000E+00  0.00000000E+00  0.00000000E+00
  0.00000000E+00  0.00000000E+00  0.00000000E+00
  0.00000000E+00  0.00000000E+00  0.00000000E+00
  0.00000000E+00  0.00000000E+00  0.00000000E+00
  0.00000000E+00  0.00000000E+00  0.00000000E+00
  0.00000000E+00  0.00000000E+00  0.00000000E+00
  0.00000000E+00  0.00000000E+00  0.00000000E+00
  0.00000000E+00  0.00000000E+00  0.00000000E+00
  0.00000000E+00  0.00000000E+00  0.00000000E+00
  0.00000000E+00  0.00000000E+00  0.00000000E+00
  0.00000000E+00  0.00000000E+00  0.00000000E+00
  0.00000000E+00  0.00000000E+00  0.00000000E+00
  0.00000000E+00  0.00000000E+00  0.00000000E+00
  0.00000000E+00  0.00000000E+00  0.00000000E+00
  0.00000000E+00  0.00000000E+00  0.00000000E+00
  0.00000000E+00  0.00000000E+00  0.00000000E+00
  0.00000000E+00  0.00000000E+00  0.00000000E+00
  0.00000000E+00  0.00000000E+00  0.00000000E+00
  0.00000000E+00  0.00000000E+00  0.00000000E+00
  0.00000000E+00  0.00000000E+00  0.00000000E+00
  0.00000000E+00  0.00000000E+00  0.00000000E+00
  0.00000000E+00  0.00000000E+00  0.00000000E+00
  0.00000000E+00  0.00000000E+00  0.00000000E+00
  0.00000000E+00  0.00000000E+00  0.00000000E+00
  0.00000000E+00  0.00000000E+00  0.00000000E+00
  0.00000000E+00  0.00000000E+00  0.00000000E+00
  0.00000000E+00  0.00000000E+00  0.00000000E+00
  0.00000000E+00  0.00000000E+00  0.00000000E+00
  0.00000000E+00  0.00000000E+00  0.00000000E+00
  0.00000000E+00  0.00000000E+00  0.00000000E+00
  0.00000000E+00  0.00000000E+00  0.00000000E+00
  0.00000000E+00  0.00000000E+00  0.00000000E+00
  0.00000000E+00  0.00000000E+00  0.00000000E+00
  0.00000000E+00  0.00000000E+00  0.00000000E+00
  0.00000000E+00  0.00000000E+00  0.00000000E+00
  0.00000000E+00  0.00000000E+00  0.00000000E+00
  0.00000000E+00  0.00000000E+00  0.00000000E+00
  0.00000000E+00  0.00000000E+00  0.00000000E+00
  0.00000000E+00  0.00000000E+00  0.00000000E+00
  0.00000000E+00  0.00000000E+00  0.00000000E+00
  0.00000000E+00  0.00000000E+00  0.00000000E+00
  0.00000000E+00  0.00000000E+00  0.00000000E+00
  0.00000000E+00  0.00000000E+00  0.00000000E+00
  0.00000000E+00  0.00000000E+00  0.00000000E+00
  0.00000000E+00  0.00000000E+00  0.00000000E+00
  0.00000000E+00  0.00000000E+00  0.00000000E+00
  0.00000000E+00  0.00000000E+00  0.00000000E+00
  0.00000000E+00  0.00000000E+00  0.00000000E+00
  0.00000000E+00  0.00000000E+00  0.00000000E+00
  0.00000000E+00  0.00000000E+00  0.00000000E+00
  0.00000000E+00  0.00000000E+00  0.00000000E+00
  0.00000000E+00  0.00000000E+00  0.00000000E+00
  0.00000000E+00  0.00000000E+00  0.00000000E+00
  0.00000000E+00  0.00000000E+00  0.00000000E+00
  0.00000000E+00  0.00000000E+00  0.00000000E+00
  0.00000000E+00  0.00000000E+00  0.00000000E+00
  0.00000000E+00  0.00000000E+00  0.00000000E+00
  0.00000000E+00  0.00000000E+00  0.00000000E+00
  0.00000000E+00  0.00000000E+00  0.00000000E+00
  0.00000000E+00  0.00000000E+00  0.00000000E+00
  0.00000000E+00  0.00000000E+00  0.00000000E+00
  0.00000000E+00  0.00000000E+00  0.00000000E+00
  0.00000000E+00  0.00000000E+00  0.00000000E+00
  0.00000000E+00  0.00000000E+00  0.00000000E+00
  0.00000000E+00  0.00000000E+00  0.00000000E+00
  0.00000000E+00  0.00000000E+00  0.00000000E+00
  0.00000000E+00  0.00000000E+00  0.00000000E+00
  0.00000000E+00  0.00000000E+00  0.00000000E+00
  0.00000000E+00  0.00000000E+00  0.00000000E+00
  0.00000000E+00  0.00000000E+00  0.00000000E+00
  0.00000000E+00  0.00000000E+00  0.00000000E+00
  0.00000000E+00  0.00000000E+00  0.00000000E+00
  0.00000000E+00  0.00000000E+00  0.00000000E+00
  0.00000000E+00  0.00000000E+00  0.00000000E+00
  0.00000000E+00  0.00000000E+00  0.00000000E+00
  0.00000000E+00  0.00000000E+00  0.00000000E+00
  0.00000000E+00  0.00000000E+00  0.00000000E+00
  0.00000000E+00  0.00000000E+00  0.00000000E+00
  0.00000000E+00  0.00000000E+00  0.00000000E+00
  0.00000000E+00  0.00000000E+00  0.00000000E+00
  0.00000000E+00  0.00000000E+00  0.00000000E+00
  0.00000000E+00  0.00000000E+00  0.00000000E+00
  0.00000000E+00  0.00000000E+00  0.00000000E+00
  0.00000000E+00  0.00000000E+00  0.00000000E+00
  0.00000000E+00  0.00000000E+00  0.00000000E+00
  0.00000000E+00  0.00000000E+00  0.00000000E+00
  0.00000000E+00  0.00000000E+00  0.00000000E+00
  0.00000000E+00  0.00000000E+00  0.00000000E+00
