Ca Co P  O 
 1.0000000000000000
    -0.0312120000000000   -0.0024389999999990    5.0563000000000002
    14.6678560000000004   -7.5126539999999995    2.4388519999999998
     2.9448989999999999    7.0158719999999999    2.5057960000000001
 Ca  Co  P   O  
   4   4   8  28
Cartesian
  8.5968897162527504 -0.3768368039236137  7.8526553981849032
 17.4133733213791686 -0.6119490689724687  7.8720308924795557
  4.2205191245324354 -0.2218247933319306  4.6724909916901733
 12.9870088516375617 -0.5344498117677253  4.5481122549417385
 11.7332500314084545 -4.9407244839781743  5.5507988574356908
 10.2903787479380462  2.2110611478617788  4.3983951902763634
  5.9098788147295647  2.3333733228176090  3.0581318797904360
  1.4765089469415873  2.4503761396440487  4.4963087513210862
  5.6207334453643423 -2.2096975337278626  2.3883814572643729
 14.4239950265457004 -2.4569873136962728  7.3445854805891413
  4.1162547812742867  4.9129039138223884  7.7146535219768033
  9.9926497213113628 -2.3539501171161383  5.0686444806058919
  2.9999211278876747  2.1215171695074471  1.9994600790370909
 11.7801435396909646  1.8654303043575391  6.9475495556937910
  7.4046783267129150  2.0272507946746514  5.5606826549942880
 13.2766870039977825 -5.2183129669270496  2.9996739952778495
  5.3616781291093947  4.1531438675739647  3.1843447874290307
 11.2214777477917345 -3.0987394557081176  5.5845942646850713
  6.8692683064890954 -2.9563313599926353  1.9142217493035039
 15.6527250310961463 -3.2253721723124840  6.8628904262246948
  1.6570927823635522  1.7467034484167792  2.6612404818183846
 10.4243187368623520  1.5335290419644518  7.6086554891761864
  6.0463981651139642  1.6849919915744069  4.9141368144351256
 11.8914958753557709 -5.5707707860732238  7.4049147134390472
  7.5871039766955155  3.6146313751651662  5.5749340445015036
 13.4647678583087682 -3.6299278468380320  2.9858205241234983
  3.1190993723344276  3.7076670919239674  7.0698009302061244
  9.0115681116426281 -3.5622449055002190  4.4180958893908810
  7.7508093572110628  5.4591375501146819  3.8078335933907952
 13.6029897819997156 -1.8018577222271943  6.2637186036588179
  3.3251346639934405  5.6288283874570642  3.7003883309864856
  9.1651991128231849 -1.6461293277676956  6.1102940282975258
  4.1575892191350743  1.4217177852348197  2.7355153836335457
  9.9758514101171745 -5.8440380835677290  5.2093089481678909
  8.5430074213715308  1.3256657468751150  4.7981115510498809
 14.3861746358742870 -5.9336049079417146  7.3048225117018211
  5.9716877675940268 -1.2348525997027935  3.5168134971290397
 14.8179808012804610 -1.4773262812777848  3.4139751945749008
  4.4964402678558288  5.8366672237478747  6.5528374726314516
 10.3716156702184872 -1.4211647757475758  3.9103885492364880
  7.3657883262736661  1.5753360378909063  7.0401726191675227
 13.2438996882253779 -5.6549205279391384  4.4834085002480810
  2.9413342331005761  1.6816933591904892  5.5721109913007343
 11.7513438691439873  1.3984968526834538  5.4735093528703116
