Ca   Sc   V    O                        
   1.00000000000000     
     9.9048761441548905   -0.0301546265124781   -0.0130204982739671
     2.1481205900647700    9.5492769919980205   -0.0107322708372404
    -5.9828269611998799   -4.7511086337380100   15.5427839628264994
   Ca   Sc   V    O 
     7    16    16    64
Direct
  0.4981746739624229  0.5871654554918497  0.4817661942719756
  0.4864394968638592  0.1046275758624917  0.9833283660005318
  0.4829512761563318  0.6090613039502472  0.9823049034252825
  0.0005841112359938  0.0880412599016406  0.4834932557200278
  0.9847150924412236  0.1048104342454355  0.9825409286501061
  0.9984434939872244  0.5881546376485137  0.4825846856086380
  0.9801244089455990  0.6095785046011554  0.9827789643281239
  0.3249279847488876  0.4518048259550876  0.1694988101390680
  0.3428226043592463  0.4373525824638556  0.6735143300279645
  0.3250636001900663  0.9532260602555820  0.1718631264908376
  0.3463788896948714  0.9321948871988970  0.6698554821802128
  0.8249715560420233  0.4515326155829156  0.1695858080292074
  0.8446238337956803  0.4295309549688240  0.6695887212675004
  0.8249513660023515  0.9526380811686910  0.1723308078270885
  0.8523868611066588  0.9288519542199114  0.6746073536015608
  0.1446757508979164  0.0309391256547414  0.3130455789576969
  0.1679533495519867  0.0026396084676645  0.8130193317429377
  0.1460741380884346  0.5226602664899381  0.3102348766762545
  0.1642904660536798  0.5000423850454481  0.8124432994521553
  0.6475345949482442  0.0189805456340414  0.3159155753368283
  0.6662136107444449  0.0021522242030320  0.8117779821980043
  0.6446747158129855  0.5229944094978367  0.3096673709472033
  0.6646676712716987  0.4994864837997278  0.8109263886966182
  0.0803393618456861  0.2086001317956356  0.1805080689060641
  0.1011277522289385  0.1861237789446969  0.6810257422532009
  0.0803215908213669  0.7072397260702813  0.1802346439206103
  0.1016018262883909  0.6863849549498745  0.6813678594427014
  0.5790416279942856  0.2073690029067622  0.1808600325879979
  0.5945159575713288  0.1822261128819860  0.6704724753302689
  0.5785360246465494  0.7067781012800757  0.1799228801909147
  0.6008934887603611  0.6858804665014286  0.6798538778722940
  0.4040013921731564  0.2693516862641029  0.3149119697860296
  0.4182395195493905  0.2543668631578991  0.8129725348484400
  0.3898639043357913  0.7805905056918693  0.3167823513915881
  0.4177551285420994  0.7542786333979404  0.8124023656009161
  0.8929282393541330  0.2724632527191365  0.3120469998782903
  0.9164791604164920  0.2517462583398593  0.8135420446619660
  0.8967931375348741  0.7713783057410846  0.3121072054520597
  0.9161251301118697  0.7516064080514050  0.8127976654754161
  0.2080864249803337  0.3449245187291837  0.2081522699691703
  0.2354054007459357  0.3224494107199617  0.7130711877159136
  0.2162697980626470  0.8459682057570198  0.2151155375524620
  0.2367576237752174  0.8222108482737660  0.7134501389505672
  0.7137918908378932  0.3410506800529257  0.2112280216588005
  0.7309046661333308  0.3196296017881218  0.7106267369615997
  0.7127782488943220  0.8466115154244311  0.2150168672155401
  0.7362753036482421  0.8218219757281648  0.7133860812853702
  0.4764685423383823  0.1050286378494840  0.2160391021650112
  0.5016520516183042  0.0819737326687851  0.7112623969829140
  0.4794957569278985  0.5978894954242654  0.2075718449874731
  0.4987144209989706  0.5822833633613476  0.7122678372880625
  0.9774757195595974  0.1038752185112155  0.2143843804990601
  0.0000344144409869  0.0816460052612011  0.7137433936275566
  0.9763729792479670  0.6046876876162782  0.2113981697876121
  0.9987411845833256  0.5818845005570987  0.7128800674198604
  0.0339200201880373  0.1883428007600208  0.3904885209209697
  0.0626588102313854  0.1678979251592418  0.8911813850691356
  0.0373276422905951  0.6835498549237067  0.3889433616680587
  0.0593552131680293  0.6652849210995238  0.8901339545090512
  0.5434094309772702  0.2041563139941011  0.3881043800773473
  0.5593221861515538  0.1663118312063692  0.8895294647366474
  0.5316633720846379  0.6830809342239472  0.3854168416910652
  0.5601057189577857  0.6661383301469587  0.8890476218169373
  0.3284742056116914  0.4362786337146505  0.3857680004169609
  0.3525595142327330  0.4176762916962874  0.8904498743683636
  0.3195646615664222  0.9200076379610551  0.3876929088774816
  0.3535521419372754  0.9169888393916658  0.8906855623647799
  0.8274873246734568  0.4382693726471693  0.3886280352022154
  0.8523269258465558  0.4171811451358672  0.8894146873006910
  0.8339289100344734  0.9342097152616355  0.3901377248612939
  0.8520678046825753  0.9153582970231063  0.8901505390336795
  0.2588670566160191  0.1404267587439285  0.2779615233225629
  0.2831775410727318  0.1163101954822623  0.7779009840883339
  0.2595317162076511  0.6354865947198372  0.2743524378359404
  0.2819023919138336  0.6156213403535781  0.7784337414751631
  0.7572660658248700  0.1378361957439279  0.2784609760789989
  0.7871881429540568  0.1153527355232060  0.7820455113079874
  0.7601479251773841  0.6352706162100978  0.2754302694816980
  0.7818135211974513  0.6146149425462949  0.7777751642602748
  0.9945102311508152  0.3750460283395396  0.2767926385858742
  0.0153437148143057  0.3520239262035647  0.7760401384481018
  0.9979663245980350  0.8751404051451048  0.2789523764720678
  0.0187509798792513  0.8532868578550362  0.7781134628981277
  0.4935604765341789  0.3765712753856785  0.2752550039298460
  0.5160006103916223  0.3545822326997497  0.7775449678706584
  0.4958910117094535  0.8727606815075848  0.2795059605443466
  0.5174859434714510  0.8537455159622891  0.7767738935959292
  0.4267099936396668  0.2721342029167050  0.0983300311832383
  0.4529547971213276  0.2582578773743878  0.6035683477735301
  0.4293743591041733  0.7795269331688987  0.0993629296880406
  0.4477726232785456  0.7538668057614969  0.5988057176111510
  0.9256267907725090  0.2730576150553883  0.0981048948172773
  0.9497043128111575  0.2557890140256318  0.5993010932091861
  0.9279883770197148  0.7790117811530436  0.0996725970178535
  0.9489177673203399  0.7556860199800927  0.5996075917538475
  0.1502019615534234  0.0549074915867577  0.0996979599333106
  0.1706639807015939  0.0343317207648401  0.5993287630162498
  0.1512161615132056  0.5600959137713516  0.0982404388111248
  0.1716814639841264  0.5362295406275773  0.5988219184462182
  0.6502402499056313  0.0539917211830694  0.1000471382007695
  0.6725014399507681  0.0371250668926940  0.6057769952965413
  0.6528226514829272  0.5595805308808024  0.0983785904019489
  0.6727558448483694  0.5374311210730871  0.5985279234803803
 
             NaN             NaN             NaN
             NaN             NaN             NaN
             NaN             NaN             NaN
             NaN             NaN             NaN
             NaN             NaN             NaN
             NaN             NaN             NaN
             NaN             NaN             NaN
             NaN             NaN             NaN
             NaN             NaN             NaN
             NaN             NaN             NaN
             NaN             NaN             NaN
             NaN             NaN             NaN
             NaN             NaN             NaN
             NaN             NaN             NaN
             NaN             NaN             NaN
             NaN             NaN             NaN
             NaN             NaN             NaN
             NaN             NaN             NaN
             NaN             NaN             NaN
             NaN             NaN             NaN
             NaN             NaN             NaN
             NaN             NaN             NaN
             NaN             NaN             NaN
             NaN             NaN             NaN
             NaN             NaN             NaN
             NaN             NaN             NaN
             NaN             NaN             NaN
             NaN             NaN             NaN
             NaN             NaN             NaN
             NaN             NaN             NaN
             NaN             NaN             NaN
             NaN             NaN             NaN
             NaN             NaN             NaN
             NaN             NaN             NaN
             NaN             NaN             NaN
             NaN             NaN             NaN
             NaN             NaN             NaN
             NaN             NaN             NaN
             NaN             NaN             NaN
             NaN             NaN             NaN
             NaN             NaN             NaN
             NaN             NaN             NaN
             NaN             NaN             NaN
             NaN             NaN             NaN
             NaN             NaN             NaN
             NaN             NaN             NaN
             NaN             NaN             NaN
             NaN             NaN             NaN
             NaN             NaN             NaN
             NaN             NaN             NaN
             NaN             NaN             NaN
             NaN             NaN             NaN
             NaN             NaN             NaN
             NaN             NaN             NaN
             NaN             NaN             NaN
             NaN             NaN             NaN
             NaN             NaN             NaN
             NaN             NaN             NaN
             NaN             NaN             NaN
             NaN             NaN             NaN
             NaN             NaN             NaN
             NaN             NaN             NaN
             NaN             NaN             NaN
             NaN             NaN             NaN
             NaN             NaN             NaN
             NaN             NaN             NaN
             NaN             NaN             NaN
             NaN             NaN             NaN
             NaN             NaN             NaN
             NaN             NaN             NaN
             NaN             NaN             NaN
             NaN             NaN             NaN
             NaN             NaN             NaN
             NaN             NaN             NaN
             NaN             NaN             NaN
             NaN             NaN             NaN
             NaN             NaN             NaN
             NaN             NaN             NaN
             NaN             NaN             NaN
             NaN             NaN             NaN
             NaN             NaN             NaN
             NaN             NaN             NaN
             NaN             NaN             NaN
             NaN             NaN             NaN
             NaN             NaN             NaN
             NaN             NaN             NaN
             NaN             NaN             NaN
             NaN             NaN             NaN
             NaN             NaN             NaN
             NaN             NaN             NaN
             NaN             NaN             NaN
             NaN             NaN             NaN
             NaN             NaN             NaN
             NaN             NaN             NaN
             NaN             NaN             NaN
             NaN             NaN             NaN
             NaN             NaN             NaN
             NaN             NaN             NaN
             NaN             NaN             NaN
             NaN             NaN             NaN
             NaN             NaN             NaN
             NaN             NaN             NaN
             NaN             NaN             NaN
