Ca   Sc   V    O                        
   1.00000000000000     
     9.9048761441548905   -0.0301546265124781   -0.0130204982739671
     2.1481205900647700    9.5492769919980205   -0.0107322708372404
    -5.9828269611998799   -4.7511086337380100   15.5427839628264994
   Ca   Sc   V    O 
     7    16    16    64
Direct
  0.4981745755543231  0.5871808848950149  0.4817647619053738
  0.4864396096306231  0.1046171157566066  0.9833313953446967
  0.4829456001536873  0.6090527687142934  0.9822959352146085
  0.0005842857710568  0.0880346283442843  0.4834961898774244
  0.9847207474897927  0.1048029836254672  0.9825513331849398
  0.9984436515660459  0.5881513586859344  0.4825875022514998
  0.9801185871384438  0.6095694914350174  0.9827760262431919
  0.3249295525934012  0.4517896638634468  0.1694941994249221
  0.3428157316566225  0.4373401617280399  0.6735132332190417
  0.3250516315008367  0.9532431266053804  0.1718565793977850
  0.3463710371394841  0.9322051056010636  0.6698597825138243
  0.8249920710951349  0.4515203741194391  0.1695780386125506
  0.8446204579997839  0.4295215852609324  0.6695849274185731
  0.8249548717793389  0.9526425087821326  0.1723246419131833
  0.8523861591827786  0.9288488426209889  0.6746094571458029
  0.1446686456952550  0.0309465008176797  0.3130436456245220
  0.1679505959504299  0.0026343960599284  0.8130219468094956
  0.1460896931676748  0.5226580216568100  0.3102352049713236
  0.1642895043436584  0.5000315696068837  0.8124437124679114
  0.6475406693132429  0.0189693233821608  0.3159134550612370
  0.6662150657680833  0.0021541282169112  0.8117854225283574
  0.6446806959979906  0.5229992236545138  0.3096675927978760
  0.6646647668588422  0.4994702189593492  0.8109187059655364
  0.0803479191567540  0.2086004657115628  0.1805045366429175
  0.1011192483292679  0.1861244761251247  0.6810234805221661
  0.0803299662574503  0.7072228291180664  0.1802349072633294
  0.1015983674418113  0.6863890365845123  0.6813667544528414
  0.5790529895229825  0.2073595161359265  0.1808565946843766
  0.5945296246696703  0.1821985205903453  0.6704641506095440
  0.5785506946073901  0.7067648150547196  0.1799185390800931
  0.6008911778651911  0.6858962172304822  0.6798578666882699
  0.4039466195545742  0.2693730493199898  0.3148860715285522
  0.4182315487478682  0.2543640413038006  0.8129741491344915
  0.3898805633738058  0.7805571952683240  0.3167821647947122
  0.4177436541454542  0.7542824220237156  0.8123932704917619
  0.8929327457120790  0.2724608196065291  0.3120455393563064
  0.9164736813446829  0.2517398076056390  0.8135345958277304
  0.8968011104040416  0.7713723057695074  0.3121122156529264
  0.9161261621876562  0.7516170372826058  0.8127997232144154
  0.2080827157107346  0.3449121043926663  0.2081450969775237
  0.2353979974655538  0.3224410162795696  0.7130697184313395
  0.2162691032734963  0.8459778514939587  0.2151104696158575
  0.2367537812690515  0.8222081430908214  0.7134538017499529
  0.7137982696864574  0.3410422894760113  0.2112198692116717
  0.7308864852893552  0.3196188171303077  0.7106208594870788
  0.7127765157313084  0.8466184023405899  0.2150118653762929
  0.7362725975361847  0.8218261504061005  0.7133951502169390
  0.4764701206062236  0.1050234447976074  0.2160372587172679
  0.5016429733492659  0.0819760208544257  0.7112705170765860
  0.4795087635313602  0.5978826733570418  0.2075641443632564
  0.4987042199548519  0.5822771158138520  0.7122621759762621
  0.9774796433377352  0.1038834926962320  0.2143837989393853
  0.0000297614872945  0.0816413933485253  0.7137454581605646
  0.9763889553368612  0.6046914142155897  0.2113979969287272
 -0.0012624944931759  0.5818754857632100  0.7128776345290903
  0.0339191680265634  0.1883355294961120  0.3904881966952841
  0.0626515132090608  0.1678950758569335  0.8911858165620599
  0.0373214895110480  0.6835546938319569  0.3889455273435640
  0.0593448488755409  0.6652715419812041  0.8901327103897256
  0.5434768279614458  0.2041258757224255  0.3881378519323069
  0.5593205291314366  0.1663193598947684  0.8895359402155129
  0.5316617904081439  0.6830770198727723  0.3854180534765378
  0.5601098619111016  0.6661263545305334  0.8890484999433599
  0.3284878570449695  0.4362776644746884  0.3857751455461664
  0.3525486611134642  0.4176686007706450  0.8904451157641200
  0.3195567039452626  0.9200464684168416  0.3877144231387378
  0.3535427738217662  0.9169776650150296  0.8906923011339140
  0.8274858976165003  0.4382709368993596  0.3886293251303915
  0.8523211079294132  0.4171848081987278  0.8894095673292020
  0.8339282940746134  0.9342131016898316  0.3901407999977622
  0.8520693767896036  0.9153509120796068  0.8901539140086820
  0.2588654608872787  0.1404205817850821  0.2779560304963681
  0.2831786500565860  0.1163185194640575  0.7779093370114656
  0.2595357729876336  0.6354965362252697  0.2743529851198383
  0.2818987729150692  0.6156080506946646  0.7784322085737115
  0.7572627103290873  0.1378319081370170  0.2784590570980447
  0.7871822457049832  0.1153544088093270  0.7820495502736401
  0.7601509150045636  0.6352706338019396  0.2754244221673445
  0.7818117497650497  0.6146062188940149  0.7777745800659807
  0.9945119943845416  0.3750410457023630  0.2767897004680370
  0.0153339213328072  0.3520160113207667  0.7760346461511095
  0.9979736869258142  0.8751491443129156  0.2789540859292207
  0.0187524431963753  0.8532775936843991  0.7781190042726408
  0.4935703843735870  0.3765678544795703  0.2752535363264731
  0.5159937306079481  0.3545722527586689  0.7775405641184959
  0.4959066692008564  0.8727667668950480  0.2795114621302185
  0.5174852705091095  0.8537495206946093  0.7767804515153495
  0.4267221606809766  0.2721157104478362  0.0983256929917400
  0.4529448027374580  0.2582442134604881  0.6035689911513424
  0.4293777133221046  0.7795303179831943  0.0993526977758992
  0.4477690255543891  0.7538815368402256  0.5988071932867433
  0.9256481420033495  0.2730468818439278  0.0981106029435727
  0.9496922068844824  0.2557874520250791  0.5993024540336409
  0.9279899078157179  0.7790089324798493  0.0996707223261420
  0.9489219107564465  0.7556914323282916  0.5996139208827364
  0.1502127702765292  0.0549154172204633  0.0997032981285086
  0.1706533841100658  0.0343325874625120  0.5993322305637894
  0.1512260703702229  0.5600860127379003  0.0982386269128991
  0.1716774220972023  0.5362303292272381  0.5988220603445350
  0.6502410443279316  0.0539851387560329  0.1000464226745954
  0.6724709074790353  0.0371493991959261  0.6057949291165907
  0.6528308798035058  0.5595753617728990  0.0983708055952383
  0.6727484095145827  0.5374353952382055  0.5985302123436382
 
             NaN             NaN             NaN
             NaN             NaN             NaN
             NaN             NaN             NaN
             NaN             NaN             NaN
             NaN             NaN             NaN
             NaN             NaN             NaN
             NaN             NaN             NaN
             NaN             NaN             NaN
             NaN             NaN             NaN
             NaN             NaN             NaN
             NaN             NaN             NaN
             NaN             NaN             NaN
             NaN             NaN             NaN
             NaN             NaN             NaN
             NaN             NaN             NaN
             NaN             NaN             NaN
             NaN             NaN             NaN
             NaN             NaN             NaN
             NaN             NaN             NaN
             NaN             NaN             NaN
             NaN             NaN             NaN
             NaN             NaN             NaN
             NaN             NaN             NaN
             NaN             NaN             NaN
             NaN             NaN             NaN
             NaN             NaN             NaN
             NaN             NaN             NaN
             NaN             NaN             NaN
             NaN             NaN             NaN
             NaN             NaN             NaN
             NaN             NaN             NaN
             NaN             NaN             NaN
             NaN             NaN             NaN
             NaN             NaN             NaN
             NaN             NaN             NaN
             NaN             NaN             NaN
             NaN             NaN             NaN
             NaN             NaN             NaN
             NaN             NaN             NaN
             NaN             NaN             NaN
             NaN             NaN             NaN
             NaN             NaN             NaN
             NaN             NaN             NaN
             NaN             NaN             NaN
             NaN             NaN             NaN
             NaN             NaN             NaN
             NaN             NaN             NaN
             NaN             NaN             NaN
             NaN             NaN             NaN
             NaN             NaN             NaN
             NaN             NaN             NaN
             NaN             NaN             NaN
             NaN             NaN             NaN
             NaN             NaN             NaN
             NaN             NaN             NaN
             NaN             NaN             NaN
             NaN             NaN             NaN
             NaN             NaN             NaN
             NaN             NaN             NaN
             NaN             NaN             NaN
             NaN             NaN             NaN
             NaN             NaN             NaN
             NaN             NaN             NaN
             NaN             NaN             NaN
             NaN             NaN             NaN
             NaN             NaN             NaN
             NaN             NaN             NaN
             NaN             NaN             NaN
             NaN             NaN             NaN
             NaN             NaN             NaN
             NaN             NaN             NaN
             NaN             NaN             NaN
             NaN             NaN             NaN
             NaN             NaN             NaN
             NaN             NaN             NaN
             NaN             NaN             NaN
             NaN             NaN             NaN
             NaN             NaN             NaN
             NaN             NaN             NaN
             NaN             NaN             NaN
             NaN             NaN             NaN
             NaN             NaN             NaN
             NaN             NaN             NaN
             NaN             NaN             NaN
             NaN             NaN             NaN
             NaN             NaN             NaN
             NaN             NaN             NaN
             NaN             NaN             NaN
             NaN             NaN             NaN
             NaN             NaN             NaN
             NaN             NaN             NaN
             NaN             NaN             NaN
             NaN             NaN             NaN
             NaN             NaN             NaN
             NaN             NaN             NaN
             NaN             NaN             NaN
             NaN             NaN             NaN
             NaN             NaN             NaN
             NaN             NaN             NaN
             NaN             NaN             NaN
             NaN             NaN             NaN
             NaN             NaN             NaN
             NaN             NaN             NaN
