Ca V  O 
 1.0000000000000000
    11.0148601532000008    0.0000000000000000    0.0000000000000000
    -0.0001855896000000   10.4011516553999996    0.0000000000000000
     3.6723958583999998   -6.1538260171000001   14.5152821726999992
 Ca  V   O  
  11  36  90
Cartesian
  5.9100742148561825  3.7843398969887163  7.0335095728894617
  1.8179694963323230  3.4846410913823131  7.2352635548790589
  3.6967166397345919  0.4385473213832152 14.1007861102033942
  7.3151745202200056  1.2419959072232880 14.1359117340425744
 11.0272178519242221  1.0209408314772366 14.1209332933715057
  3.6275152078481603  3.7881830282456854  0.1776912570266683
  5.5047730109580462  0.5290347709587162  7.4154425246172551
  7.3824346456594201  3.6692106867496368  0.4398424710724216
  9.2512350677927273  1.0634971917940328  7.4487252277362073
 10.9944318481162000  3.0689696718369088  0.4089274408125604
 12.8307257477768015  0.0706742587170186  7.5037697243282890
  3.6649422444201858 -1.0469827493834121  4.7993675975886969
  5.5064053577855310 -3.9780194811454086 12.0706309091058017
  7.3782533472303271 -1.0976829100148746  4.9179926577071926
  9.2034779024561413 -3.8783814370503213 12.1134314619610830
 10.9661659690486317 -1.1621166327107832  4.9424170658471294
 12.8379168628871287 -4.0088119161374980 12.1126100455961296
  1.8148016414086150  8.1425164408325283  2.4593503233586578
  3.7170807181648895  5.2345565354546206  9.6194963730506711
  5.5023856705932683  8.2438264101515966  2.4408743057948765
  7.4088822876989369  5.4589911677268290  9.6156455760187267
  9.2059242259474399  8.1720222085199516  2.4113633439597892
 11.0174452767888500  5.3506582367566171  9.5505037717937498
  1.8470514980607915  6.9018733118596973  5.5565361742898327
  3.6952743547948717  4.0659060011345680 12.8956597116371725
  5.4838975187065211  6.9128485970408757  5.4165620937257506
  7.3651399194324938  4.0235021714305628 12.5580563754018009
  9.1438149765866630  6.7710488295477456  5.4916902860995327
 10.9936597675407999  4.0041072185380484 12.5549403256284435
  3.6500937052856122  0.1954709119144432  1.6142138066174272
  5.4910066649886051 -2.6357708791030192  8.9899549857129735
  7.3459258664571090  0.1430057946265896  1.6708915504431134
  9.1924288604044762 -2.5511242697007943  8.9418036286426332
 11.0354854029748459  0.2159127382238898  1.9978067021714776
 12.8953681975077572 -2.6850655112511457  9.0769888783113757
  1.7871388634492111  4.6635154953987996  3.1611150041154250
  3.6415969520521365  1.7746734596784153 10.3785972067350585
  5.4851600067797524  4.7304317382406715  3.1477968793480864
  7.3208447061232125  1.9157276218086796 10.2492236857883370
  9.2065444197564474  4.6755366566151952  3.2368137425747188
 11.0681893566315086  1.8433982275460181 10.3158234166994394
  3.7015643964949723  2.4356450303604302  4.2587332714315487
  5.5776550429603589 -0.4762319555172792 11.3797295552850279
  7.3233224149751432  2.3148845182314650  4.0752132613332126
  9.1664085399615001 -0.3821792803990648 11.2767020640919799
 11.0029957223917201  2.3646227941391231  4.2659546962927157
 12.8295587979837507 -0.5051778429761778 11.4471138465756805
  1.8666409406427926 -2.6164552018682299  7.3177143250542747
  3.6774661506360244 -5.6653254026643625 14.5145771773315868
  5.5107138416720254 -2.9917089731288100  7.2992776713934129
  7.3189141689679884 -6.7218883022955298 14.5301707759761829
  9.1628543712506243 -3.1256425553507956  7.2973506490872380
 11.0334041850479441 -6.5266216975160489 14.5190088256186574
  1.7643390201666516 -1.5490515211920179  4.6290099430405727
  3.6378449472427268 -4.4731887919168472 11.8083121579385129
  5.5803208937311188 -1.4999042754248468  4.5387959770993813
  7.3509405293574233 -4.3231258469506901 11.8766776186026153
  9.1621483449684327 -1.6016946391997673  4.5509110995062221
 11.0658054374269401 -4.4084821752451715 11.7997025553630586
  3.6900340565830669  8.6649749971276080  2.7118995863533693
  5.5936027712734484  5.8396323488353916  9.9291124052941182
  7.3666263460256927  8.6177091424884527  2.6315696791277188
  9.2025100733142242  5.8947192765831176  9.9625618007319492
 10.9732514833198458  8.6058787914497543  2.7878829471837525
 12.8089400569526450  5.7303826954641313  9.8487434774123077
  1.7977774423191495 -0.2730868946370476  1.9386999452712748
  3.6719243383407716 -3.1802588224595558  9.2285998195788448
  5.5081753780051486 -0.2163465444792504  1.9345930996882403
  7.3645562350447591 -2.9612933865493303  9.2526660106261254
  9.2180076260407322 -0.2894184678383642  1.9258394305138711
 11.0395710511215572 -3.0784590629114446  9.2062980250340285
  3.6866086731201029  7.3859973497712934  5.3382060186554199
  5.4977583731693702  4.4940764314072821 12.5438992950006742
  7.3376096281481393  7.3704772440305506  5.3558519361344388
  9.2236921322892140  4.5901157509927604 12.6190441425799555
 10.9837082688655716  7.2737435956442607  5.3919063071986537
 12.8410930001970769  4.4159012990803301 12.5526007910969710
  3.7184884476167732 -0.2996078325163051  6.3559579955762349
  5.4841648843245494 -3.2381482880923937 13.6172338059211508
  7.4523948526960178 -0.3294185906174217  6.4311170109675730
  9.2475206907552980 -3.1033393669895473 13.6447679442116723
 10.8419326688955362 -0.4332156863495520  6.4769755967110516
 12.7659206822537090 -3.4063072032188635 13.7048562295384535
  1.7410342399744843  7.3966295119638241  0.9101662768308482
  3.8214147828294909  4.4491070391742928  8.1043671110692710
  5.5184566106682658  7.5119889126116188  0.8886199788444692
  7.4708087701647328  4.9706650068665494  8.0377819397421284
  9.2770926457236946  7.4559989319335109  0.8556350765478231
 11.0275961576510539  4.7000416897776045  8.0301324379952721
  1.8771045494948115  2.8239978861646167  3.9943311997036273
  3.7244805567757702 -0.0362463134880352 11.4166086358644598
  5.4772913297208703  2.7505702019282916  3.6844404336303200
  7.3584007837392695 -0.0711855758565332 10.7978947291545104
  9.1275692339700960  2.7331362270458328  3.9184262132230612
 10.9649448238447267 -0.0757864022019417 10.9825276524613624
  3.6544901872732263  4.2889568552577311  3.4736984614044495
  5.4569024715596823  1.4313096108591634 10.6701651686243313
  7.3264748959716437  4.2461191554857090  3.3482644299368181
  9.1893931019918345  1.4597052257097534 10.2535853292816004
 11.0118175254355339  4.3268385140156465  3.7366178258347800
 12.9093682032020780  1.4479287574041106 10.9102224632598546
  3.6398394587259788  0.7353680146489345  3.7584574680945297
  5.4939091122521875 -2.2484103825521324 11.1322651506060382
  7.3609674738756681  0.5360813804038118  3.8125868457705470
  9.1917082908852485 -2.1475327100299926 11.0495128701337908
 11.0040147032352849  0.4746465460034522  4.0395568257565078
 12.8812864202738151 -2.4452821916416401 11.2462973136258153
  1.8395949624901931  6.4193203061715201  3.5424282909932479
  3.6705910342749513  3.5107376558120271 10.7032485852545225
  5.4977699566842162  6.5454392050102319  3.3858654833057580
  7.3652292289071548  3.8287281222932510 10.4159095637298513
  9.1721068806841295  6.4823964046695171  3.4137382206772235
 11.0043240555062898  3.7543300063555822 10.4868487334339378
  1.6790201672348268  4.5151268608403976  1.4587808889010772
  3.5189469472022443  1.5717676622567234  8.6833404220979453
  5.4544002045473103  4.6644377790499911  1.4257015286578871
  7.1015821153792649  1.8922059333838137  8.4905772635383077
  9.3495348427862925  4.4922714009332054  1.5241626516107785
 11.4007784390238740  1.6989554658979122  8.6018958826759455
  3.8489743590714189  2.5229744108056487  5.9515317867743089
  5.8272495412640533 -0.3671443327835218 13.0923593591826091
  7.1725864760722633  2.3225392685491091  5.7609736279809347
  9.0834789822939612 -0.1639876446586426 12.9699410893850455
 11.0375378962589572  2.3512717768126690  5.9716874636320973
 12.6402067687885484 -0.4595696632135961 13.1902824479978289
  3.6055693950720729  1.8485778839418525  1.3278938097757653
  5.3687780781603012 -0.9251108319506119  9.0613203296172973
  7.3906384655548951  1.8465127073094607  1.6653395026721540
  9.2390915533864870 -0.8804365678633471  8.8009076516309737
 11.0560288825627779  1.9683872567263885  2.2293940114459483
 12.9643555012989626 -0.9611076502175753  9.3931227047411756
  1.9207766186381008  5.2565957909582766  5.8733204012480957
  3.7467845463011868  2.3969005386477202 13.0830750449326167
  5.5179270356876522  5.1891645422843125  5.4141233336417942
  7.4454291829184420  2.2737381404007859 12.2422096692067175
  9.0010633815848937  5.1190837389086603  5.4856079311283477
 10.8500201458560177  2.2717419284071618 12.3779322094961550
