Ca V  O                                 
   1.00000000000000     
    10.9769432563904275    0.0018400817655037    0.0129538137242238
     0.0015717905646524   10.4691785249746498   -0.1666673652757135
     3.6756266737357031   -6.4271576414080958   14.8704554236771020
Ca V  O              
11              36              90
Direct
  0.3490074173437095  0.6512639294575542  0.4820860724838909
  0.9986893562839800  0.6319421552906613  0.4737181250406688
  0.0162168569799383  0.6168396015764552  0.9538724138459495
  0.3442863006746634  0.6834300894611766  0.9655049354261115
  0.6773921061677567  0.6897991987413908  0.9708535798994606
  0.3192753125799168  0.3657312289271398  0.0337024920745972
  0.3257669533251389  0.3488288526510809  0.5259313077051295
  0.6565986677063863  0.3654585943433868  0.0350485071182283
  0.6609980975087125  0.4145746830992777  0.5303794144448044
  0.9872494824356048  0.3189459114706563  0.0364831377665731
  0.9915317770851552  0.3347410466423137  0.5232090696186250
  0.2219925285795849  0.1013179391064786  0.3341885377301895
  0.2226149989804676  0.1207762217506007  0.8358142066582828
  0.5567031974951422  0.1065893848327377  0.3388020577606553
  0.5553785994901583  0.1256148497113746  0.8343811609126413
  0.8808765835332956  0.1030370844630066  0.3421940964516952
  0.8867243568086348  0.1199229698203349  0.8361012585419665
  0.1087264364840470  0.8748348411103833  0.1649420126861604
  0.1121244224528989  0.8959175277128600  0.6623137793430157
  0.4436295309641579  0.8810816661062884  0.1683467099464571
  0.4520288606815685  0.8990105264584244  0.6590948548286240
  0.7815039090322670  0.8750221720312170  0.1654349997395077
  0.7787633989118670  0.8982876408360450  0.6591617917827107
  0.0386496483230661  0.9014257808823841  0.3818126174639307
  0.0364172847718593  0.9306944647869588  0.8921619137421768
  0.3745527551190820  0.8956759982746778  0.3777642800676707
  0.3809091325475520  0.8993006400483773  0.8620779564927327
  0.7044847222329780  0.8862548293086782  0.3789460546810105
  0.7102832034664850  0.9010572014445496  0.8646512933844149
  0.2965282951434909  0.0657116296799496  0.1068989763331827
  0.2942340629561885  0.0996291784823728  0.6196743274254435
  0.6313728501671837  0.0696102639815748  0.1102930507637677
  0.6290951634480174  0.1094743445676865  0.6153049719740309
  0.9548337260522232  0.0996977330448263  0.1375377274679817
  0.9596492243288465  0.1038168214338247  0.6232160866941693
  0.0889553832605752  0.5856080275468553  0.2254190373464537
  0.0952635221504235  0.5971488687428816  0.7128482676488463
  0.4252993638341664  0.5843783504931535  0.2203437044244277
  0.4273110333979594  0.5949229541730228  0.7099931506126306
  0.7585297362683338  0.5823973721666510  0.2251562772472351
  0.7680831478909479  0.5965821751307172  0.7113058346609442
  0.2367888932015093  0.4054938696297997  0.2938141732487851
  0.2429622789849686  0.4135815203644488  0.7813160224363189
  0.5665822737281293  0.3978609221613297  0.2885361082629155
  0.5762265285209736  0.4170712729392006  0.7735774034777526
  0.8987710231007759  0.4044841076643157  0.2920491254692274
  0.9023440559227038  0.4164144197436232  0.7839667776327905
  0.0009592948099047  0.0146954262000848  0.5020373827921567
  0.9982435799045345  0.0460213002183625  0.0060824144747541
  0.3324104894780607  0.0040613864512529  0.5005011196572547
  0.3358770997234399  0.9477360397907169  0.9930820514288792
  0.6658797618941823  0.9946754249263600  0.4998874141521251
  0.6685292726482094  0.9557754736798172  0.9945524905203380
  0.0554180233152093  0.0521449152396134  0.3240541445118241
  0.0613875283744499  0.0601176026890194  0.8172481544210540
  0.3983604338348926  0.0460275900114061  0.3143599270050251
  0.3937134029526304  0.0691054762991550  0.8178183764086455
  0.7271375390350424  0.0412994083160568  0.3140987900468577
  0.7274589141092147  0.0687661828744496  0.8191428116986588
  0.2688821451800311  0.9384731163739318  0.1854018859094263
  0.2759062132547674  0.9525631665343082  0.6790882487209022
  0.6094467630814339  0.9267702601448351  0.1760284892298097
  0.6063617080429802  0.9625361277613220  0.6851288968662430
  0.9385416895886085  0.9357150706918920  0.1878536489081418
  0.9371385138701462  0.9584437193027584  0.6838292355148758
  0.1217565420577719  0.0408366465765131  0.1338853617632921
  0.1216914966253004  0.0603875861962839  0.6364368542595104
  0.4541887255679883  0.0437960223022272  0.1340227083249768
  0.4557172186176537  0.0737498379424935  0.6350640366085317
  0.7898960389819495  0.0421964791369838  0.1342617768262338
  0.7889027653048155  0.0727370603163657  0.6343417700400741
  0.2128541204355104  0.9392842271499037  0.3641625718108212
  0.2121991670505929  0.9523673773431760  0.8645979306516932
  0.5432644699629715  0.9374310509132486  0.3671275746630680
  0.5447647706836770  0.9595147932578124  0.8648760646969715
  0.8759273060685151  0.9312689770629003  0.3676801471083678
  0.8790878136037660  0.9507999089677996  0.8646007979988364
  0.1905717276911991  0.2312559762820174  0.4406377033776569
  0.1860983265302616  0.2484919087700181  0.9426972554936870
  0.5273813735089059  0.2367320355885825  0.4429104902366696
  0.5199106342014328  0.2595349047570322  0.9395881066998227
  0.8375088626715078  0.2305767078632804  0.4474321623725362
  0.8507724113360035  0.2462848072302267  0.9435156003969595
  0.1397245463449094  0.7459875770201500  0.0592403428812387
  0.1430321808514385  0.7643472826725964  0.5576650811756071
  0.4752126774414464  0.7503733939364067  0.0619684169122814
  0.4887090897096552  0.7787773410846739  0.5549417144943202
  0.8263421081144839  0.7468008170933380  0.0590869889981095
  0.8183483605438602  0.7773561992792000  0.5552854417573441
  0.0782174198318541  0.4379868138427886  0.2770618292302508
  0.0723289938907070  0.4548126620750464  0.7835396771557429
  0.4109756692545611  0.4190220025325825  0.2573168514219983
  0.4202652670822706  0.4344279534301322  0.7450772878916391
  0.7382974392773158  0.4267291305877216  0.2693926464892547
  0.7506104547187423  0.4363251440249991  0.7469142157445979
  0.2524828777886738  0.5551832697847231  0.2401211509495187
  0.2473097377966610  0.5690818547380823  0.7377699480926094
  0.5847617836153896  0.5510393811454593  0.2387472594397589
  0.5994242934648557  0.5549145810022754  0.7062887758215751
  0.9134191269259260  0.5659082334958787  0.2568121120734058
  0.9261647033572790  0.5752089746289574  0.7435451305920382
  0.2392172088912406  0.2270245165609767  0.2752979083432753
  0.2418866480953604  0.2318305272518044  0.7733589638035914
  0.5765802288439277  0.2153533246087763  0.2717572408278453
  0.5784688639951460  0.2406466663096031  0.7670769584999270
  0.9053091637898169  0.2082767840358932  0.2761522034521900
  0.9083075514563935  0.2334435509795743  0.7752782423036567
  0.0886088754950366  0.7689159375129118  0.2331672367383971
  0.0931044282878545  0.7705380501987126  0.7234276679314648
  0.4225030714320052  0.7689471405857105  0.2327693224103549
  0.4269512910213459  0.7910812915251365  0.7230076610083899
  0.7547004242893466  0.7656127104115117  0.2315913736828193
  0.7590518547362373  0.7904691992415598  0.7237539893459456
  0.1174811387946054  0.4939967057327946  0.1107657315674206
  0.1303955042743782  0.5003593313774004  0.5983327538896915
  0.4638494779782932  0.5045511281072873  0.1042870159835834
  0.4443492509976270  0.5257649520332099  0.5924330994902713
  0.8082033787772790  0.4924001862238711  0.1099828523657920
  0.8342839131951895  0.5222284158088323  0.5947202751773469
  0.2079006604766252  0.4914661978758020  0.4085413411660753
  0.2254556233322867  0.5008527329064477  0.8968072285197092
  0.5153008166860875  0.4751024169774251  0.4005825502305085
  0.5379690527006231  0.5193904367738585  0.8862389898237008
  0.8667443677734368  0.4659413695256913  0.4064148229959683
  0.8421502548699822  0.5028192888202504  0.8992527567520606
  0.2944864583393029  0.2244998725472577  0.1053475184356605
  0.2788623986651325  0.2702276811676726  0.6326497706902969
  0.6308040123173767  0.2316680416333106  0.1119681934469923
  0.6311441163458295  0.2664602286984917  0.6107891049090263
  0.9547172620484170  0.2754511901814993  0.1548148958899707
  0.9658867297211132  0.2750906087537058  0.6373685214593576
  0.0464090129887697  0.7384422562313960  0.3798159674373459
  0.0382447363714696  0.7703122915741125  0.8917800782384636
  0.3737401757292587  0.7307074875728033  0.3741075866264058
  0.3924822596630074  0.7209788223165989  0.8432177652439915
  0.6996892187906802  0.7268424176731677  0.3749636873383684
  0.7095414794984372  0.7237066134350850  0.8467682534913595
 
  0.00000000E+00  0.00000000E+00  0.00000000E+00
  0.00000000E+00  0.00000000E+00  0.00000000E+00
  0.00000000E+00  0.00000000E+00  0.00000000E+00
  0.00000000E+00  0.00000000E+00  0.00000000E+00
  0.00000000E+00  0.00000000E+00  0.00000000E+00
  0.00000000E+00  0.00000000E+00  0.00000000E+00
  0.00000000E+00  0.00000000E+00  0.00000000E+00
  0.00000000E+00  0.00000000E+00  0.00000000E+00
  0.00000000E+00  0.00000000E+00  0.00000000E+00
  0.00000000E+00  0.00000000E+00  0.00000000E+00
  0.00000000E+00  0.00000000E+00  0.00000000E+00
  0.00000000E+00  0.00000000E+00  0.00000000E+00
  0.00000000E+00  0.00000000E+00  0.00000000E+00
  0.00000000E+00  0.00000000E+00  0.00000000E+00
  0.00000000E+00  0.00000000E+00  0.00000000E+00
  0.00000000E+00  0.00000000E+00  0.00000000E+00
  0.00000000E+00  0.00000000E+00  0.00000000E+00
  0.00000000E+00  0.00000000E+00  0.00000000E+00
  0.00000000E+00  0.00000000E+00  0.00000000E+00
  0.00000000E+00  0.00000000E+00  0.00000000E+00
  0.00000000E+00  0.00000000E+00  0.00000000E+00
  0.00000000E+00  0.00000000E+00  0.00000000E+00
  0.00000000E+00  0.00000000E+00  0.00000000E+00
  0.00000000E+00  0.00000000E+00  0.00000000E+00
  0.00000000E+00  0.00000000E+00  0.00000000E+00
  0.00000000E+00  0.00000000E+00  0.00000000E+00
  0.00000000E+00  0.00000000E+00  0.00000000E+00
  0.00000000E+00  0.00000000E+00  0.00000000E+00
  0.00000000E+00  0.00000000E+00  0.00000000E+00
  0.00000000E+00  0.00000000E+00  0.00000000E+00
  0.00000000E+00  0.00000000E+00  0.00000000E+00
  0.00000000E+00  0.00000000E+00  0.00000000E+00
  0.00000000E+00  0.00000000E+00  0.00000000E+00
  0.00000000E+00  0.00000000E+00  0.00000000E+00
  0.00000000E+00  0.00000000E+00  0.00000000E+00
  0.00000000E+00  0.00000000E+00  0.00000000E+00
  0.00000000E+00  0.00000000E+00  0.00000000E+00
  0.00000000E+00  0.00000000E+00  0.00000000E+00
  0.00000000E+00  0.00000000E+00  0.00000000E+00
  0.00000000E+00  0.00000000E+00  0.00000000E+00
  0.00000000E+00  0.00000000E+00  0.00000000E+00
  0.00000000E+00  0.00000000E+00  0.00000000E+00
  0.00000000E+00  0.00000000E+00  0.00000000E+00
  0.00000000E+00  0.00000000E+00  0.00000000E+00
  0.00000000E+00  0.00000000E+00  0.00000000E+00
  0.00000000E+00  0.00000000E+00  0.00000000E+00
  0.00000000E+00  0.00000000E+00  0.00000000E+00
  0.00000000E+00  0.00000000E+00  0.00000000E+00
  0.00000000E+00  0.00000000E+00  0.00000000E+00
  0.00000000E+00  0.00000000E+00  0.00000000E+00
  0.00000000E+00  0.00000000E+00  0.00000000E+00
  0.00000000E+00  0.00000000E+00  0.00000000E+00
  0.00000000E+00  0.00000000E+00  0.00000000E+00
  0.00000000E+00  0.00000000E+00  0.00000000E+00
  0.00000000E+00  0.00000000E+00  0.00000000E+00
  0.00000000E+00  0.00000000E+00  0.00000000E+00
  0.00000000E+00  0.00000000E+00  0.00000000E+00
  0.00000000E+00  0.00000000E+00  0.00000000E+00
  0.00000000E+00  0.00000000E+00  0.00000000E+00
  0.00000000E+00  0.00000000E+00  0.00000000E+00
  0.00000000E+00  0.00000000E+00  0.00000000E+00
  0.00000000E+00  0.00000000E+00  0.00000000E+00
  0.00000000E+00  0.00000000E+00  0.00000000E+00
  0.00000000E+00  0.00000000E+00  0.00000000E+00
  0.00000000E+00  0.00000000E+00  0.00000000E+00
  0.00000000E+00  0.00000000E+00  0.00000000E+00
  0.00000000E+00  0.00000000E+00  0.00000000E+00
  0.00000000E+00  0.00000000E+00  0.00000000E+00
  0.00000000E+00  0.00000000E+00  0.00000000E+00
  0.00000000E+00  0.00000000E+00  0.00000000E+00
  0.00000000E+00  0.00000000E+00  0.00000000E+00
  0.00000000E+00  0.00000000E+00  0.00000000E+00
  0.00000000E+00  0.00000000E+00  0.00000000E+00
  0.00000000E+00  0.00000000E+00  0.00000000E+00
  0.00000000E+00  0.00000000E+00  0.00000000E+00
  0.00000000E+00  0.00000000E+00  0.00000000E+00
  0.00000000E+00  0.00000000E+00  0.00000000E+00
  0.00000000E+00  0.00000000E+00  0.00000000E+00
  0.00000000E+00  0.00000000E+00  0.00000000E+00
  0.00000000E+00  0.00000000E+00  0.00000000E+00
  0.00000000E+00  0.00000000E+00  0.00000000E+00
  0.00000000E+00  0.00000000E+00  0.00000000E+00
  0.00000000E+00  0.00000000E+00  0.00000000E+00
  0.00000000E+00  0.00000000E+00  0.00000000E+00
  0.00000000E+00  0.00000000E+00  0.00000000E+00
  0.00000000E+00  0.00000000E+00  0.00000000E+00
  0.00000000E+00  0.00000000E+00  0.00000000E+00
  0.00000000E+00  0.00000000E+00  0.00000000E+00
  0.00000000E+00  0.00000000E+00  0.00000000E+00
  0.00000000E+00  0.00000000E+00  0.00000000E+00
  0.00000000E+00  0.00000000E+00  0.00000000E+00
  0.00000000E+00  0.00000000E+00  0.00000000E+00
  0.00000000E+00  0.00000000E+00  0.00000000E+00
  0.00000000E+00  0.00000000E+00  0.00000000E+00
  0.00000000E+00  0.00000000E+00  0.00000000E+00
  0.00000000E+00  0.00000000E+00  0.00000000E+00
  0.00000000E+00  0.00000000E+00  0.00000000E+00
  0.00000000E+00  0.00000000E+00  0.00000000E+00
  0.00000000E+00  0.00000000E+00  0.00000000E+00
  0.00000000E+00  0.00000000E+00  0.00000000E+00
  0.00000000E+00  0.00000000E+00  0.00000000E+00
  0.00000000E+00  0.00000000E+00  0.00000000E+00
  0.00000000E+00  0.00000000E+00  0.00000000E+00
  0.00000000E+00  0.00000000E+00  0.00000000E+00
  0.00000000E+00  0.00000000E+00  0.00000000E+00
  0.00000000E+00  0.00000000E+00  0.00000000E+00
  0.00000000E+00  0.00000000E+00  0.00000000E+00
  0.00000000E+00  0.00000000E+00  0.00000000E+00
  0.00000000E+00  0.00000000E+00  0.00000000E+00
  0.00000000E+00  0.00000000E+00  0.00000000E+00
  0.00000000E+00  0.00000000E+00  0.00000000E+00
  0.00000000E+00  0.00000000E+00  0.00000000E+00
  0.00000000E+00  0.00000000E+00  0.00000000E+00
  0.00000000E+00  0.00000000E+00  0.00000000E+00
  0.00000000E+00  0.00000000E+00  0.00000000E+00
  0.00000000E+00  0.00000000E+00  0.00000000E+00
  0.00000000E+00  0.00000000E+00  0.00000000E+00
  0.00000000E+00  0.00000000E+00  0.00000000E+00
  0.00000000E+00  0.00000000E+00  0.00000000E+00
  0.00000000E+00  0.00000000E+00  0.00000000E+00
  0.00000000E+00  0.00000000E+00  0.00000000E+00
  0.00000000E+00  0.00000000E+00  0.00000000E+00
  0.00000000E+00  0.00000000E+00  0.00000000E+00
  0.00000000E+00  0.00000000E+00  0.00000000E+00
  0.00000000E+00  0.00000000E+00  0.00000000E+00
  0.00000000E+00  0.00000000E+00  0.00000000E+00
  0.00000000E+00  0.00000000E+00  0.00000000E+00
  0.00000000E+00  0.00000000E+00  0.00000000E+00
  0.00000000E+00  0.00000000E+00  0.00000000E+00
  0.00000000E+00  0.00000000E+00  0.00000000E+00
  0.00000000E+00  0.00000000E+00  0.00000000E+00
  0.00000000E+00  0.00000000E+00  0.00000000E+00
  0.00000000E+00  0.00000000E+00  0.00000000E+00
  0.00000000E+00  0.00000000E+00  0.00000000E+00
  0.00000000E+00  0.00000000E+00  0.00000000E+00
  0.00000000E+00  0.00000000E+00  0.00000000E+00
  0.00000000E+00  0.00000000E+00  0.00000000E+00
