Ca Mn V  P  O 
1.0
       14.4938592911         0.0000000000         0.0000000000
       -0.2822728980         8.2662753113         0.0000000000
       -1.1959219472        -0.1096795667        18.5713902829
   Ca   Mn    V    P    O
    7    8    8   32  112
Direct
     0.593221426         0.926285207         0.447949320
     0.220279858         0.920577049         0.701803029
     0.093221396         0.926285207         0.447949320
     0.467402726         0.927686214         0.195618212
     0.967402697         0.927686214         0.195618212
     0.156350747         0.417751074         0.052229300
     0.656350732         0.417751074         0.052229300
     0.031231189         0.004602664         0.808375597
     0.531231165         0.004602664         0.808375597
     0.407297224         0.007870169         0.556593239
     0.907297254         0.007870169         0.556593239
     0.282848835         0.011764414         0.306083113
     0.782848835         0.011764414         0.306083113
     0.161033079         0.985895097         0.050069585
     0.661033094         0.985895097         0.050069585
     0.337309629         0.500375509         0.940083265
     0.837309599         0.500375509         0.940083265
     0.211602569         0.492842793         0.693939328
     0.711602569         0.492842793         0.693939328
     0.086548403         0.493432343         0.447554380
     0.586548388         0.493432343         0.447554380
     0.462478340         0.497408837         0.200269490
     0.962478340         0.497408837         0.200269490
     0.197670996         0.180696562         0.902640641
     0.697670996         0.180696562         0.902640641
     0.028560469         0.753517449         0.941629171
     0.528560460         0.753517449         0.941629171
     0.344117373         0.263813138         0.803338110
     0.844117403         0.263813138         0.803338110
     0.176974222         0.674797654         0.846368551
     0.676974237         0.674797654         0.846368551
     0.405865103         0.767861545         0.694426060
     0.905865073         0.767861545         0.694426060
     0.073436402         0.190156713         0.653782010
     0.573436379         0.190156713         0.653782010
     0.220380515         0.267022669         0.554798663
     0.720380545         0.267022669         0.554798663
     0.052459773         0.688754857         0.597223997
     0.552459776         0.688754857         0.597223997
     0.447063357         0.194951504         0.402846843
     0.947063327         0.194951504         0.402846843
     0.279538393         0.772567868         0.444476396
     0.779538393         0.772567868         0.444476396
     0.427361637         0.692787826         0.347782284
     0.927361608         0.692787826         0.347782284
     0.096243277         0.270974427         0.305706948
     0.596243262         0.270974427         0.305706948
     0.322123259         0.201534718         0.151676998
     0.822123289         0.201534718         0.151676998
     0.154740542         0.771984100         0.194721058
     0.654740572         0.771984100         0.194721058
     0.467531681         0.277318060         0.053827763
     0.967531681         0.277318060         0.053827763
     0.303273797         0.701488614         0.098841429
     0.803273797         0.701488614         0.098841429
     0.398681700         0.323271483         0.992452919
     0.898681700         0.323271483         0.992452919
     0.444880098         0.643781245         0.956143200
     0.944880128         0.643781245         0.956143200
     0.504352629         0.906986475         0.900948942
     0.004352629         0.906986475         0.900948942
     0.204803333         0.046237659         0.958009481
     0.704803348         0.046237659         0.958009481
     0.218196586         0.350925416         0.938436747
     0.718196571         0.350925416         0.938436747
     0.263033569         0.663199604         0.901602328
     0.763033569         0.663199604         0.901602328
     0.371704698         0.415282845         0.851319671
     0.871704698         0.415282845         0.851319671
     0.280467421         0.147177458         0.852231503
     0.780467391         0.147177458         0.852231503
     0.089312017         0.638772845         0.893288970
     0.589312017         0.638772845         0.893288970
     0.423758924         0.162238717         0.786703765
     0.923758924         0.162238717         0.786703765
     0.106566958         0.178728968         0.856631100
     0.606566966         0.178728968         0.856631100
     0.467305034         0.815077364         0.761276007
     0.967305064         0.815077364         0.761276007
     0.171934068         0.842917681         0.813745201
     0.671934068         0.842917681         0.813745201
     0.174310163         0.537271619         0.792759538
     0.674310148         0.537271619         0.792759538
     0.283289820         0.304468632         0.736505806
     0.783289790         0.304468632         0.736505806
     0.318564892         0.672366440         0.712753534
     0.818564892         0.672366440         0.712753534
     0.462024897         0.657567203         0.643176138
     0.962024927         0.657567203         0.643176138
     0.371309787         0.919077754         0.651680946
     0.871309757         0.919077754         0.651680946
     0.484936208         0.172259524         0.605292261
     0.984936237         0.172259524         0.605292261
     0.083968155         0.058095381         0.712762952
     0.583968163         0.058095381         0.712762952
     0.090424001         0.361603707         0.680632949
     0.590424001         0.361603707         0.680632949
     0.138844967         0.690887749         0.651179016
     0.638844967         0.690887749         0.651179016
     0.245510221         0.421621352         0.598523974
     0.745510221         0.421621352         0.598523974
     0.162515491         0.141725287         0.608123541
     0.662515521         0.141725287         0.608123541
     0.299779683         0.165751696         0.536094010
     0.799779654         0.165751696         0.536094010
     0.339176238         0.820603788         0.512268126
     0.839176238         0.820603788         0.512268126
     0.456219792         0.059285626         0.459974736
     0.956219792         0.059285626         0.459974736
     0.043366496         0.854345918         0.561101675
     0.543366492         0.854345918         0.561101675
     0.464710027         0.364459932         0.431641400
     0.964709997         0.364459932         0.431641400
     0.048948366         0.548243642         0.544901788
     0.548948348         0.548243642         0.544901788
     0.152508333         0.296657056         0.489896506
     0.652508318         0.296657056         0.489896506
     0.192700788         0.675777137         0.462240607
     0.692700803         0.675777137         0.462240607
     0.337138474         0.663698137         0.394044042
     0.837138474         0.663698137         0.394044042
     0.245438442         0.923155248         0.401313245
     0.745438457         0.923155248         0.401313245
     0.359227479         0.179325223         0.353493631
     0.859227479         0.179325223         0.353493631
     0.418980390         0.857386291         0.310227603
     0.918980360         0.857386291         0.310227603
     0.421871424         0.550625384         0.296064109
     0.921871424         0.550625384         0.296064109
     0.013751836         0.693950474         0.401174784
     0.513751864         0.693950474         0.401174784
     0.121328078         0.422845811         0.350561619
     0.621328056         0.422845811         0.350561619
     0.036176398         0.145928696         0.357054800
     0.536176383         0.145928696         0.357054800
     0.174287498         0.167304009         0.286010385
     0.674287498         0.167304009         0.286010385
     0.218616471         0.821214736         0.259609163
     0.718616486         0.821214736         0.259609163
     0.331946790         0.066642217         0.208091140
     0.831946790         0.066642217         0.208091140
     0.340537339         0.371476322         0.180019006
     0.840537310         0.371476322         0.180019006
     0.390186042         0.691978812         0.150409147
     0.890186071         0.691978812         0.150409147
     0.030355422         0.303190231         0.239411429
     0.530355394         0.303190231         0.239411429
     0.068277232         0.677210212         0.214539260
     0.568277240         0.677210212         0.214539260
     0.412259400         0.153972805         0.105539382
     0.912259400         0.153972805         0.105539382
     0.210058212         0.651619732         0.144010931
     0.710058212         0.651619732         0.144010931
     0.120957188         0.919328213         0.149751887
     0.620957196         0.919328213         0.149751887
     0.233539149         0.192762554         0.102367282
     0.733539164         0.192762554         0.102367282
     0.290088654         0.869668424         0.071370460
     0.790088654         0.869668424         0.071370460
     0.293877363         0.564366877         0.042402368
     0.793877363         0.564366877         0.042402368
     0.004165664         0.427015394         0.099291161
     0.504165649         0.427015394         0.099291161
     0.051221389         0.187859923         0.031720430
     0.551221371         0.187859923         0.031720430
     0.086290158         0.784612060         0.012570543
     0.586290181         0.784612060         0.012570543
