Ca   Sc   V    O                        
   1.00000000000000     
     9.9047693279773696   -0.0301862834621555   -0.0130952458611979
     2.1480634743815701    9.5494763522466908   -0.0106576771675842
    -5.9828135962833402   -4.7510826182581596   15.5417163235812996
   Ca   Sc   V    O 
     7    16    16    64
Direct
  0.4987192067009267  0.3814616018068503  0.5064559949860991
  0.4910564837154032  0.1152684004168597  0.9830969379074489
  0.4899658441184719  0.6144233524079231  0.9831370568016364
  0.9955725280456350  0.1030473382511567  0.4827363046631659
  0.9845573622065400  0.1158743375063596  0.9829936466089867
  0.9971677947987394  0.5972045853787273  0.4826321975031124
  0.9826923373525036  0.6178074144691325  0.9825028974241991
  0.3265227316541728  0.4587911904478984  0.1684380687281363
  0.3426465333034926  0.4489321821809201  0.6757646736387397
  0.3250898627707068  0.9572087330378110  0.1690645832763340
  0.3398922220762758  0.9520831042143580  0.6703634059828149
  0.8284393194871061  0.4606360842598078  0.1723920288483158
  0.8498784181614348  0.4477484750854760  0.6748061085854947
  0.8256163230314584  0.9575591101293623  0.1726962454177061
  0.8489819060848203  0.9397761797224267  0.6710457937851293
  0.1456713150932434  0.0333965301095410  0.3109625787608545
  0.1648033647003675  0.0164671191549711  0.8127968511351874
  0.1531602294838483  0.5329284598804164  0.3151049580078512
  0.1654608162913017  0.5171728578783209  0.8147686693047725
  0.6443075171081125  0.0313865953566245  0.3171409541333321
  0.6626382460189670  0.0139807681975935  0.8073670106748898
  0.6474822230690710  0.5259539669973847  0.3122825160045204
  0.6633490369020129  0.5154151205877913  0.8102560561909463
  0.0800373150473991  0.2158878561946263  0.1802616003377946
  0.0976378323738454  0.2008298525747238  0.6811071838690456
  0.0807369308731493  0.7145900674596870  0.1800242263443721
  0.1020839215124358  0.7006413119523552  0.6811439013369506
  0.5813395194079514  0.2115045448428637  0.1803544308189519
  0.6017755844749408  0.1929463896724150  0.6719141926039340
  0.5810682622932706  0.7127126102533702  0.1805401833237676
  0.5873345149139885  0.7034457494722277  0.6726536284106353
  0.3941377190590674  0.2788025605399546  0.3084177305736195
  0.4170649332869545  0.2676556822896968  0.8120182827111154
  0.3988475790527034  0.7831132487072624  0.3182432652868814
  0.4169443857338913  0.7669848605507678  0.8121723074994415
  0.8961023523928615  0.2783102083300574  0.3116385035094749
  0.9128969400217120  0.2677566010222046  0.8124619337186859
  0.8967272986007746  0.7793462658727239  0.3133218598038026
  0.9139152430174312  0.7662931726029385  0.8126700019683479
  0.2131543299344974  0.3521980742374936  0.2115915652703148
  0.2331079157626095  0.3371162149333838  0.7142898810371332
  0.2092830410853438  0.8524112061268363  0.2092578570061667
  0.2352989531398601  0.8362722608843889  0.7127849573369005
  0.7150676570160320  0.3492298823343968  0.2127210627402718
  0.7351733804684398  0.3362709848270743  0.7129244367709134
  0.7138559445659621  0.8508353880596098  0.2153292596586583
  0.7332361334668162  0.8317819191337217  0.7087118516560507
  0.4803124477778817  0.1073242199198877  0.2124633785706861
  0.4945231548537870  0.0973043490806318  0.7077706550465390
  0.4816101039276589  0.6045332079192763  0.2094020311855408
  0.4964340639052446  0.5968126100229290  0.7124342979709144
  0.9783542562932412  0.1101447486357538  0.2124834448451995
  0.9968494400056481  0.0960455332918284  0.7126065592078721
  0.9814732642990772  0.6112041445043886  0.2142182938789623
  0.0003678647500421  0.5969739056296652  0.7143615957387615
  0.0397263385657158  0.1938243987652466  0.3896996841917935
  0.0548526000922555  0.1776160971108039  0.8890530028185305
  0.0378485036549475  0.6921318328998078  0.3899048068629535
  0.0595571619977441  0.6843207970968644  0.8914204129034132
  0.5474768349771014  0.2115906992712234  0.3901728186357268
  0.5577546403497730  0.1771536386859759  0.8868635688859196
  0.5408467339091698  0.7055624017875756  0.3842936160896354
  0.5585801580952947  0.6814615939852632  0.8893434196076756
  0.3229784560198450  0.4290255043422163  0.3903277790040497
  0.3517057845131562  0.4288935729044981  0.8908776806152048
  0.3206408310169472  0.9248240711275088  0.3844829179677428
  0.3537175280308960  0.9338471942946754  0.8890698811680822
  0.8314054578277686  0.4415910880350661  0.3893156201754625
  0.8490102822957695  0.4295397405208694  0.8897363520474708
  0.8332268155157210  0.9431162418411891  0.3900610842375111
  0.8483865021560133  0.9318806039429537  0.8873666387484436
  0.2621052363354038  0.1420045778690183  0.2753462345733736
  0.2800947866305188  0.1282715851810647  0.7760129780934754
  0.2656160300636111  0.6428607691571803  0.2758652112894925
  0.2809530309509177  0.6308188161378609  0.7795878987361233
  0.7606705152551394  0.1429575874760528  0.2783231069866718
  0.7754803697213856  0.1298644056739403  0.7740614125716578
  0.7615426660371586  0.6423005627745763  0.2780770765132312
  0.7856126169564877  0.6304276276699965  0.7819076789814768
  0.9987957105598955  0.3816790935285509  0.2782891720229189
  0.0171318520275558  0.3680511315469648  0.7787772526559333
  0.9978163107685902  0.8822348401378619  0.2786433182063732
  0.0152013489945706  0.8673655625072638  0.7757292795576299
  0.4936837623532347  0.3816350296540786  0.2749229109687108
  0.5149519302032269  0.3696828911843364  0.7790176300344989
  0.4914205727531687  0.8816668237411044  0.2773932737827148
  0.5170987311861919  0.8640035471035721  0.7724057630094975
  0.4303950960994923  0.2807454381091610  0.0980881697956248
  0.4600782822021519  0.2899353123886940  0.6029677104528540
  0.4309424441801135  0.7823602677131214  0.0983433230801093
  0.4457678917280916  0.7670161582897540  0.5998763869272912
  0.9280153391964417  0.2842826349344959  0.0988180471859781
  0.9457858786965987  0.2718574602902555  0.5996909234319866
  0.9256847559450376  0.7821035596167129  0.0989276844713977
  0.9499675190563096  0.7675167791836830  0.5987472561210544
  0.1512683086907859  0.0641674220423898  0.0987211423763331
  0.1664222360177173  0.0509739332257147  0.5982437992305812
  0.1505624969151624  0.5636796980863752  0.0979102622856313
  0.1730061071433755  0.5480986524263928  0.5990934790176136
  0.6534599540205347  0.0607649473835209  0.0995097960544913
  0.6720754810451850  0.0529731818952106  0.6012736749485358
  0.6559908032516542  0.5642772569476643  0.0994630409871917
  0.6639549275224316  0.5370581326709769  0.6036356602805636
 
             NaN             NaN             NaN
             NaN             NaN             NaN
             NaN             NaN             NaN
             NaN             NaN             NaN
             NaN             NaN             NaN
             NaN             NaN             NaN
             NaN             NaN             NaN
             NaN             NaN             NaN
             NaN             NaN             NaN
             NaN             NaN             NaN
             NaN             NaN             NaN
             NaN             NaN             NaN
             NaN             NaN             NaN
             NaN             NaN             NaN
             NaN             NaN             NaN
             NaN             NaN             NaN
             NaN             NaN             NaN
             NaN             NaN             NaN
             NaN             NaN             NaN
             NaN             NaN             NaN
             NaN             NaN             NaN
             NaN             NaN             NaN
             NaN             NaN             NaN
             NaN             NaN             NaN
             NaN             NaN             NaN
             NaN             NaN             NaN
             NaN             NaN             NaN
             NaN             NaN             NaN
             NaN             NaN             NaN
             NaN             NaN             NaN
             NaN             NaN             NaN
             NaN             NaN             NaN
             NaN             NaN             NaN
             NaN             NaN             NaN
             NaN             NaN             NaN
             NaN             NaN             NaN
             NaN             NaN             NaN
             NaN             NaN             NaN
             NaN             NaN             NaN
             NaN             NaN             NaN
             NaN             NaN             NaN
             NaN             NaN             NaN
             NaN             NaN             NaN
             NaN             NaN             NaN
             NaN             NaN             NaN
             NaN             NaN             NaN
             NaN             NaN             NaN
             NaN             NaN             NaN
             NaN             NaN             NaN
             NaN             NaN             NaN
             NaN             NaN             NaN
             NaN             NaN             NaN
             NaN             NaN             NaN
             NaN             NaN             NaN
             NaN             NaN             NaN
             NaN             NaN             NaN
             NaN             NaN             NaN
             NaN             NaN             NaN
             NaN             NaN             NaN
             NaN             NaN             NaN
             NaN             NaN             NaN
             NaN             NaN             NaN
             NaN             NaN             NaN
             NaN             NaN             NaN
             NaN             NaN             NaN
             NaN             NaN             NaN
             NaN             NaN             NaN
             NaN             NaN             NaN
             NaN             NaN             NaN
             NaN             NaN             NaN
             NaN             NaN             NaN
             NaN             NaN             NaN
             NaN             NaN             NaN
             NaN             NaN             NaN
             NaN             NaN             NaN
             NaN             NaN             NaN
             NaN             NaN             NaN
             NaN             NaN             NaN
             NaN             NaN             NaN
             NaN             NaN             NaN
             NaN             NaN             NaN
             NaN             NaN             NaN
             NaN             NaN             NaN
             NaN             NaN             NaN
             NaN             NaN             NaN
             NaN             NaN             NaN
             NaN             NaN             NaN
             NaN             NaN             NaN
             NaN             NaN             NaN
             NaN             NaN             NaN
             NaN             NaN             NaN
             NaN             NaN             NaN
             NaN             NaN             NaN
             NaN             NaN             NaN
             NaN             NaN             NaN
             NaN             NaN             NaN
             NaN             NaN             NaN
             NaN             NaN             NaN
             NaN             NaN             NaN
             NaN             NaN             NaN
             NaN             NaN             NaN
             NaN             NaN             NaN
             NaN             NaN             NaN
