Ca   Sc   V    O                        
   1.00000000000000     
     9.9047693279773696   -0.0301862834621555   -0.0130952458611979
     2.1480634743815701    9.5494763522466908   -0.0106576771675842
    -5.9828135962833402   -4.7510826182581596   15.5417163235812996
   Ca   Sc   V    O 
     7    16    16    64
Direct
  0.4987354075849102  0.3813964128834950  0.5064690366840250
  0.4910702958128113  0.1152682439570138  0.9830896394996598
  0.4899533547584004  0.6144307056798941  0.9831293501089728
  0.9955826779600463  0.1030414637590200  0.4827382446656195
  0.9845677912718940  0.1158764543711536  0.9829907987452980
  0.9971587521442948  0.5972137335873128  0.4826352746167646
  0.9826736814724217  0.6178128035993490  0.9824922864195802
  0.3265250557512949  0.4587899852833958  0.1684345896116410
  0.3426416731011914  0.4489476503933426  0.6757642498819392
  0.3250814259278342  0.9572376182122690  0.1690666285724383
  0.3399006225947954  0.9520891958698331  0.6703637042949573
  0.8284481843094006  0.4606235780612539  0.1723895347228014
  0.8498839908375241  0.4477677991582233  0.6748077382010474
  0.8256119266739848  0.9575778913586958  0.1726985448260313
  0.8489796145140921  0.9397813728162770  0.6710507138149482
  0.1456523902088229  0.0334289568392663  0.3109637271334898
  0.1648004098437351  0.0164673526247153  0.8127932363187330
  0.1531548898932871  0.5329375144020642  0.3151098472152394
  0.1654613580157935  0.5172013658505523  0.8147640858381608
  0.6443000642707046  0.0314215011797336  0.3171481864778262
  0.6626422428523024  0.0139738858725912  0.8073593820525581
  0.6474745467930219  0.5259529282437350  0.3122878020315484
  0.6633532210318681  0.5154240546555331  0.8102536434690711
  0.0800269359549795  0.2159017950797675  0.1802659740185773
  0.0976417398385675  0.2008276780232978  0.6810937806479116
  0.0807183268009355  0.7145893162124389  0.1800117289271164
  0.1020857574508534  0.7006490582887979  0.6811436930652269
  0.5813364301171301  0.2115115151781816  0.1803552537611891
  0.6017808022216464  0.1929852089372499  0.6719368312762677
  0.5810603807787083  0.7127139596091987  0.1805415405407629
  0.5873450667416408  0.7034327794446867  0.6726498370047771
  0.3941113088121294  0.2788307024300985  0.3084199654963688
  0.4170749640630888  0.2676627443666834  0.8120055583763686
  0.3989011019373872  0.7830543740291995  0.3182299381866081
  0.4169545827698707  0.7669770714288697  0.8121614136576030
  0.8961078761510657  0.2783070783382010  0.3116370509689826
  0.9128982569944202  0.2677799621019106  0.8124661086308504
  0.8967129182306700  0.7793671111594882  0.3133284946082043
  0.9139145923959580  0.7662936453353477  0.8126687055609356
  0.2131449135338069  0.3522063847423283  0.2115919133168155
  0.2331216065005272  0.3371185884809691  0.7142859198698188
  0.2092854902405479  0.8524332825529684  0.2092633192069953
  0.2353105678922083  0.8362766877771478  0.7127874474784073
  0.7150648258192619  0.3492243064980614  0.2127176491736425
  0.7351980652036327  0.3362846143599538  0.7129280605206915
  0.7138597711700363  0.8508632334069441  0.2153405379792573
  0.7332260561797324  0.8317825234021529  0.7087082702711873
  0.4803107775899219  0.1073376504672580  0.2124671663133594
  0.4945170515765227  0.0972997997081811  0.7077688043587416
  0.4815996027804479  0.6045327285841445  0.2094004257059385
  0.4964438671158669  0.5968176166739113  0.7124284483362943
  0.9783527057964234  0.1101591275902505  0.2124898763436175
  0.9968515210177508  0.0960328648684406  0.7126046769534774
  0.9814633541035145  0.6112078684812797  0.2142161849506176
  1.0003804764441175  0.5969752369620087  0.7143614756900744
  0.0397291060569523  0.1938277645163117  0.3897003650491756
  0.0548663157022457  0.1776202252411512  0.8890543317925401
  0.0378337801853330  0.6921430795792378  0.3899055992641131
  0.0595574124610151  0.6843186081120063  0.8914160854348020
  0.5474845553455567  0.2116061958308996  0.3901765683227171
  0.5577580396633162  0.1771596008815456  0.8868556994923436
  0.5408313209383080  0.7055754944091044  0.3842900446056180
  0.5585780554754090  0.6814550242084454  0.8893416434387822
  0.3229718454644144  0.4290343293917591  0.3903366348435815
  0.3517214721093598  0.4288933925644084  0.8908683740747485
  0.3206038297422741  0.9248812732423772  0.3845170209217593
  0.3537228528268237  0.9338569752549277  0.8890713914303845
  0.8314085269255077  0.4415905483662380  0.3893132419129387
  0.8490036566366651  0.4295384035020344  0.8897350337162546
  0.8332130620357999  0.9431369019017747  0.3900702676165381
  0.8483818942020040  0.9318927034484805  0.8873638317492132
  0.2621065237925698  0.1420227383826091  0.2753580010431657
  0.2801072629374114  0.1282594682729104  0.7760098965799143
  0.2656050417110301  0.6428673053970023  0.2758597379117296
  0.2809669579495481  0.6308105684118133  0.7795817981703869
  0.7606737076087344  0.1429707556752821  0.2783293478938754
  0.7754801372714811  0.1298678915366587  0.7740586636663164
  0.7615450094571080  0.6423014267735743  0.2780814317728707
  0.7856370675342760  0.6304365782534269  0.7819132777061198
 -0.0012111173478409  0.3816848429768224  0.2782875021235718
  0.0171533165428506  0.3680599989375836  0.7787759264770122
 -0.0021884926494145  0.8822531557341925  0.2786512626931638
  0.0151998540287892  0.8673719716348418  0.7757296262951412
  0.4936714437762248  0.3816437607419155  0.2749190786977116
  0.5149584194198981  0.3696685676735340  0.7790012243431942
  0.4914110660620615  0.8817007141214854  0.2774075922228119
  0.5171051036275029  0.8640153534613297  0.7724000212478591
  0.4303883604337809  0.2807435520893023  0.0980833894350878
  0.4600868435610032  0.2899455757312138  0.6029753191159176
  0.4309319229836523  0.7823751881497888  0.0983406814781929
  0.4457580049544771  0.7670153317560923  0.5998739403405222
  0.9280095648461133  0.2842811941479162  0.0988188787929741
  0.9457807973763420  0.2718556662618303  0.5996905112331421
  0.9256756718732932  0.7821166713702643  0.0989268831028880
  0.9499689729829308  0.7675321163778114  0.5987529601234463
  0.1512646827242464  0.0641727781219805  0.0987258436259953
  0.1664287470525361  0.0509711743169698  0.5982406988900206
  0.1505609203927392  0.5636845297207834  0.0979068108854830
  0.1730070563101982  0.5481083126830489  0.5990942720728517
  0.6534552378719640  0.0607626267568385  0.0995093720075285
  0.6720836913391133  0.0529631246387957  0.6012650775533935
  0.6559934140315588  0.5642773726680151  0.0994586176228472
  0.6639553389404288  0.5370571817832224  0.6036396618082994
 
             NaN             NaN             NaN
             NaN             NaN             NaN
             NaN             NaN             NaN
             NaN             NaN             NaN
             NaN             NaN             NaN
             NaN             NaN             NaN
             NaN             NaN             NaN
             NaN             NaN             NaN
             NaN             NaN             NaN
             NaN             NaN             NaN
             NaN             NaN             NaN
             NaN             NaN             NaN
             NaN             NaN             NaN
             NaN             NaN             NaN
             NaN             NaN             NaN
             NaN             NaN             NaN
             NaN             NaN             NaN
             NaN             NaN             NaN
             NaN             NaN             NaN
             NaN             NaN             NaN
             NaN             NaN             NaN
             NaN             NaN             NaN
             NaN             NaN             NaN
             NaN             NaN             NaN
             NaN             NaN             NaN
             NaN             NaN             NaN
             NaN             NaN             NaN
             NaN             NaN             NaN
             NaN             NaN             NaN
             NaN             NaN             NaN
             NaN             NaN             NaN
             NaN             NaN             NaN
             NaN             NaN             NaN
             NaN             NaN             NaN
             NaN             NaN             NaN
             NaN             NaN             NaN
             NaN             NaN             NaN
             NaN             NaN             NaN
             NaN             NaN             NaN
             NaN             NaN             NaN
             NaN             NaN             NaN
             NaN             NaN             NaN
             NaN             NaN             NaN
             NaN             NaN             NaN
             NaN             NaN             NaN
             NaN             NaN             NaN
             NaN             NaN             NaN
             NaN             NaN             NaN
             NaN             NaN             NaN
             NaN             NaN             NaN
             NaN             NaN             NaN
             NaN             NaN             NaN
             NaN             NaN             NaN
             NaN             NaN             NaN
             NaN             NaN             NaN
             NaN             NaN             NaN
             NaN             NaN             NaN
             NaN             NaN             NaN
             NaN             NaN             NaN
             NaN             NaN             NaN
             NaN             NaN             NaN
             NaN             NaN             NaN
             NaN             NaN             NaN
             NaN             NaN             NaN
             NaN             NaN             NaN
             NaN             NaN             NaN
             NaN             NaN             NaN
             NaN             NaN             NaN
             NaN             NaN             NaN
             NaN             NaN             NaN
             NaN             NaN             NaN
             NaN             NaN             NaN
             NaN             NaN             NaN
             NaN             NaN             NaN
             NaN             NaN             NaN
             NaN             NaN             NaN
             NaN             NaN             NaN
             NaN             NaN             NaN
             NaN             NaN             NaN
             NaN             NaN             NaN
             NaN             NaN             NaN
             NaN             NaN             NaN
             NaN             NaN             NaN
             NaN             NaN             NaN
             NaN             NaN             NaN
             NaN             NaN             NaN
             NaN             NaN             NaN
             NaN             NaN             NaN
             NaN             NaN             NaN
             NaN             NaN             NaN
             NaN             NaN             NaN
             NaN             NaN             NaN
             NaN             NaN             NaN
             NaN             NaN             NaN
             NaN             NaN             NaN
             NaN             NaN             NaN
             NaN             NaN             NaN
             NaN             NaN             NaN
             NaN             NaN             NaN
             NaN             NaN             NaN
             NaN             NaN             NaN
             NaN             NaN             NaN
             NaN             NaN             NaN
