Ca V  O                                 
   1.00000000000000     
    10.9655885695999995    0.0000000000000000    0.0000000000000000
    -1.8643554801000000   14.2891268287000006    0.0000000000000000
    -1.8525292359000001    0.1709672118000000    8.2915385771000008
   Ca   V    O 
    19    28    56
Direct
     0.7431252969369382    0.2574917872103768    0.5227546015529896
     0.0395048261042135    0.3304877221600293    0.6561672214660916
     0.0334101491426040    0.8292310081047916    0.6551787644098894
     0.5351186811975168    0.8227640092356907    0.6481743925540826
     0.2744450938388070    0.2617458197494003    0.5274113912854830
     0.2481596799980608    0.7520058474726170    0.4976447887623294
     0.7481749268688560    0.7493655551617522    0.4953215479626394
     0.4656716699938528    0.1746877615826463    0.3593182283801184
     0.4605352192852621    0.6719830683896362    0.3367518499381390
     0.9716936844699973    0.1792700088384080    0.3636791609662282
     0.9638113119675751    0.6759602443182828    0.3434605163699729
     0.3984809050352069    0.0305366965736908    0.0726489348250752
     0.3962527906142626    0.5285959233580400    0.0527476497184480
     0.8964931223387822    0.0366428040652949    0.0812548268646438
     0.8725289453043175    0.5307954266701245    0.0628612615043167
     0.1030309447933959    0.4732141085707795    0.9366587821137955
     0.1105141641825824    0.9693104767173253    0.9390958275073231
     0.5891102775256201    0.4419405362942754    0.8710479003886320
     0.6144612381752026    0.9638176801364722    0.9291300275677941
     0.4299161018662403    0.1013707122844565    0.7169188134768163
     0.4159265132514562    0.6023302377001656    0.6972256590976542
     0.9319760539687252    0.1078402569281351    0.7249348663649400
     0.9212013176447300    0.6047323489247844    0.7115180272617394
     0.0763604991190547    0.4002724616948754    0.2902773271105872
     0.0798214574946243    0.8989851164481806    0.2940849971631323
     0.5690349515525739    0.3921395830256387    0.2780941251386579
     0.5751943530921579    0.8943579070888887    0.2831767065479625
     0.2786259804805695    0.3154456706736468    0.1365699047056523
     0.2837804017188361    0.8148824607831102    0.1323711438500581
     0.7830243623801323    0.3148718442601464    0.1461005521824745
     0.7905505852946675    0.8189598817998487    0.1396249551961546
     0.1546671102255459    0.0413016512358695    0.5817257510616543
     0.1477784932681629    0.5405633968796764    0.5700655591099775
     0.6504182417647186    0.0321993479326750    0.5677791564663366
     0.6392534968522625    0.5280678965443215    0.5473308514230268
     0.0072006623275414    0.2526987413755606    0.0107529082785049
     0.9895087756949366    0.7519744604395271    0.0004816638243526
     0.4976733721797615    0.2464933236371039    0.9977764828476978
     0.5066221827151125    0.7456465237395022    0.9921854174523901
     0.3481975761156662    0.4630975796020920    0.4163362168249378
     0.3519313206946180    0.9622786249927913    0.4295219335390499
     0.8516997364226100    0.4692814123756435    0.4335295351969890
     0.8544391004530922    0.9703870389541152    0.4403311241573533
     0.2237857639757195    0.1840281562087043    0.8753820771063445
     0.2138529342835085    0.6858615125297973    0.8628349264199286
     0.7192239992500618    0.1810588663782582    0.8704037550635775
     0.7037537135460497    0.6764478250122608    0.8509602485419876
     0.3828046315301563    0.2274920173095722    0.7804827142583051
     0.3771851946682787    0.7330141527819976    0.7597322093875718
     0.8838650583438223    0.2368126433938613    0.7758943305464001
     0.8681576291011837    0.7316917027592638    0.7599697948387458
     0.1014154990845171    0.1785810371759169    0.6316421859845605
     0.0877423770958217    0.6755132776468429    0.6200972101269997
     0.5946351243272190    0.1570663938990080    0.6271498098430257
     0.5830051319297240    0.6683615977998301    0.6045218768454745
     0.4005715838597368    0.3301721478679838    0.3563993001576762
     0.4090452378831060    0.8260766207280028    0.3751365477899000
     0.9106568146277567    0.3323793793653280    0.3908154060124858
     0.9129664779904374    0.8326369003025960    0.3865009610074281
     0.3121160615475773    0.0975190109114266    0.4919756846705354
     0.3015563179415537    0.5970737644676589    0.4709165408982585
     0.8130074615102956    0.1006249872748839    0.4983332116801833
     0.8056271638573946    0.5982277858569489    0.4817017601562270
     0.1250257009569822    0.2702677930452708    0.2444449976939609
     0.1198961945741814    0.7676938730201783    0.2347215152317546
     0.6207008848912210    0.2646953010783761    0.2441541665187970
     0.6268374438539936    0.7660746446037692    0.2320214797757885
     0.4787442551702696    0.4828404031418074    0.6246968143015152
     0.4914626519531637    0.9750339298802686    0.6544261981083110
     0.9910722852837139    0.4841873125035434    0.6614946919135676
     0.9957109065943470    0.9854789280567147    0.6696072928507917
     0.4481652886774867    0.3771254854718151    0.0500039362437690
     0.4577414772931263    0.8785727828146648    0.0599890315931333
     0.9540920441282381    0.3844023403386672    0.0715603821293129
     0.9555584684546545    0.8854921434749201    0.0697414461214692
     0.1942770561107565    0.4085136918792784    0.5169408815267502
     0.1930085827883019    0.9068421838529375    0.5222916075012520
     0.6889848169249149    0.4063885815057375    0.5001471333250294
     0.6918401838381598    0.9014557788983453    0.5120176751923253
     0.0141694590051884    0.0251124304997674    0.3566533557577287
     0.0090818357436575    0.5231954837502997    0.3435040621482415
     0.5093814002657382    0.0175458898357732    0.3411238956516129
     0.5042795503081479    0.5179284894652483    0.3204665435046294
     0.3457971093142547    0.1875563844264576    0.0960484375415760
     0.3472512883119805    0.6889926869690299    0.0758628191229533
     0.8532951901556487    0.1923142027657150    0.0961976765768284
     0.8348822455753364    0.6876377069636348    0.0811307767234410
     0.1576945429638741    0.3133373686599370    0.9151006830332378
     0.1494120124698810    0.8101999635439228    0.9172241697544052
     0.6571459551868628    0.2989456526669940    0.9298593976822502
     0.6614296358349918    0.8081046933552187    0.9103634894754720
     0.0542111055617269    0.1212177984799538    0.9472276989381996
     0.0378989347358996    0.6206263374355743    0.9355226388126781
     0.5500186297718912    0.1122864872142770    0.9396137539279934
     0.5415824679264460    0.6102317832259416    0.9167866994460283
     0.2338626640992274    0.4463434473478998    0.1848016635828813
     0.2395681416270961    0.9441077129302258    0.1945913074115921
     0.7341533412943448    0.4411850024053123    0.1955457490595052
     0.7409147927563851    0.9467806582122194    0.1983804731836614
     0.2666817937095018    0.0553461905996997    0.8168851449985510
     0.2587937963032090    0.5566372919204099    0.8022261147756566
     0.7706912208011758    0.0535277089445572    0.8121141698938388
     0.7525556680793315    0.5482349802151205    0.7907469832177583
 
  0.00000000E+00  0.00000000E+00  0.00000000E+00
  0.00000000E+00  0.00000000E+00  0.00000000E+00
  0.00000000E+00  0.00000000E+00  0.00000000E+00
  0.00000000E+00  0.00000000E+00  0.00000000E+00
  0.00000000E+00  0.00000000E+00  0.00000000E+00
  0.00000000E+00  0.00000000E+00  0.00000000E+00
  0.00000000E+00  0.00000000E+00  0.00000000E+00
  0.00000000E+00  0.00000000E+00  0.00000000E+00
  0.00000000E+00  0.00000000E+00  0.00000000E+00
  0.00000000E+00  0.00000000E+00  0.00000000E+00
  0.00000000E+00  0.00000000E+00  0.00000000E+00
  0.00000000E+00  0.00000000E+00  0.00000000E+00
  0.00000000E+00  0.00000000E+00  0.00000000E+00
  0.00000000E+00  0.00000000E+00  0.00000000E+00
  0.00000000E+00  0.00000000E+00  0.00000000E+00
  0.00000000E+00  0.00000000E+00  0.00000000E+00
  0.00000000E+00  0.00000000E+00  0.00000000E+00
  0.00000000E+00  0.00000000E+00  0.00000000E+00
  0.00000000E+00  0.00000000E+00  0.00000000E+00
  0.00000000E+00  0.00000000E+00  0.00000000E+00
  0.00000000E+00  0.00000000E+00  0.00000000E+00
  0.00000000E+00  0.00000000E+00  0.00000000E+00
  0.00000000E+00  0.00000000E+00  0.00000000E+00
  0.00000000E+00  0.00000000E+00  0.00000000E+00
  0.00000000E+00  0.00000000E+00  0.00000000E+00
  0.00000000E+00  0.00000000E+00  0.00000000E+00
  0.00000000E+00  0.00000000E+00  0.00000000E+00
  0.00000000E+00  0.00000000E+00  0.00000000E+00
  0.00000000E+00  0.00000000E+00  0.00000000E+00
  0.00000000E+00  0.00000000E+00  0.00000000E+00
  0.00000000E+00  0.00000000E+00  0.00000000E+00
  0.00000000E+00  0.00000000E+00  0.00000000E+00
  0.00000000E+00  0.00000000E+00  0.00000000E+00
  0.00000000E+00  0.00000000E+00  0.00000000E+00
  0.00000000E+00  0.00000000E+00  0.00000000E+00
  0.00000000E+00  0.00000000E+00  0.00000000E+00
  0.00000000E+00  0.00000000E+00  0.00000000E+00
  0.00000000E+00  0.00000000E+00  0.00000000E+00
  0.00000000E+00  0.00000000E+00  0.00000000E+00
  0.00000000E+00  0.00000000E+00  0.00000000E+00
  0.00000000E+00  0.00000000E+00  0.00000000E+00
  0.00000000E+00  0.00000000E+00  0.00000000E+00
  0.00000000E+00  0.00000000E+00  0.00000000E+00
  0.00000000E+00  0.00000000E+00  0.00000000E+00
  0.00000000E+00  0.00000000E+00  0.00000000E+00
  0.00000000E+00  0.00000000E+00  0.00000000E+00
  0.00000000E+00  0.00000000E+00  0.00000000E+00
  0.00000000E+00  0.00000000E+00  0.00000000E+00
  0.00000000E+00  0.00000000E+00  0.00000000E+00
  0.00000000E+00  0.00000000E+00  0.00000000E+00
  0.00000000E+00  0.00000000E+00  0.00000000E+00
  0.00000000E+00  0.00000000E+00  0.00000000E+00
  0.00000000E+00  0.00000000E+00  0.00000000E+00
  0.00000000E+00  0.00000000E+00  0.00000000E+00
  0.00000000E+00  0.00000000E+00  0.00000000E+00
  0.00000000E+00  0.00000000E+00  0.00000000E+00
  0.00000000E+00  0.00000000E+00  0.00000000E+00
  0.00000000E+00  0.00000000E+00  0.00000000E+00
  0.00000000E+00  0.00000000E+00  0.00000000E+00
  0.00000000E+00  0.00000000E+00  0.00000000E+00
  0.00000000E+00  0.00000000E+00  0.00000000E+00
  0.00000000E+00  0.00000000E+00  0.00000000E+00
  0.00000000E+00  0.00000000E+00  0.00000000E+00
  0.00000000E+00  0.00000000E+00  0.00000000E+00
  0.00000000E+00  0.00000000E+00  0.00000000E+00
  0.00000000E+00  0.00000000E+00  0.00000000E+00
  0.00000000E+00  0.00000000E+00  0.00000000E+00
  0.00000000E+00  0.00000000E+00  0.00000000E+00
  0.00000000E+00  0.00000000E+00  0.00000000E+00
  0.00000000E+00  0.00000000E+00  0.00000000E+00
  0.00000000E+00  0.00000000E+00  0.00000000E+00
  0.00000000E+00  0.00000000E+00  0.00000000E+00
  0.00000000E+00  0.00000000E+00  0.00000000E+00
  0.00000000E+00  0.00000000E+00  0.00000000E+00
  0.00000000E+00  0.00000000E+00  0.00000000E+00
  0.00000000E+00  0.00000000E+00  0.00000000E+00
  0.00000000E+00  0.00000000E+00  0.00000000E+00
  0.00000000E+00  0.00000000E+00  0.00000000E+00
  0.00000000E+00  0.00000000E+00  0.00000000E+00
  0.00000000E+00  0.00000000E+00  0.00000000E+00
  0.00000000E+00  0.00000000E+00  0.00000000E+00
  0.00000000E+00  0.00000000E+00  0.00000000E+00
  0.00000000E+00  0.00000000E+00  0.00000000E+00
  0.00000000E+00  0.00000000E+00  0.00000000E+00
  0.00000000E+00  0.00000000E+00  0.00000000E+00
  0.00000000E+00  0.00000000E+00  0.00000000E+00
  0.00000000E+00  0.00000000E+00  0.00000000E+00
  0.00000000E+00  0.00000000E+00  0.00000000E+00
  0.00000000E+00  0.00000000E+00  0.00000000E+00
  0.00000000E+00  0.00000000E+00  0.00000000E+00
  0.00000000E+00  0.00000000E+00  0.00000000E+00
  0.00000000E+00  0.00000000E+00  0.00000000E+00
  0.00000000E+00  0.00000000E+00  0.00000000E+00
  0.00000000E+00  0.00000000E+00  0.00000000E+00
  0.00000000E+00  0.00000000E+00  0.00000000E+00
  0.00000000E+00  0.00000000E+00  0.00000000E+00
  0.00000000E+00  0.00000000E+00  0.00000000E+00
  0.00000000E+00  0.00000000E+00  0.00000000E+00
  0.00000000E+00  0.00000000E+00  0.00000000E+00
  0.00000000E+00  0.00000000E+00  0.00000000E+00
  0.00000000E+00  0.00000000E+00  0.00000000E+00
  0.00000000E+00  0.00000000E+00  0.00000000E+00
  0.00000000E+00  0.00000000E+00  0.00000000E+00
