Ca Mn Te O 
 1.0000000000000000
     9.3541609999999995    0.0000000000000000    0.0000000000000000
     0.0000000000000000    9.6163319999999999    0.0000000000000000
     0.0000000000000000    0.0000000000000000   11.2118099999999998
 Ca  Mn  Te  O  
  12  16   8  48
Cartesian
  0.7495720500781479  7.1697408841031169  7.2997059374748261
  5.4266525500781508  2.4465911158968847  3.9121040625251644
  2.3385402499999999  2.2964563552176469  3.8317150773787620
  3.9275084499218522  7.1697408841031161  7.2997059374748181
  7.0156207500000001  2.5117096447823539  9.4376200773787549
  8.6045889499218582  7.2547571158968829  1.6938009374748171
  3.9275084499218518  2.3615748841031210  9.5180090625251719
  0.7495720500781493  2.3615748841031130  9.5180090625251648
  2.3385402500000003  7.1046223552176491  1.7741899226212277
  5.4266525500781500  7.2547571158968864  1.6938009374748166
  7.0156207500000001  7.3198756447823525  7.3800949226212218
  8.6045889499218493  2.4465911158968825  3.9121040625251671
  8.5480914773757348  5.5878718528445459  4.3275661423969236
  8.5480914773757295  0.7797058528445505  1.2783388576030670
  0.7951110035621491  3.9569527559731337  1.2501937589419789
  3.8710109773757302  4.0284601471554513  6.8842438576030700
  5.4721915035621480  0.8512132440268695  6.8560987589419806
  5.4831500226242662  0.7797058528445526  1.2783388576030617
  8.5590499964378548  0.8512132440268678  6.8560987589419744
  0.8060695226242712  4.0284601471554513  6.8842438576030700
  5.4721915035621436  5.6593792440268720  9.9616162410580067
  3.8710109773757311  8.8366261471554388  9.9334711423969200
  0.7951110035621513  8.7651187559731287  4.3557112410580050
  8.5590499964378477  5.6593792440268658  9.9616162410580031
  0.8060695226242670  8.8366261471554495  9.9334711423969235
  3.8819694964378515  8.7651187559731323  4.3557112410580032
  5.4831500226242724  5.5878718528445557  4.3275661423969209
  3.8819694964378528  3.9569527559731332  1.2501937589419838
  7.0156207499999956  4.2111872276695941  6.8526522500232439
  2.3385402499999981  5.5140071822531969 10.0525913459052898
  7.0156207500000018  8.9104908177467994  4.4466863459052872
  2.3385402500000039  0.5969787723304000  1.2467472500232433
  7.0156207499999992  9.0193532276696029  9.9650627499767417
  2.3385402500000003  0.7058411822531901  6.7651236540946993
  7.0156207500000045  4.1023248177468075  1.1592186540947009
  2.3385402500000065  5.4051447723304058  4.3591577499767444
  0.9385908416033540  5.9920844198015786  0.1632743005535393
  2.3385402499999999  8.4752481112936522  5.9789659346606934
  7.0156207500000010  0.1425263542543609  8.0734122090690867
  0.8633071465824185  3.9905156667782773  4.7332093646901381
  5.5403876465824151  0.8176503332217215 10.3391143646901398
  3.7384896583966407  1.1839184198015773  5.4426306994464468
  8.4908538534175886  5.6258163332217155  6.4786006353098520
  8.4155701583966476  3.6242475801984284 11.0485356994464503
  7.0156207500000001  4.0349878083205297  4.6746211268504183
  7.0156207499999956  4.9506923542543673  8.7443027909308988
  8.4462202206341317  4.7142663715042623  2.3223546136916009
  3.7691397206341226  4.9020656284957349  8.8894553863083878
  2.3385402499999977  9.4738056457456334  3.1383977909309002
  3.7691397206341271  0.0938996284957283  7.9282596136916004
  7.0156207500000027  2.3117679618628597  2.0032317249256630
  5.6156713416033508  8.4324135801984230  5.7691793005535414
  8.4908538534175797  0.8176503332217211 10.3391143646901291
  5.5850212793658738  9.5224323715042587  3.2835503863083808
  2.3385402499999999  5.5813441916794639  6.5371888731495629
  5.3509358733885710  2.7420967637668521  7.7500610214108185
  4.0032251266114205  2.0660692362331439  2.1441560214108191
  3.7384896583966438  5.9920844198015795  0.1632743005535372
  2.3385402499999999  3.6670821112936616 10.8387490653393002
  8.4155701583966440  8.4324135801984159  5.7691793005535450
  0.9079407793658740  4.9020656284957340  8.8894553863083914
  2.3385402500000003  2.4963980381371398  7.6091367249256487
  3.8137733534175826  3.9905156667782760  4.7332093646901443
  4.0032251266114267  6.8742352362331429  3.4617489785891706
  5.5850212793658747  4.7142663715042588  2.3223546136916031
  5.5403876465824169  5.6258163332217164  6.4786006353098475
  0.9079407793658724  0.0938996284957310  7.9282596136916021
  2.3385402499999994  4.6656396457456353  2.4675072090690922
  8.4462202206341264  9.5224323715042694  3.2835503863083852
  0.8633071465824170  8.7986816667782843  0.8726956353098467
  7.0156207500000010  7.1199339618628539  3.6026732750743276
  7.0156207499999992  5.9492498887063405  0.3730609346606920
  8.6803056266114194  7.5502627637668480  9.0676539785891617
  0.9385908416033584  1.1839184198015753  5.4426306994464477
  0.6738553733885778  2.0660692362331452  2.1441560214108173
  3.8137733534175822  8.7986816667782737  0.8726956353098453
  2.3385402499999990  7.3045640381371451  9.2085782750743252
  7.0156207500000001  8.8431538083205368  0.9312838731495636
  2.3385402499999999  0.7731781916794700 10.2805261268504200
  0.6738553733885777  6.8742352362331420  3.4617489785891720
  7.0156207500000001  1.1410838887063313  5.2328440653392958
  8.6803056266114247  2.7420967637668534  7.7500610214108168
  5.3509358733885763  7.5502627637668542  9.0676539785891652
  5.6156713416033517  3.6242475801984284 11.0485356994464468
