Ca Mn V  P  O                           
   1.00000000000000     
     7.3615770339999997    0.0000000000000000    0.0000000000000000
     0.1764880905000000    8.2527450794000003    0.0000000000000000
     0.4044067635000000    0.4538283880000000   18.2490875539999990
   Ca   Mn   V    P    O 
     3     4     4    16    56
Selective dynamics
Direct
  0.8877168698745095  0.9130223176748586  0.3786483692159663   T   T   T
  0.1422745230174414  0.9082699602844571  0.1199885785500925   T   T   T
  0.8678171590666395  0.4122215533760567  0.8720568249007670   T   T   T
  0.6147603396473542  0.0092010159477240  0.1283262312742863   T   T   T
  0.3670199877093623  0.0097569870535423  0.3850048102906669   T   T   T
  0.1033931675053594  0.0060094943847133  0.6297314298009056   T   T   T
  0.8458358137930588  0.9840672134740203  0.8755822038562755   T   T   T
  0.1550891679657695  0.4837218372992993  0.1235149980335919   T   T   T
  0.9037473476846358  0.4903375580115821  0.3733574163608822   T   T   T
  0.6521455133133998  0.5093071992077114  0.6212446918087480   T   T   T
  0.3988271610862952  0.5058387758180132  0.8694286772537154   T   T   T
  0.8567036364753591  0.7523927922061091  0.0283011444139802   T   T   T
  0.4652032112573963  0.6781552433633635  0.0281476532419092   T   T   T
  0.8880305763177674  0.2696725414775543  0.2230666891232076   T   T   T
  0.2788884084415386  0.1842992837958235  0.2254049821240045   T   T   T
  0.6084558376999709  0.7644894555171149  0.2802100440792330   T   T   T
  0.2139392382411813  0.6839620976430254  0.2780623308180594   T   T   T
  0.6401930978926273  0.2779494449544018  0.4733656296192308   T   T   T
  0.9754964335124896  0.6928807237687877  0.5268341052644772   T   T   T
  0.0305036854427385  0.1934348594431796  0.4757748192264160   T   T   T
  0.3585148861256968  0.7710962080956421  0.5337213333492343   T   T   T
  0.7802007092860066  0.1963890064078555  0.7195302754631427   T   T   T
  0.3926430560670227  0.2788463231155092  0.7201378855924006   T   T   T
  0.7210913076679049  0.7014783624657781  0.7712425051591651   T   T   T
  0.1107725511496938  0.7716803194179889  0.7803753544478482   T   T   T
  0.5361322779712694  0.1821862419702995  0.9676977994518268   T   T   T
  0.1468946376559330  0.2678890163427283  0.9722669686402341   T   T   T
  0.6792305888899079  0.6440443643007328  0.0428510916383189   T   T   T
  0.8417001714613335  0.9089175125480011  0.0733540641880026   T   T   T
  0.5790322668826917  0.1800287434349741  0.0483780223363723   T   T   T
  0.4133167003449145  0.8453432328103148  0.0562922746441501   T   T   T
  0.3740016095450684  0.5420123795166063  0.0735230693336035   T   T   T
  0.9376664926825811  0.4186840223189421  0.1739590507738313   T   T   T
  0.1321436111663274  0.3015073406988762  0.0546989741860457   T   T   T
  0.0176713882049313  0.6529379858831561  0.0597734962698837   T   T   T
  0.7318895423560363  0.1741587440551768  0.1973992090801673   T   T   T
  0.6424957300093084  0.8138284781077800  0.2007587551214058   T   T   T
  0.3615807658855061  0.0520095367140314  0.1762471106351668   T   T   T
  0.3003285428622888  0.3555181158609528  0.1929289885532910   T   T   T
  0.1797593096267178  0.6763020747543678  0.1941587087277696   T   T   T
  0.8751795442485601  0.3120093252560778  0.3044767970723044   T   T   T
  0.7668408597163037  0.6623874615106402  0.3123385973895907   T   T   T
  0.0620034878703493  0.1405145304232249  0.2161432951590285   T   T   T
  0.4296640239449232  0.6559571285900176  0.2888809246471240   T   T   T
  0.5862387444806032  0.9135340177404103  0.3308332440718473   T   T   T
  0.3290684500471173  0.1717780869190406  0.3051049416774987   T   T   T
  0.1566953339423307  0.8490920573795080  0.3072203919622609   T   T   T
  0.1263439773909738  0.5431267664056847  0.3203392646077887   T   T   T
  0.9343019864930966  0.6745815262253601  0.4433131228274760   T   T   T
  0.6883678500804109  0.4259745716602481  0.4221696797885386   T   T   T
  0.8153496128796434  0.1498516339488560  0.4652818502911984   T   T   T
  0.4840836871826326  0.1824411008457218  0.4478458172796635   T   T   T
  0.3960084738411496  0.8231089805758742  0.4536053492596466   T   T   T
  0.1169165468523587  0.0621925839590745  0.4263315368506895   T   T   T
  0.9392452635605721  0.8652897776774253  0.5483376456132945   T   T   T
  0.0500169823887120  0.3646313014691458  0.4425955543257700   T   T   T
  0.8740498549939844  0.5630817802717658  0.5723865286111476   T   T   T
  0.6301338322890828  0.3296643608716607  0.5526264653788857   T   T   T
  0.5138059156180717  0.6623781337289287  0.5621444697538465   T   T   T
  0.1879830076882030  0.6484491330930027  0.5361418003940130   T   T   T
  0.3158775022787736  0.9168110438376047  0.5819615031300458   T   T   T
  0.0820412967335926  0.1824703591248209  0.5552906881403601   T   T   T
  0.8740003272537606  0.0668086309063085  0.6741593868004117   T   T   T
  0.7967414726842534  0.3709759478221741  0.6886477734101746   T   T   T
  0.6777736608084908  0.6836353908763400  0.6908764378523244   T   T   T
  0.4445240216439501  0.4274643602217623  0.6697428738922326   T   T   T
  0.5665396433561369  0.1564365244033183  0.7184609961275896   T   T   T
  0.9368711052122762  0.6470202062732042  0.7848687095008700   T   T   T
  0.2326981368662402  0.1868554855502680  0.6971201874314517   T   T   T
  0.8359870870803192  0.1918925969824343  0.8009991479733500   T   T   T
  0.1343013223669587  0.8246513270880698  0.7007534534110036   T   T   T
  0.6950598965909194  0.8701623597797550  0.7991943534848076   T   T   T
  0.6340919985946698  0.5674482306083490  0.8211751060627819   T   T   T
  0.3724332868083380  0.3405448649149889  0.7999451621218512   T   T   T
  0.2663931660214089  0.6648337488965623  0.8088177291797791   T   T   T
  0.9806862859545689  0.1836077294527385  0.9444586374577426   T   T   T
  0.8763093229159509  0.7838402096882575  0.9460359626084269   T   T   T
  0.0669966060326743  0.9123888465626067  0.8319657006906596   T   T   T
  0.6255036921998922  0.0455763269846656  0.9242872347013247   T   T   T
  0.5688797854135998  0.3501665992520486  0.9293330681873826   T   T   T
  0.4355133769787685  0.6595571814698147  0.9458068329974765   T   T   T
  0.1725784327681836  0.4249031791719347  0.9238199269135734   T   T   T
  0.3191822071412034  0.1494775500592382  0.9596251531145157   T   T   T
 
  0.00000000E+00  0.00000000E+00  0.00000000E+00
  0.00000000E+00  0.00000000E+00  0.00000000E+00
  0.00000000E+00  0.00000000E+00  0.00000000E+00
  0.00000000E+00  0.00000000E+00  0.00000000E+00
  0.00000000E+00  0.00000000E+00  0.00000000E+00
  0.00000000E+00  0.00000000E+00  0.00000000E+00
  0.00000000E+00  0.00000000E+00  0.00000000E+00
  0.00000000E+00  0.00000000E+00  0.00000000E+00
  0.00000000E+00  0.00000000E+00  0.00000000E+00
  0.00000000E+00  0.00000000E+00  0.00000000E+00
  0.00000000E+00  0.00000000E+00  0.00000000E+00
  0.00000000E+00  0.00000000E+00  0.00000000E+00
  0.00000000E+00  0.00000000E+00  0.00000000E+00
  0.00000000E+00  0.00000000E+00  0.00000000E+00
  0.00000000E+00  0.00000000E+00  0.00000000E+00
  0.00000000E+00  0.00000000E+00  0.00000000E+00
  0.00000000E+00  0.00000000E+00  0.00000000E+00
  0.00000000E+00  0.00000000E+00  0.00000000E+00
  0.00000000E+00  0.00000000E+00  0.00000000E+00
  0.00000000E+00  0.00000000E+00  0.00000000E+00
  0.00000000E+00  0.00000000E+00  0.00000000E+00
  0.00000000E+00  0.00000000E+00  0.00000000E+00
  0.00000000E+00  0.00000000E+00  0.00000000E+00
  0.00000000E+00  0.00000000E+00  0.00000000E+00
  0.00000000E+00  0.00000000E+00  0.00000000E+00
  0.00000000E+00  0.00000000E+00  0.00000000E+00
  0.00000000E+00  0.00000000E+00  0.00000000E+00
  0.00000000E+00  0.00000000E+00  0.00000000E+00
  0.00000000E+00  0.00000000E+00  0.00000000E+00
  0.00000000E+00  0.00000000E+00  0.00000000E+00
  0.00000000E+00  0.00000000E+00  0.00000000E+00
  0.00000000E+00  0.00000000E+00  0.00000000E+00
  0.00000000E+00  0.00000000E+00  0.00000000E+00
  0.00000000E+00  0.00000000E+00  0.00000000E+00
  0.00000000E+00  0.00000000E+00  0.00000000E+00
  0.00000000E+00  0.00000000E+00  0.00000000E+00
  0.00000000E+00  0.00000000E+00  0.00000000E+00
  0.00000000E+00  0.00000000E+00  0.00000000E+00
  0.00000000E+00  0.00000000E+00  0.00000000E+00
  0.00000000E+00  0.00000000E+00  0.00000000E+00
  0.00000000E+00  0.00000000E+00  0.00000000E+00
  0.00000000E+00  0.00000000E+00  0.00000000E+00
  0.00000000E+00  0.00000000E+00  0.00000000E+00
  0.00000000E+00  0.00000000E+00  0.00000000E+00
  0.00000000E+00  0.00000000E+00  0.00000000E+00
  0.00000000E+00  0.00000000E+00  0.00000000E+00
  0.00000000E+00  0.00000000E+00  0.00000000E+00
  0.00000000E+00  0.00000000E+00  0.00000000E+00
  0.00000000E+00  0.00000000E+00  0.00000000E+00
  0.00000000E+00  0.00000000E+00  0.00000000E+00
  0.00000000E+00  0.00000000E+00  0.00000000E+00
  0.00000000E+00  0.00000000E+00  0.00000000E+00
  0.00000000E+00  0.00000000E+00  0.00000000E+00
  0.00000000E+00  0.00000000E+00  0.00000000E+00
  0.00000000E+00  0.00000000E+00  0.00000000E+00
  0.00000000E+00  0.00000000E+00  0.00000000E+00
  0.00000000E+00  0.00000000E+00  0.00000000E+00
  0.00000000E+00  0.00000000E+00  0.00000000E+00
  0.00000000E+00  0.00000000E+00  0.00000000E+00
  0.00000000E+00  0.00000000E+00  0.00000000E+00
  0.00000000E+00  0.00000000E+00  0.00000000E+00
  0.00000000E+00  0.00000000E+00  0.00000000E+00
  0.00000000E+00  0.00000000E+00  0.00000000E+00
  0.00000000E+00  0.00000000E+00  0.00000000E+00
  0.00000000E+00  0.00000000E+00  0.00000000E+00
  0.00000000E+00  0.00000000E+00  0.00000000E+00
  0.00000000E+00  0.00000000E+00  0.00000000E+00
  0.00000000E+00  0.00000000E+00  0.00000000E+00
  0.00000000E+00  0.00000000E+00  0.00000000E+00
  0.00000000E+00  0.00000000E+00  0.00000000E+00
  0.00000000E+00  0.00000000E+00  0.00000000E+00
  0.00000000E+00  0.00000000E+00  0.00000000E+00
  0.00000000E+00  0.00000000E+00  0.00000000E+00
  0.00000000E+00  0.00000000E+00  0.00000000E+00
  0.00000000E+00  0.00000000E+00  0.00000000E+00
  0.00000000E+00  0.00000000E+00  0.00000000E+00
  0.00000000E+00  0.00000000E+00  0.00000000E+00
  0.00000000E+00  0.00000000E+00  0.00000000E+00
  0.00000000E+00  0.00000000E+00  0.00000000E+00
  0.00000000E+00  0.00000000E+00  0.00000000E+00
  0.00000000E+00  0.00000000E+00  0.00000000E+00
  0.00000000E+00  0.00000000E+00  0.00000000E+00
  0.00000000E+00  0.00000000E+00  0.00000000E+00
