Ca V  O 
 1.0000000000000000
     3.6735180000000001    0.0000000000000000    0.0000000000000000
     0.0000000000000000   10.3704190000000001    0.0000000000000000
     0.0000000000000000    3.8037190000000001   21.0831020000000002
 Ca  V   O  
   5  18  44
Cartesian
  1.8367590000000000  8.8736752196555013 17.7556287374881023
  1.8367590000000000 12.2039268733817838 17.0700122859984376
  0.0000000000000003  2.5217594131029371 10.5921954376278311
  0.0000000000000001  1.9277239482225290  3.9549874040183988
  0.0000000000000000  5.2732784147540297  3.3054818734593674
 -0.0000000000000002 10.0928921672562151 20.5493746621288942
  1.8367590000000000  5.7324723917769091 19.3974295388592708
 -0.0000000000000000 13.6234772742978709 19.7905175910551137
  0.0000000000000001  7.5892006409169532 14.9651528159390725
  1.8367590000000000  5.2804655825779223 15.7443815265393781
  0.0000000000000000 11.0871785568682331 14.3772277027167625
  1.8367590000000000  3.1092847327641548 13.5661894671802603
 -0.0000000000000001  9.0994295484888710 12.0113367711522958
  1.8367590000000000  6.5442921232070121 12.4549084469633318
  0.0000000000000001  7.7002291143026822  8.6348771694740485
  1.8367590000000000  5.2067910976501333  9.0535998924770329
 -0.0000000000000000 11.0657341861910847  7.5854622481882057
  1.8367590000000000  3.0595519604149981  6.7153088912756251
 -0.0000000000000000  8.9091777037436088  5.3208889355849927
  1.8367590000000000  6.5707176190095398  6.0988353067209360
  1.8367590000000000  0.5154259949750908  1.2559934534442632
 -0.0000000000000002  8.4222173807508991  1.6733604009039653
  1.8367590000000000  4.0503014578484873  0.5277586437778237
  1.8367590000000000  9.7630012714219028 20.8957297500476358
  0.0000000000000001  5.2055942541295206 19.3655087353021571
 -0.0000000000000000 11.9916204020978228 20.7627232821674674
  1.8367590000000000  7.4440291922800910 19.4019012592022477
  1.8367590000000000  3.6695625972138011 20.0983105481646369
 -0.0000000000000000 10.0094437710060227 18.8098617498066147
  1.8367590000000000  5.6398543337253422 17.4116055264971052
 -0.0000000000000001 12.9900290511082677 18.2021797374783603
 -0.0000000000000000  8.1998614586539667 16.5729281020273476
 -0.0000000000000001 11.0736649515032113 16.1223813194945187
  1.8367590000000000  7.1395747922498147 14.7400283080296521
  1.8367590000000000  3.5480162524443237 15.6869585687157702
  0.0000000000000001  9.2686026524618157 14.0277230764785408
 -0.0000000000000000  5.6315272305864159 15.4427406254600239
  0.0000000000000000  6.9088069820747453 12.8506146279974800
  1.8367590000000000 11.5306958563865667 14.1617618210358902
  0.0000000000000001  2.7301016244323115 13.8450826680584012
  1.8367590000000000  8.4720958149976902 12.0816783040581122
  1.8367590000000000  4.8700181573319083 13.5559797935729680
 -0.0000000000000001 10.7894604138079355 11.9671122709670463
  1.8367590000000000  2.8666340834923503 11.8836684858797526
 -0.0000000000000000  8.4668348308588239 10.1382502990053105
  1.8367590000000000  5.7486334095149383 10.9508508179406832
  0.0000000000000000 11.1627934675722766  9.2342685687419230
  1.8367590000000000  3.4863481758171302  9.2569884703029341
  0.0000000000000001  9.2906765566106202  7.4787424955640018
 -0.0000000000000001  5.7413028683142899  9.0238894638881977
  1.8367590000000000  1.0903685384008399  7.2437284374496880
 -0.0000000000000000  2.6710876343601146  7.0712221419434469
  1.8367590000000000  7.2723187244391951  8.2395994293164065
  1.8367590000000000  8.5264558941629804  5.6071660236548642
  1.8367590000000000  4.9047620517804882  7.0704586443575179
 -0.0000000000000001 10.6314861555335547  5.3864203441295029
  0.0000000000000001  7.0199365039722625  6.3151217359483640
  1.8367590000000000  3.0398707165547245  4.9830024232739483
  1.8367590000000000  5.9246353936909717  4.5044406805884893
  1.8367590000000000  1.1483094687267295  2.8483716666245913
 -0.0000000000000000  8.5604746037188573  3.6436249609389262
  1.8367590000000000  4.1177688373832497  2.2729138059215059
 -0.0000000000000001 10.4803040017285625  0.9556862722224164
 -0.0000000000000001  6.7113950087653942  1.6767410656790878
  1.8367590000000000  2.1531162763717924  0.2969619780461370
  1.8367590000000000  8.9370003722086295  1.6779803814052556
  0.0000000000000000  4.3771255377362834  0.1911281002791805
