Ca   V    O                             
   1.00000000000000     
     8.7661266995816796   -0.0073493479422360   -0.0013063376879234
     2.9207386937318800   14.0566873469831002    0.3521827091303620
     2.9388721879694599   -0.3661606841462040   14.0642722587809992
   Ca   V    O 
    11    48    96
Direct
  0.2136174888967974  0.5515352428601531  0.5103294086942514
  0.1990019664803980  0.0103240415792341  0.4505004453811561
  0.2157900459784924  0.9249153618082063  0.9863178677945386
  0.1973984447524917  0.5143569525442311  0.9486430112831553
  0.5346552206227763  0.0126035181808721  0.4405551815122698
  0.4717275928796068  0.0675987371674712  0.0144024842816916
  0.5389139829897449  0.4978732708108027  0.9409985110363709
  0.8628598820719354  0.0149796344373808  0.4504639088991133
  0.8449699157895114  0.0665495975655448  0.0157591379132501
  0.7848330869826237  0.5515978499581226  0.5099397308357216
  0.8633601033561998  0.5153704003721908  0.9484442741194066
  0.2352719988726859  0.0904058372566033  0.2410564854036772
  0.2250851690338911  0.0890430187009666  0.7974980003836685
  0.2185599525548334  0.5976358788349810  0.2834597072804080
  0.2410851598604627  0.5878451152549169  0.7384528516484730
  0.5754670918524338  0.0943032382876107  0.2371591769282933
  0.5540779254674564  0.0924795028945736  0.7903584611926624
  0.5566793152544818  0.5944313052778635  0.2900770165361496
  0.5823727317152773  0.5861674960534253  0.7365627619545645
  0.9152207341776896  0.0900695512095896  0.2405235058820052
  0.8986223621684706  0.0916679127870744  0.7902708789934209
  0.8936709674291170  0.5975188922392086  0.2835786632270235
  0.9096294548436032  0.5867555043000372  0.7388688118580653
  0.0666752058162073  0.2632499407861693  0.0951804058659485
  0.0910613373207975  0.2037345396860581  0.5979194047653943
  0.0774491838097279  0.7144276962671496  0.0915697866084079
  0.0597810857233625  0.7636607375260119  0.5902126763913570
  0.3923489917630992  0.2701968459349970  0.0960402049431544
  0.4210732177205719  0.2019451786746518  0.5965931503293104
  0.4221302999418963  0.7098590856908400  0.0950226695305884
  0.4042200653610838  0.7539203879586072  0.5891697495483977
  0.7335570007500877  0.2706845610305376  0.0960920317267218
  0.7454409710236142  0.2051133296606909  0.5995210719574173
  0.7455310074159196  0.7101556907226606  0.0951719328194936
  0.7432293493268584  0.7638346055897184  0.5892590904366837
  0.2998201711225890  0.2429941840155370  0.4107961863096828
  0.2806112759783768  0.2863160149767371  0.9075927935717445
  0.2905332171864366  0.7866266554706310  0.4047024535165741
  0.3120320659860619  0.7286564053992244  0.9050579572758585
  0.6346003548625914  0.2472079737985144  0.4073790805018895
  0.6241457306814894  0.2789910848629105  0.9089258965445236
  0.6195719379429583  0.7873883789943287  0.4048322960343982
  0.6347800260812591  0.7417261930317420  0.9080284709640554
  0.9678567803705220  0.2416899597910711  0.4135596816815507
  0.9600762617027483  0.2858593057007668  0.9098649864608193
  0.9553843883171217  0.7864446764966775  0.4035124213546073
  0.9632206468811931  0.7420563248658749  0.9097661188460618
  0.1229667489744476  0.4121974794155355  0.2663763968100389
  0.1455408763015834  0.3979272074945953  0.7132908351282585
  0.1475911731290706  0.9039932300684960  0.2156090255812640
  0.1307838324423645  0.9029010866037667  0.7570371657790635
  0.4536013210933224  0.4149604098660089  0.2623016317510309
  0.4816358671460603  0.3996073080312262  0.7143751368704232
  0.4800525310237475  0.9068061411133214  0.2107887134475822
  0.4666653154002421  0.9031334960570596  0.7548717890128230
  0.8022899168723188  0.4142926798787307  0.2636549030123141
  0.8178552201237118  0.3950599912989429  0.7143573029133615
  0.8082968259938927  0.9054273938979333  0.2116799096109057
  0.7932341755309109  0.9114375527027269  0.7645524744947856
  0.2975587652915029  0.3456664379057962  0.3302890160104169
  0.3012290636367211  0.3564199506360128  0.7960148199074855
  0.3023154007295874  0.8584664738590084  0.2922190733274373
  0.2961366048654793  0.8434573671306874  0.8302752050707182
  0.6266514436541171  0.3457975653705773  0.3284052063595618
  0.6350484601957194  0.3540670588721992  0.7988176793650398
  0.6344975035756855  0.8602638427553077  0.2929624186665520
  0.6291407588503032  0.8417273393220062  0.8252349787109328
  0.9579151845732965  0.3451502492939190  0.3318999200620191
  0.9691853032950840  0.3534120445423812  0.7965356138772702
  0.9674860576699941  0.8582262188824801  0.2900896981388091
  0.9616020341370934  0.8411602343203114  0.8255533358426036
  0.1774722948209126  0.1716227317507243  0.3492915567457837
  0.1630795507022887  0.2039331214360604  0.8632809407796296
  0.1642894232991954  0.7082253782593803  0.3579487454734223
  0.1756309243663030  0.6681673127180755  0.8488797797560662
  0.5136786617348327  0.1704119972254771  0.3496924166665224
  0.4903859829183963  0.2033746867337928  0.8665629960389252
  0.4966440028109259  0.7077759662776583  0.3595851760434031
  0.5185923699302204  0.6686258384937458  0.8434743344680415
  0.8438171360962216  0.1694269776202595  0.3521117268119016
  0.8340313525770221  0.2021935636119497  0.8668397046042794
  0.8296903574917821  0.7081990797693124  0.3579039288076941
  0.8473282108874490  0.6697199521762930  0.8456678859435600
  0.1887730335621669  0.3271573243969427  0.1633251739418729
  0.2108196756931948  0.2866101252766677  0.6429693967576249
  0.2103576501466662  0.7945728284814170  0.1352948344643911
  0.1965658971998951  0.8199978838956182  0.6565991560761929
  0.5230590060877228  0.3273680745166765  0.1582361799916410
  0.5420909529703863  0.2868050283957282  0.6450648919447775
  0.5408547756960469  0.7936121877802554  0.1398423352250903
  0.5245873644296948  0.8202949766014341  0.6552730835599764
  0.8560131929152688  0.3285006946217866  0.1613299847111226
  0.8756886873143317  0.2838191765722021  0.6437494917415475
  0.8705684544912062  0.7930889675971931  0.1380646537141020
  0.8568963178483707  0.8258391429464023  0.6595151450669435
  0.0720594350216697  0.1589736529318775  0.1792340397589556
  0.0709680265500042  0.1364189160396094  0.7113633486696894
  0.0714112167118575  0.6442612961899101  0.2024391546832439
  0.0788116060455585  0.6494126018708463  0.6702718842634320
  0.4042505899698292  0.1551071172216788  0.1755230719315891
  0.4022464913017674  0.1364540573988933  0.7118787082828368
  0.4047881140447843  0.6401484682154037  0.2059573855492975
  0.4111388228102940  0.6486723045045441  0.6752520673726310
  0.7465162285319322  0.1551648682181094  0.1759340180647823
  0.7355703011343461  0.1356760745344419  0.7148173082370223
  0.7326797257579010  0.6405228596267019  0.2065739054119658
  0.7470044014728410  0.6492889155535593  0.6689749180225567
  0.0765049051834763  0.0156317703316643  0.3117420329990930
  0.0561804035462391  0.0213882383270478  0.8704179467408262
  0.0541203768170904  0.5303699932592850  0.3605468588063018
  0.0749545653800518  0.5145454629215062  0.8091802732507570
  0.4083327967683457  0.0188520695606625  0.3061946504516989
  0.3868998487067626  0.0223613620017507  0.8708420145023591
  0.3827313020387476  0.5305004616886008  0.3571572688519062
  0.4116425576590106  0.5153877011862038  0.8083859432489944
  0.7457274325319495  0.0184105627256427  0.3055772346795921
  0.7212736006611440  0.0278741014252735  0.8659662114974241
  0.7284732702029575  0.5296839123250957  0.3578142511216139
  0.7470284293373380  0.5133410716239994  0.8090073886631549
  0.2764102348134437  0.2045494895129406  0.0223836370533266
  0.3031030496385099  0.1298370070120022  0.5221636522949110
  0.3020926364357487  0.6364483463023159  0.0175699639988728
  0.2756383411418853  0.7006880175979556  0.5181685178977360
  0.6118590012487211  0.1973429738326620  0.0246415034375610
  0.6323463827380090  0.1284652460530235  0.5260102394507159
  0.6324031746566758  0.6346442826579185  0.0197713637208392
  0.6163902968927867  0.7009579311211733  0.5180184214410681
  0.9429965350444760  0.2036909189787831  0.0233642535597578
  0.9679410545683770  0.1311168666706044  0.5239396009204006
  0.9642869146850148  0.6357489027891978  0.0199600396230828
  0.9489889008496092  0.6952889374783144  0.5156747831157094
  0.2873921341655311  0.4822845140358343  0.2058820092018737
  0.3062674777314226  0.4729257576944760  0.6511818257087285
  0.3114679692881045  0.9784633849320964  0.1393352991783934
  0.2884139203393598  0.9776443401138030  0.7120823696551507
  0.6227853286204276  0.4785030007731897  0.2119685862537933
  0.6511582702057434  0.4711966925236596  0.6499990225196844
  0.6426477703440542  0.9844466116621208  0.1413256344605222
  0.6183036292410750  0.9791947970835357  0.7099281917279572
  0.9589406390797496  0.4840520113719984  0.2037823896916312
  0.9782466616715412  0.4720696390615324  0.6479887505168870
  0.9801748859917987  0.9775923338964987  0.1404557246922558
  0.9595911054778550  0.9790378791980652  0.7094564347797918
  0.0940707631105138  0.2891048623601607  0.4868102633960809
  0.0717093980988741  0.3670502325654496  0.9745544525748404
  0.0722204588908825  0.8637903040330217  0.4729986635409648
  0.0965336016603447  0.7956524935816445  0.9777387385065848
  0.4303169303932112  0.2874501603975228  0.4848820121768515
  0.4049711747362418  0.3623821688237528  0.9746579207444753
  0.4063616116457813  0.8648127506936429  0.4711720795596605
  0.4258957474907787  0.7947878049204716  0.9807029611377603
  0.7581772438195048  0.2877408551934199  0.4856275210266184
  0.7414100702657387  0.3627676530626632  0.9750135135060463
  0.7416769230247826  0.8639554400525791  0.4723820847051709
  0.7590518350119067  0.7918705075103523  0.9809818700572546
 
             NaN             NaN             NaN
             NaN             NaN             NaN
             NaN             NaN             NaN
             NaN             NaN             NaN
             NaN             NaN             NaN
             NaN             NaN             NaN
             NaN             NaN             NaN
             NaN             NaN             NaN
             NaN             NaN             NaN
             NaN             NaN             NaN
             NaN             NaN             NaN
             NaN             NaN             NaN
             NaN             NaN             NaN
             NaN             NaN             NaN
             NaN             NaN             NaN
             NaN             NaN             NaN
             NaN             NaN             NaN
             NaN             NaN             NaN
             NaN             NaN             NaN
             NaN             NaN             NaN
             NaN             NaN             NaN
             NaN             NaN             NaN
             NaN             NaN             NaN
             NaN             NaN             NaN
             NaN             NaN             NaN
             NaN             NaN             NaN
             NaN             NaN             NaN
             NaN             NaN             NaN
             NaN             NaN             NaN
             NaN             NaN             NaN
             NaN             NaN             NaN
             NaN             NaN             NaN
             NaN             NaN             NaN
             NaN             NaN             NaN
             NaN             NaN             NaN
             NaN             NaN             NaN
             NaN             NaN             NaN
             NaN             NaN             NaN
             NaN             NaN             NaN
             NaN             NaN             NaN
             NaN             NaN             NaN
             NaN             NaN             NaN
             NaN             NaN             NaN
             NaN             NaN             NaN
             NaN             NaN             NaN
             NaN             NaN             NaN
             NaN             NaN             NaN
             NaN             NaN             NaN
             NaN             NaN             NaN
             NaN             NaN             NaN
             NaN             NaN             NaN
             NaN             NaN             NaN
             NaN             NaN             NaN
             NaN             NaN             NaN
             NaN             NaN             NaN
             NaN             NaN             NaN
             NaN             NaN             NaN
             NaN             NaN             NaN
             NaN             NaN             NaN
             NaN             NaN             NaN
             NaN             NaN             NaN
             NaN             NaN             NaN
             NaN             NaN             NaN
             NaN             NaN             NaN
             NaN             NaN             NaN
             NaN             NaN             NaN
             NaN             NaN             NaN
             NaN             NaN             NaN
             NaN             NaN             NaN
             NaN             NaN             NaN
             NaN             NaN             NaN
             NaN             NaN             NaN
             NaN             NaN             NaN
             NaN             NaN             NaN
             NaN             NaN             NaN
             NaN             NaN             NaN
             NaN             NaN             NaN
             NaN             NaN             NaN
             NaN             NaN             NaN
             NaN             NaN             NaN
             NaN             NaN             NaN
             NaN             NaN             NaN
             NaN             NaN             NaN
             NaN             NaN             NaN
             NaN             NaN             NaN
             NaN             NaN             NaN
             NaN             NaN             NaN
             NaN             NaN             NaN
             NaN             NaN             NaN
             NaN             NaN             NaN
             NaN             NaN             NaN
             NaN             NaN             NaN
             NaN             NaN             NaN
             NaN             NaN             NaN
             NaN             NaN             NaN
             NaN             NaN             NaN
             NaN             NaN             NaN
             NaN             NaN             NaN
             NaN             NaN             NaN
             NaN             NaN             NaN
             NaN             NaN             NaN
             NaN             NaN             NaN
             NaN             NaN             NaN
             NaN             NaN             NaN
             NaN             NaN             NaN
             NaN             NaN             NaN
             NaN             NaN             NaN
             NaN             NaN             NaN
             NaN             NaN             NaN
             NaN             NaN             NaN
             NaN             NaN             NaN
             NaN             NaN             NaN
             NaN             NaN             NaN
             NaN             NaN             NaN
             NaN             NaN             NaN
             NaN             NaN             NaN
             NaN             NaN             NaN
             NaN             NaN             NaN
             NaN             NaN             NaN
             NaN             NaN             NaN
             NaN             NaN             NaN
             NaN             NaN             NaN
             NaN             NaN             NaN
             NaN             NaN             NaN
             NaN             NaN             NaN
             NaN             NaN             NaN
             NaN             NaN             NaN
             NaN             NaN             NaN
             NaN             NaN             NaN
             NaN             NaN             NaN
             NaN             NaN             NaN
             NaN             NaN             NaN
             NaN             NaN             NaN
             NaN             NaN             NaN
             NaN             NaN             NaN
             NaN             NaN             NaN
             NaN             NaN             NaN
             NaN             NaN             NaN
             NaN             NaN             NaN
             NaN             NaN             NaN
             NaN             NaN             NaN
             NaN             NaN             NaN
             NaN             NaN             NaN
             NaN             NaN             NaN
             NaN             NaN             NaN
             NaN             NaN             NaN
             NaN             NaN             NaN
             NaN             NaN             NaN
             NaN             NaN             NaN
             NaN             NaN             NaN
             NaN             NaN             NaN
             NaN             NaN             NaN
             NaN             NaN             NaN
             NaN             NaN             NaN
             NaN             NaN             NaN
