Ca   V    O                             
   1.00000000000000     
     8.7661266995816796   -0.0073493479422360   -0.0013063376879234
     2.9207386937318800   14.0566873469831002    0.3521827091303620
     2.9388721879694599   -0.3661606841462040   14.0642722587809992
   Ca   V    O 
    11    48    96
Direct
  0.2136026862144931  0.5515314701413914  0.5103306986293177
  0.1990049271947711  0.0103201337031393  0.4505010374301719
  0.2157980981077756  0.9249236909669420  0.9863132912877006
  0.1973893049456308  0.5143699302685363  0.9486610587418483
  0.5346610495791566  0.0126050540630871  0.4405540917803847
  0.4717380714341033  0.0675848637275749  0.0143969117782348
  0.5389405276038630  0.4978263057041730  0.9409594950565605
  0.8628492302613608  0.0149790372747987  0.4504687693013310
  0.8449825152085353  0.0665378713907714  0.0157570952073485
  0.7848131912853020  0.5515859723109529  0.5099311824899573
  0.8633582568159426  0.5153896876338919  0.9484504301195855
  0.2352945596785858  0.0904041573535750  0.2410564177737129
  0.2250929516153661  0.0890343338416812  0.7975035942363391
  0.2185598505585489  0.5976374322331850  0.2834617251910672
  0.2410828626563273  0.5878545314023143  0.7384451559491296
  0.5754823814980270  0.0943105216372331  0.2371626605221167
  0.5540765561203784  0.0924601010383412  0.7903622228481879
  0.5566722278402665  0.5944304838604069  0.2900742427467691
  0.5823673718007925  0.5861786052033651  0.7365554735712578
  0.9151984775736679  0.0900787945985115  0.2405205728772088
  0.8986214987442054  0.0916542669170965  0.7902790343512720
  0.8936746469612586  0.5975279602648271  0.2835873356494290
  0.9096484596420709  0.5867697364817843  0.7388725118280774
  0.0666551853917099  0.2632331096851033  0.0951732080393626
  0.0910721101226528  0.2037344056537052  0.5979187940663593
  0.0774703204663396  0.7144434291949509  0.0915574213253763
  0.0598150813437073  0.7636706984454875  0.5902109775851159
  0.3923967789569929  0.2701932908486029  0.0960456865052919
  0.4210852714712701  0.2019426238566382  0.5965906388362825
  0.4221256471869808  0.7098701656149871  0.0950108307170723
  0.4042297659865497  0.7539289619130116  0.5891636811945489
  0.7335394305976592  0.2706757845758503  0.0960888518128584
  0.7454223323991869  0.2051140347631843  0.5995113927771456
  0.7455170310545185  0.7101744292785028  0.0951626717271168
  0.7432067211158397  0.7638426895171122  0.5892471296222226
  0.2998575714572098  0.2429874147022844  0.4107966909575893
  0.2806035393971555  0.2863277750137243  0.9075708517593810
  0.2905329462215391  0.7866468406102740  0.4047157215181016
  0.3120298506153034  0.7286832199572828  0.9050711697497320
  0.6345993746035816  0.2472108648651812  0.4073813807058286
  0.6241569479113522  0.2789585701807056  0.9089334627161065
  0.6195624016509527  0.7874012150102132  0.4048482811398486
  0.6347620694524707  0.7417470954275274  0.9080429021147509
  0.9678311275105713  0.2416822274328254  0.4135656019520866
  0.9600875184587352  0.2858475445858417  0.9098580174882116
  0.9553614495259666  0.7864669897921530  0.4035174663712056
  0.9632258921077437  0.7420677951836296  0.9097835001050143
  0.1229826638032705  0.4121931757345152  0.2663836255594063
  0.1455646875960781  0.3979083651169191  0.7132967437363291
  0.1475976925137488  0.9039952784858372  0.2156135403409323
  0.1307905481396432  0.9028988707523169  0.7570433405000685
  0.4536137322051204  0.4149511220944930  0.2623085724538967
  0.4816137566359657  0.3995878466786209  0.7143840319907540
  0.4800440821807115  0.9068115825713150  0.2108034275177744
  0.4666763365974447  0.9031311462428491  0.7548586246823348
  0.8022709177617813  0.4142799078943753  0.2636523613539623
  0.8178704498588303  0.3950520889024176  0.7143656061404116
  0.8083066456648851  0.9054265173712253  0.2116883123239148
  0.7932367475356088  0.9114471875850043  0.7645549155070981
  0.2975560338286414  0.3456817509068628  0.3302821945903744
  0.3012142618819382  0.3563966019906886  0.7960366857436796
  0.3023121596425895  0.8584585449667586  0.2922270096317234
  0.2961393576133133  0.8434658355445208  0.8302578253560569
  0.6266431838008870  0.3457949017758537  0.3284063329669209
  0.6350588367508436  0.3540574122586833  0.7988199887116139
  0.6345046836969033  0.8602477446003363  0.2929634702743940
  0.6291292770932770  0.8417297993924535  0.8252287793052986
  0.9579156762215035  0.3451672310019660  0.3318845430689450
  0.9691813408815051  0.3533972970330623  0.7965494941079783
  0.9674676556462884  0.8582179390149633  0.2900942636604924
  0.9616082302804969  0.8411719596875429  0.8255417812764421
  0.1774552399735327  0.1716192050406065  0.3492931405701754
  0.1630741973792169  0.2039408088662142  0.8632822939374734
  0.1643025525104562  0.7082267920805094  0.3579533251365561
  0.1756120460927519  0.6681746448067116  0.8488982130285052
  0.5136727775933707  0.1704209267881680  0.3496993592818001
  0.4904043488485001  0.2033667606887448  0.8665608446060773
  0.4966388249545020  0.7077780296471445  0.3595797585925808
  0.5186107698145292  0.6686128362725015  0.8434704521777192
  0.8438255674116633  0.1694353568885916  0.3521217933877452
  0.8340237167791074  0.2022138892107748  0.8668400816624597
  0.8296805609868869  0.7082144201075664  0.3579078796339417
  0.8473284125710236  0.6697047719404168  0.8456625462249505
  0.1887591318229482  0.3271722916864661  0.1633402725374964
  0.2108270882860239  0.2866206639429976  0.6429562429766804
  0.2103710262933802  0.7945877561262478  0.1353018549460501
  0.1965823540107294  0.8199815124018031  0.6566022034347014
  0.5230776894949898  0.3273445111832203  0.1582034619274779
  0.5421041585227542  0.2868007209028534  0.6450581719743980
  0.5408519498346109  0.7936274664238780  0.1398453120947210
  0.5245617711660984  0.8202965396272219  0.6552975721377265
  0.8560221661689766  0.3285052077079911  0.1613272275118476
  0.8756813644612720  0.2838178983347035  0.6437469455736533
  0.8705338488501582  0.7931078363205728  0.1380703989293934
  0.8568864302195820  0.8258470164641452  0.6595445359052832
  0.0720439499320378  0.1589823800230690  0.1792331062848831
  0.0709687968565476  0.1364068795690727  0.7113694024878683
  0.0714092887857234  0.6442592442119874  0.2024493767234006
  0.0787970304681735  0.6494149458785756  0.6702721769809799
  0.4042384947005644  0.1551107121949684  0.1755231435713114
  0.4022665964406542  0.1364361334620270  0.7118809567285780
  0.4047891197952040  0.6401511759710630  0.2059727593977172
  0.4111305873174302  0.6486786273990504  0.6752493804278359
  0.7465186694395172  0.1551541902514231  0.1759479494125031
  0.7355800362476899  0.1356872156751052  0.7148054531631587
  0.7326783229262332  0.6405339852753329  0.2065749075732199
  0.7470006570691581  0.6492829950373036  0.6689733470875154
  0.0764957054489130  0.0156483712933948  0.3117565880227104
  0.0561959265725989  0.0213804116873746  0.8704021768348582
  0.0541345686752521  0.5303701620900085  0.3605372193078225
  0.0749344585059575  0.5145374826035294  0.8092073863511047
  0.4083240442627556  0.0188559921224041  0.3061880168180551
  0.3869081530299923  0.0223559556004247  0.8708172393729896
  0.3827215527346937  0.5305063510894286  0.3571688610812771
  0.4116176036081853  0.5153919865348655  0.8084130931925486
  0.7457387910538813  0.0184040638664271  0.3055612243652277
  0.7212859375017047  0.0278687846831929  0.8659508226151331
  0.7284640983363673  0.5296936419617282  0.3578036265933449
  0.7470396888002639  0.5133460656908113  0.8090285212436967
  0.2763905648578913  0.2045397120003614  0.0223912021932975
  0.3030992301581108  0.1298438687377299  0.5221617913324863
  0.3021125340482484  0.6364534898129151  0.0175697972545734
  0.2756429432092631  0.7006960031578586  0.5181553952122258
  0.6118666351909496  0.1973591227774634  0.0246190661360188
  0.6323320990317640  0.1284837389209912  0.5260207209078374
  0.6323985736102813  0.6346421482010385  0.0197601166715984
  0.6163650608772784  0.7009692431822927  0.5180263134649081
  0.9429732658714087  0.2036939702813427  0.0233842090660659
  0.9679432572227284  0.1311268501427136  0.5239404413192474
  0.9642798838012610  0.6357519488905297  0.0199577750160600
  0.9490192199669352  0.6952722720778013  0.5156594536083503
  0.2873715293023054  0.4822779858439858  0.2058696456642863
  0.3062762435208626  0.4729187890722883  0.6511442201103392
  0.3114662324048041  0.9784625943466381  0.1393432867203472
  0.2884089807254711  0.9776338159376792  0.7120874444829610
  0.6227758786860136  0.4785039562887121  0.2119812907301579
  0.6511579973407962  0.4712025372250395  0.6499745191433846
  0.6426651860805848  0.9844325840994088  0.1413207063640982
  0.6182889134435428  0.9792083937321223  0.7099398237099663
  0.9589777079443138  0.4840349417204095  0.2037631139452358
  0.9782666640795838  0.4720732294969991  0.6479583730610088
  0.9801708298737353  0.9775825146247001  0.1404485680084306
  0.9595856573148112  0.9790483482350254  0.7094612199955179
  0.0940505553585353  0.2891254169734410  0.4868207926505974
  0.0717128565946510  0.3670605638679802  0.9745621834351397
  0.0722356649747411  0.8637700054819533  0.4729931491323214
  0.0965093922541200  0.7956272849760708  0.9777341699333064
  0.4303204248557293  0.2874593579117644  0.4848648892429424
  0.4049746496012858  0.3623720202567071  0.9746636922991954
  0.4063750653410736  0.8647866690428998  0.4711544004433676
  0.4259210111465777  0.7947746136950400  0.9806979681260373
  0.7581742913131038  0.2877352610871782  0.4856343409633439
  0.7414211236420201  0.3627643751825573  0.9750035936631321
  0.7416890433495027  0.8639312203601790  0.4723707600179594
  0.7590441625331010  0.7918616580135449  0.9810068821965530
 
             NaN             NaN             NaN
             NaN             NaN             NaN
             NaN             NaN             NaN
             NaN             NaN             NaN
             NaN             NaN             NaN
             NaN             NaN             NaN
             NaN             NaN             NaN
             NaN             NaN             NaN
             NaN             NaN             NaN
             NaN             NaN             NaN
             NaN             NaN             NaN
             NaN             NaN             NaN
             NaN             NaN             NaN
             NaN             NaN             NaN
             NaN             NaN             NaN
             NaN             NaN             NaN
             NaN             NaN             NaN
             NaN             NaN             NaN
             NaN             NaN             NaN
             NaN             NaN             NaN
             NaN             NaN             NaN
             NaN             NaN             NaN
             NaN             NaN             NaN
             NaN             NaN             NaN
             NaN             NaN             NaN
             NaN             NaN             NaN
             NaN             NaN             NaN
             NaN             NaN             NaN
             NaN             NaN             NaN
             NaN             NaN             NaN
             NaN             NaN             NaN
             NaN             NaN             NaN
             NaN             NaN             NaN
             NaN             NaN             NaN
             NaN             NaN             NaN
             NaN             NaN             NaN
             NaN             NaN             NaN
             NaN             NaN             NaN
             NaN             NaN             NaN
             NaN             NaN             NaN
             NaN             NaN             NaN
             NaN             NaN             NaN
             NaN             NaN             NaN
             NaN             NaN             NaN
             NaN             NaN             NaN
             NaN             NaN             NaN
             NaN             NaN             NaN
             NaN             NaN             NaN
             NaN             NaN             NaN
             NaN             NaN             NaN
             NaN             NaN             NaN
             NaN             NaN             NaN
             NaN             NaN             NaN
             NaN             NaN             NaN
             NaN             NaN             NaN
             NaN             NaN             NaN
             NaN             NaN             NaN
             NaN             NaN             NaN
             NaN             NaN             NaN
             NaN             NaN             NaN
             NaN             NaN             NaN
             NaN             NaN             NaN
             NaN             NaN             NaN
             NaN             NaN             NaN
             NaN             NaN             NaN
             NaN             NaN             NaN
             NaN             NaN             NaN
             NaN             NaN             NaN
             NaN             NaN             NaN
             NaN             NaN             NaN
             NaN             NaN             NaN
             NaN             NaN             NaN
             NaN             NaN             NaN
             NaN             NaN             NaN
             NaN             NaN             NaN
             NaN             NaN             NaN
             NaN             NaN             NaN
             NaN             NaN             NaN
             NaN             NaN             NaN
             NaN             NaN             NaN
             NaN             NaN             NaN
             NaN             NaN             NaN
             NaN             NaN             NaN
             NaN             NaN             NaN
             NaN             NaN             NaN
             NaN             NaN             NaN
             NaN             NaN             NaN
             NaN             NaN             NaN
             NaN             NaN             NaN
             NaN             NaN             NaN
             NaN             NaN             NaN
             NaN             NaN             NaN
             NaN             NaN             NaN
             NaN             NaN             NaN
             NaN             NaN             NaN
             NaN             NaN             NaN
             NaN             NaN             NaN
             NaN             NaN             NaN
             NaN             NaN             NaN
             NaN             NaN             NaN
             NaN             NaN             NaN
             NaN             NaN             NaN
             NaN             NaN             NaN
             NaN             NaN             NaN
             NaN             NaN             NaN
             NaN             NaN             NaN
             NaN             NaN             NaN
             NaN             NaN             NaN
             NaN             NaN             NaN
             NaN             NaN             NaN
             NaN             NaN             NaN
             NaN             NaN             NaN
             NaN             NaN             NaN
             NaN             NaN             NaN
             NaN             NaN             NaN
             NaN             NaN             NaN
             NaN             NaN             NaN
             NaN             NaN             NaN
             NaN             NaN             NaN
             NaN             NaN             NaN
             NaN             NaN             NaN
             NaN             NaN             NaN
             NaN             NaN             NaN
             NaN             NaN             NaN
             NaN             NaN             NaN
             NaN             NaN             NaN
             NaN             NaN             NaN
             NaN             NaN             NaN
             NaN             NaN             NaN
             NaN             NaN             NaN
             NaN             NaN             NaN
             NaN             NaN             NaN
             NaN             NaN             NaN
             NaN             NaN             NaN
             NaN             NaN             NaN
             NaN             NaN             NaN
             NaN             NaN             NaN
             NaN             NaN             NaN
             NaN             NaN             NaN
             NaN             NaN             NaN
             NaN             NaN             NaN
             NaN             NaN             NaN
             NaN             NaN             NaN
             NaN             NaN             NaN
             NaN             NaN             NaN
             NaN             NaN             NaN
             NaN             NaN             NaN
             NaN             NaN             NaN
             NaN             NaN             NaN
             NaN             NaN             NaN
             NaN             NaN             NaN
             NaN             NaN             NaN
             NaN             NaN             NaN
             NaN             NaN             NaN
             NaN             NaN             NaN
