Ca6 Co8 O16
1.0
        2.8460061550         0.0000000000         0.0000000000
        0.0000000000         9.7164878845         0.0000000000
        0.0000000000         0.0000000000        10.7079267502
   Ca   Co    O
    6    8   16
Direct
     0.000000000         0.355664849         0.500000000
     0.000000000         0.696054518         0.500000000
     0.000000000         0.006695040         0.000000000
     0.500000000         0.644335151         0.000000000
     0.500000000         0.993304968         0.500000000
     0.500000000         0.303945482         0.000000000
     0.000000000         0.874230683         0.747166753
     0.000000000         0.874230683         0.252833217
     0.000000000         0.376221716         0.754993856
     0.000000000         0.376221716         0.245006174
     0.500000000         0.623778284         0.745006144
     0.500000000         0.623778284         0.254993826
     0.500000000         0.125769317         0.247166783
     0.500000000         0.125769317         0.752833247
     0.000000000         0.707107961         0.835223854
     0.000000000         0.206645668         0.848193526
     0.000000000         0.707107961         0.164776146
     0.000000000         0.537558973         0.657151222
     0.000000000         0.206645668         0.151806489
     0.000000000         0.044933371         0.661034644
     0.000000000         0.537558973         0.342848778
     0.000000000         0.044933371         0.338965327
     0.500000000         0.462441057         0.842848778
     0.500000000         0.955066621         0.838965356
     0.500000000         0.793354332         0.651806474
     0.500000000         0.292892069         0.664776146
     0.500000000         0.955066621         0.161034673
     0.500000000         0.793354332         0.348193496
     0.500000000         0.462441057         0.157151237
     0.500000000         0.292892069         0.335223854
