Ca Co O 
 1.0000000000000000
     2.8460061699999999    0.0000000000000000    0.0000000000000000
     0.0000000000000000    9.7164875800000008    0.0000000000000000
     0.0000000000000000    0.0000000000000000   10.7079266099999995
 Ca  Co  O  
   6   8  16
Cartesian
 -0.0000000000000000  3.4095558417384360  5.3539633049999997
 -0.0000000000000000  6.7406534374034459  5.3539633049999997
  0.0000000000000000  0.0202195658212200 -0.0000000000000003
  1.4230030849999999  6.3069317382615653 -0.0000000000000007
  1.4230030849999999  9.6962680141787878  5.3539633049999997
  1.4230030849999999  2.9758341425965602 -0.0000000000000003
 -0.0000000000000000  8.5041285049597413  7.9713687799856752
 -0.0000000000000000  8.5041285049597395  2.7365578300143221
 -0.0000000000000000  3.6349586612945224  8.1228547567493745
  0.0000000000000000  3.6349586612945211  2.5850718532506254
  1.4230030849999999  6.0815289187054793  7.9390351582506238
  1.4230030849999999  6.0815289187054793  2.7688914517493748
  1.4230030849999999  1.2123590750402644  2.6174054749856763
  1.4230030849999999  1.2123590750402644  8.0905211350143240
 -0.0000000000000000  6.8794687439484887  9.0105290894798262
  0.0000000000000000  1.9840590262763538  9.2224190088544482
  0.0000000000000000  6.8794687439484878  1.6973975205201735
 -0.0000000000000000  5.1848481272642752  6.9569490087522858
 -0.0000000000000000  1.9840590262763531  1.4855076011455501
  0.0000000000000000  0.4850123336457008  7.0035051718761183
  0.0000000000000000  5.1848481272642744  3.7509776012477132
 -0.0000000000000000  0.4850123336456980  3.7044214381238785
  1.4230030849999999  4.5316394527357327  9.1049409062477125
  1.4230030849999999  9.2314752463543002  9.0583847431238826
  1.4230030849999999  7.7324285537236488  6.8394709061455510
  1.4230030849999999  2.8370188360515143  7.0513608255201721
  1.4230030849999999  9.2314752463543002  1.6495418668761199
  1.4230030849999999  7.7324285537236488  3.8684557038544476
  1.4230030849999999  4.5316394527357282  1.6029857037522879
  1.4230030849999999  2.8370188360515138  3.6565657844798287
