Trisodium tetramanganese dodecaoxotellur
   1.00000000000000     
     9.3541609999999995    0.0000000000000000    0.0000000000000000
     0.0000000000000000    9.6163319999999999    0.0000000000000000
     0.0000000000000000    0.0000000000000000   11.2118099999999998
   Ca   Mn   Te   O 
    11    16     8    48
Direct
  0.3030697456907522  0.2318038848067181  0.3207367146495310
  0.0791091049563349  0.7465049361641968  0.6387421192465627
  0.4237400133464321  0.7400964748852873  0.6382056275540168
  0.7520803469274904  0.2880875411591367  0.8483110547325895
  0.9202849061758165  0.7658190571782013  0.1551961134714335
  0.4237227740804781  0.2304616685815200  0.8455968319613281
  0.0807780424532136  0.2333103718335248  0.8467237128609800
  0.2507742108369349  0.7094003666608681  0.1488351221822359
  0.5796804520777599  0.7607268817631277  0.1599840957085240
  0.7527401759916845  0.7692111688010077  0.6864611722266725
  0.9178047431475073  0.2538818889396511  0.3616722404214592
  0.9123795596378720  0.6015669706341910  0.3866671716225617
  0.9115207346757682  0.0957035098528249  0.1333440894198570
  0.0795662629216451  0.4143608143978296  0.0942375919606273
  0.4209369117642734  0.4033261224817697  0.6099725836021350
  0.5933822426136590  0.0894056537983700  0.6146351564232325
  0.5954010602633566  0.1004255520743068  0.1462190912040395
  0.9080719022314180  0.0774451195338546  0.6220965510404028
  0.0874542049333194  0.4001439491057325  0.6128806729931160
  0.5840451966583915  0.5856931850917755  0.9021073782943370
  0.4111519044519515  0.9030806878259990  0.8663027849451684
  0.0915363148645649  0.9255608511615301  0.3842789900981243
  0.9204720357737017  0.5852684386625429  0.9093948816685554
  0.0909384895217114  0.9065696148782255  0.8699398076320969
  0.4059936208456566  0.9091740544684551  0.3861524774248640
  0.5830033392485703  0.5689387742955457  0.3845049846055676
  0.4196752532083163  0.4165907603588007  0.0856355138180235
  0.7556249638281691  0.4497285135191906  0.6021170827891786
  0.2497699701311584  0.5674375139674825  0.8689484658655123
  0.7442170904914770  0.9319756151286600  0.4043388157876708
  0.2500320895301622  0.0385843659805626  0.0903176670216776
  0.7481188381676582  0.9621946612457337  0.9164101407396497
  0.2532089936840736  0.0679649714330607  0.6007501245475467
  0.7495986865969968  0.4312648797769959  0.1278231525266214
  0.2442829140554872  0.5491970480909724  0.3934740343281529
  0.0657182692841180  0.6064418194193505  0.0397590342164508
  0.2474342702705858  0.8596289882966429  0.4940278604052722
  0.7493088692602971  0.0200505098225179  0.7452084921891940
  0.1044754696201171  0.3994801483459328  0.4271524788485774
  0.6053699032691485  0.1039697800533704  0.9485972051466840
  0.4034832059063754  0.1025701272950724  0.4791661134617394
  0.9007338387394335  0.5975179350564116  0.5765010678176234
  0.9385399711162882  0.3911877304445263  0.9614164076125129
  0.7603327096207668  0.4340819646634384  0.4294360483935745
  0.7551158566813075  0.5442350955937948  0.8069591984131754
  0.9093157394777451  0.4890264718328292  0.2289786952110783
  0.4082622383479418  0.5203600767852055  0.7648550331974829
  0.2549007819550150  0.9811971090658156  0.2631956696969792
  0.4498543779417666  0.0165312948315216  0.7164716842341768
  0.7559703412885614  0.2249189640778361  0.2075649344052483
  0.6013629422772718  0.8906746895971571  0.5341095346436923
  0.8991085368015530  0.1025909169494262  0.9500499478746418
  0.5511739324139746  0.9749753875858000  0.2860642717998646
  0.2473524036934286  0.5800521479327330  0.5650332053044326
  0.5729946007142266  0.2732875883966042  0.6835203763996157
  0.4337546840169126  0.2278324351210333  0.1432314402864510
  0.4346513286242379  0.6115145531654610  0.0310729689723813
  0.2525753491828200  0.3717703978178938  0.9403719894083110
  0.8994324574109834  0.8904547103220769  0.5352128782523108
  0.0906836171378974  0.5159644807082590  0.7662108294037195
  0.2554834312389218  0.2649387253270559  0.6693274634135802
  0.4048913050289958  0.4212612370030125  0.4231472596388981
  0.4301795142512740  0.7194839544791891  0.3292150361280108
  0.5877511436612912  0.4980951920693462  0.2182715822100648
  0.6013761427710527  0.5872305121518639  0.5749337614505707
  0.0486503587120709  0.0015438879750139  0.7244190127419305
  0.2530362545943722  0.4532675376838223  0.1870680473799350
  0.9499127704026056  0.0039069887051139  0.2837086342378088
  0.1047271641497738  0.8902398018953517  0.0528546039800900
  0.7460788408439054  0.7372305327622841  0.3336807255360437
  0.7531738360743948  0.6364532685697762  0.0484439288107910
  0.9459651766608551  0.7695663578762557  0.8364225002309549
  0.1042141540700667  0.1088949139941923  0.4702795738728363
  0.0565893552176584  0.2311407292919738  0.1624458874316625
  0.3978715238983777  0.8982838018528559  0.0577134689330096
  0.2515498061689221  0.7871732116032429  0.7797020711641760
  0.7586287295334559  0.9537874033845724  0.1115902643281587
  0.2441220376000630  0.0498043511799802  0.8956269288199120
  0.0619258704009964  0.7401109483146074  0.3220131325900325
  0.7601373818896446  0.1386700813419400  0.5163248652638119
  0.9373604749862116  0.2645074163460016  0.6835055212261751
  0.5634097210611818  0.7658029309219651  0.8263336842599114
  0.5655022902392811  0.3939989519591904  0.9558702178426782
 
             NaN             NaN             NaN
             NaN             NaN             NaN
             NaN             NaN             NaN
             NaN             NaN             NaN
             NaN             NaN             NaN
             NaN             NaN             NaN
             NaN             NaN             NaN
             NaN             NaN             NaN
             NaN             NaN             NaN
             NaN             NaN             NaN
             NaN             NaN             NaN
             NaN             NaN             NaN
             NaN             NaN             NaN
             NaN             NaN             NaN
             NaN             NaN             NaN
             NaN             NaN             NaN
             NaN             NaN             NaN
             NaN             NaN             NaN
             NaN             NaN             NaN
             NaN             NaN             NaN
             NaN             NaN             NaN
             NaN             NaN             NaN
             NaN             NaN             NaN
             NaN             NaN             NaN
             NaN             NaN             NaN
             NaN             NaN             NaN
             NaN             NaN             NaN
             NaN             NaN             NaN
             NaN             NaN             NaN
             NaN             NaN             NaN
             NaN             NaN             NaN
             NaN             NaN             NaN
             NaN             NaN             NaN
             NaN             NaN             NaN
             NaN             NaN             NaN
             NaN             NaN             NaN
             NaN             NaN             NaN
             NaN             NaN             NaN
             NaN             NaN             NaN
             NaN             NaN             NaN
             NaN             NaN             NaN
             NaN             NaN             NaN
             NaN             NaN             NaN
             NaN             NaN             NaN
             NaN             NaN             NaN
             NaN             NaN             NaN
             NaN             NaN             NaN
             NaN             NaN             NaN
             NaN             NaN             NaN
             NaN             NaN             NaN
             NaN             NaN             NaN
             NaN             NaN             NaN
             NaN             NaN             NaN
             NaN             NaN             NaN
             NaN             NaN             NaN
             NaN             NaN             NaN
             NaN             NaN             NaN
             NaN             NaN             NaN
             NaN             NaN             NaN
             NaN             NaN             NaN
             NaN             NaN             NaN
             NaN             NaN             NaN
             NaN             NaN             NaN
             NaN             NaN             NaN
             NaN             NaN             NaN
             NaN             NaN             NaN
             NaN             NaN             NaN
             NaN             NaN             NaN
             NaN             NaN             NaN
             NaN             NaN             NaN
             NaN             NaN             NaN
             NaN             NaN             NaN
             NaN             NaN             NaN
             NaN             NaN             NaN
             NaN             NaN             NaN
             NaN             NaN             NaN
             NaN             NaN             NaN
             NaN             NaN             NaN
             NaN             NaN             NaN
             NaN             NaN             NaN
             NaN             NaN             NaN
             NaN             NaN             NaN
             NaN             NaN             NaN
