V  P  O 
 1.0000000000000000
     0.0000000000000000    6.4878280000000004   -0.0000040000000000
    -0.0000340000000000   -0.0000050000000000    7.8354119999999998
     7.4491810000000003    0.0000000000000000   -0.0000360000000000
 V   P   O  
   4   4  20
Cartesian
  2.4328061745951661  1.6219524517034587  5.6114062486347853
  6.1574380011373107  1.6219550439215533  6.1417030149481553
  1.2916755344804527  4.8658716343342245  1.6937931289637735
  5.0162490015391317  4.8658691405178338  2.2238915378895490
  1.0111494916083965  1.6219580268347740  0.7263760222778783
  2.7134510677955186  4.8658679053004770  4.6440873703581689
  4.7357348164087254  1.6219545350410911  3.1912785673389292
  6.4379932563959947  4.8658672305133228  7.1089559282402659
  0.3414609891755410  4.8658669278914619  7.8965598247922841
  3.3830806612637185  1.6219528395643192  3.9789675076343625
  4.0660989441114426  4.8658690034457264  3.8565369258377249
  7.1077007448742942  1.6219593585703649 -0.0613794286652090
  0.8530970945841776  1.6219521260388756  5.2173358160317909
  2.8712801836490551  4.8658721797475746  1.2994588517095325
  4.5777415232033514  1.6219549007329244  6.5357473128938395
  6.5958649749679692  4.8658684421071836  2.6181609694311327
  1.5735403817999070  4.8658705044817685  3.5591445938698874
  2.1510229069201761  1.6219535569241521  7.4769759562771787
  5.2981413455248312  4.8658697972505882  0.3584877458122273
  5.8756107466942327  1.6219540567622015  4.2760922589700474
  1.0930254086242137  0.3664351335069460  1.6095694068002981
  1.0930269659054572  2.8774818524261994  1.6095682244061940
  2.6316399502985508  3.6103076427759691  5.5272595253337542
  2.6316417648120076  6.1214281813969613  5.5272606942168441
  4.8175634846550244  0.3663861639686434  2.3081026398598001
  4.8175621046436152  2.8775222032275423  2.3081019121311113
  6.3562276085489291  3.6102801808087657  6.2258115905052875
  6.3562254232137363  6.1214539559511083  6.2258128161123070
