Ca V  As O 
1.0
        9.0472955704         0.0000000000         0.0000000000
        0.0000000000        13.7945890427         0.0000000000
        0.0000000000         5.7673484605        13.2026123993
   Ca    V   As    O
   15   16   16   80
Direct
     0.568966031         0.624880373         0.374720216
     0.568966031         0.124880366         0.374720216
     0.568966031         0.124880366         0.874720216
     0.568966031         0.624880373         0.874720216
     0.068966024         0.375119656         0.375279784
     0.068966024         0.375119656         0.875279784
     0.068966024         0.875119686         0.375279784
     0.068966024         0.875119686         0.875279784
     0.431033999         0.375119656         0.125279784
     0.431033999         0.875119686         0.125279784
     0.431033999         0.875119686         0.625279784
     0.931034029         0.124880359         0.124720223
     0.931034029         0.124880359         0.624720216
     0.931034029         0.624880373         0.124720223
     0.931034029         0.624880373         0.624720216
     0.749970436         0.375516087         0.249817401
     0.749970436         0.375516087         0.749817371
     0.749970436         0.875516057         0.249817401
     0.749970436         0.875516057         0.749817371
     0.249970406         0.124483921         0.000182592
     0.249970406         0.124483921         0.500182569
     0.249970406         0.624483943         0.000182592
     0.249970406         0.624483943         0.500182569
     0.250029564         0.124483913         0.250182599
     0.250029564         0.124483913         0.750182629
     0.250029564         0.624483943         0.250182599
     0.250029564         0.624483943         0.750182629
     0.750029564         0.375516087         0.499817401
     0.750029564         0.375516087         0.999817371
     0.750029564         0.875516057         0.499817401
     0.750029564         0.875516057         0.999817371
     0.575291693         0.125664920         0.124667913
     0.575291693         0.125664920         0.624667883
     0.575291693         0.625664949         0.124667913
     0.575291693         0.625664949         0.624667883
     0.075291708         0.374335080         0.125332087
     0.075291708         0.374335080         0.625332117
     0.075291708         0.874335051         0.125332087
     0.075291708         0.874335051         0.625332117
     0.424708277         0.374335080         0.375332087
     0.424708277         0.374335080         0.875332117
     0.424708277         0.874335051         0.375332087
     0.424708277         0.874335051         0.875332117
     0.924708247         0.125664920         0.374667943
     0.924708247         0.125664920         0.874667943
     0.924708247         0.625664949         0.374667943
     0.924708247         0.625664949         0.874667943
     0.693983734         0.215366542         0.039580785
     0.693983734         0.215366542         0.539580762
     0.693983734         0.715366542         0.039580785
     0.693983734         0.715366542         0.539580762
     0.193983763         0.284633428         0.210419208
     0.193983763         0.284633428         0.710419178
     0.193983763         0.784633398         0.210419208
     0.193983763         0.784633398         0.710419178
     0.306016237         0.284633458         0.460419208
     0.306016237         0.284633458         0.960419178
     0.306016237         0.784633458         0.460419208
     0.306016237         0.784633458         0.960419178
     0.806016207         0.215366542         0.289580792
     0.806016207         0.215366542         0.789580822
     0.806016207         0.715366542         0.289580792
     0.806016207         0.715366542         0.789580822
     0.530974925         0.320904464         0.307421833
     0.530974925         0.320904464         0.807421803
     0.530974925         0.820904493         0.307421833
     0.530974925         0.820904493         0.807421803
     0.030974930         0.179095551         0.442578167
     0.030974930         0.179095551         0.942578197
     0.030974930         0.679095566         0.442578167
     0.030974930         0.679095566         0.942578197
     0.469025046         0.179095551         0.192578152
     0.469025046         0.179095551         0.692578137
     0.469025046         0.679095566         0.192578152
     0.469025046         0.679095566         0.692578137
     0.969025135         0.320904464         0.057421848
     0.969025135         0.320904464         0.557421863
     0.969025135         0.820904493         0.057421848
     0.969025135         0.820904493         0.557421863
     0.677860200         0.376068413         0.124515705
     0.677860200         0.376068413         0.624515712
     0.677860200         0.876068413         0.124515705
     0.677860200         0.876068413         0.624515712
     0.177860186         0.123931587         0.125484303
     0.177860186         0.123931587         0.625484288
     0.177860186         0.623931587         0.125484303
     0.177860186         0.623931587         0.625484288
     0.322139800         0.123931579         0.375484288
     0.322139800         0.123931579         0.875484288
     0.322139800         0.623931587         0.375484288
     0.322139800         0.623931587         0.875484288
     0.822139800         0.376068413         0.374515712
     0.822139800         0.376068413         0.874515712
     0.822139800         0.876068413         0.374515712
     0.822139800         0.876068413         0.874515712
     0.968904555         0.428985685         0.192160308
     0.968904555         0.428985685         0.692160308
     0.968904555         0.928985715         0.192160308
     0.968904555         0.928985715         0.692160308
     0.468904465         0.071014300         0.057839695
     0.468904465         0.071014300         0.557839692
     0.468904465         0.571014285         0.057839695
     0.468904465         0.571014285         0.557839692
     0.031095508         0.071014315         0.307839692
     0.031095508         0.071014315         0.807839692
     0.031095508         0.571014285         0.307839692
     0.031095508         0.571014285         0.807839692
     0.531095505         0.428985685         0.442160308
     0.531095505         0.428985685         0.942160308
     0.531095505         0.928985715         0.442160308
     0.531095505         0.928985715         0.942160308
     0.805111885         0.036327139         0.459147841
     0.805111885         0.036327139         0.959147811
     0.805111885         0.536327124         0.459147841
     0.805111885         0.536327124         0.959147811
     0.305111915         0.463672876         0.290852159
     0.305111915         0.463672876         0.790852189
     0.305111915         0.963672876         0.290852159
     0.305111915         0.963672876         0.790852189
     0.194888070         0.463672876         0.040852163
     0.194888070         0.463672876         0.540852189
     0.194888070         0.963672876         0.040852163
     0.194888070         0.963672876         0.540852189
     0.694888055         0.036327124         0.209147841
     0.694888055         0.036327124         0.709147811
     0.694888055         0.536327124         0.209147841
     0.694888055         0.536327124         0.709147811
