Ca Cr P  O 
1.0
        8.3353557587         0.0000000000         0.0000000000
        0.0000078604         7.3788599968         0.0000000000
        0.0000067090         3.5965666856         9.4130187478
   Ca   Cr    P    O
    3    4    8   28
Direct
     0.508727908         0.742417037         0.259055823
     0.008732370         0.257547438         0.240953013
     0.991332114         0.742384434         0.759114981
     0.988459647         0.755814254         0.243316233
     0.511451721         0.755697548         0.743225038
     0.488461286         0.244281635         0.256693572
     0.011442225         0.244269475         0.756778121
     0.250037819         0.635556459         0.048184555
     0.250010669         0.635590613         0.548221171
     0.749983013         0.364464253         0.451828063
     0.763005316         0.947431028         0.447043449
     0.750003755         0.364434659         0.951783717
     0.262979835         0.052579224         0.052939013
     0.737048268         0.947390854         0.947098255
     0.237038806         0.052560218         0.552895367
     0.586755991         0.408677638         0.372551203
     0.733505428         0.327476472         0.608963013
     0.315914929         0.833905816         0.066190563
     0.882281899         0.501258552         0.370956421
     0.684008896         0.166145787         0.933814406
     0.898371696         0.913564503         0.356037557
     0.766162336         0.820058107         0.602847993
     0.097013161         0.034117695         0.124272957
     0.266442984         0.672486544         0.391094804
     0.117706075         0.498721838         0.629020512
     0.733800828         0.819998801         0.102930874
     0.913279593         0.408712238         0.872562289
     0.601622462         0.913613498         0.856055796
     0.617726564         0.501250267         0.870988250
     0.101704985         0.086373739         0.643919528
     0.398433238         0.086425662         0.143955767
     0.402873605         0.034175903         0.624248564
     0.382271409         0.498682022         0.129079148
     0.233483836         0.672533095         0.891048193
     0.184022248         0.833918571         0.566204846
     0.233830065         0.179996863         0.397115350
     0.266208410         0.179934740         0.897120535
     0.597102463         0.965836167         0.375782013
     0.766427755         0.327511489         0.108893327
     0.902979314         0.965868056         0.875707209
     0.413313508         0.591277361         0.627463877
     0.086776271         0.591349244         0.127371445
     0.815939724         0.166082308         0.433783591
