Ca V  P  O 
 1.0000000000000000
    11.1296310424999998    0.0000000000000000    0.0000000000000000
     2.8994549615000000   10.7443060018000001    0.0000000000000000
    -1.6016288384999999    2.0900824976000001   13.7540809288000005
 Ca  V   P   O  
  11  12  24  84
Selective dynamics
Cartesian
  4.3175103715592869  4.7906103643999955  5.3079977521370640   T   T   T
  3.5458671123661700  5.9895056354171681 13.7085852309457881   T   T   T
  5.4883342471207346 10.6886227730361298  9.2024031964326429   T   T   T
  4.9854057972739430 11.3518371625126413 13.7236461422659382   T   T   T
  6.0642309024564343 10.0080755062822888  4.5504104244968717   T   T   T
  9.6319961882577569  5.3475368592957091  9.2089558446243718   T   T   T
  9.1036979155920807  6.0311500500474837 13.7798117300396790   T   T   T
 10.1464200167371192  4.6223085641929051  4.6091910561086422   T   T   T
 11.0783987609637364 10.6984774686134081  9.1822846333050592   T   T   T
 10.5521066351105439 11.3904800522878720 13.7481611502258012   T   T   T
 11.6103369419661249 10.0278510514973309  4.5943630267045430   T   T   T
  0.7805189036810133  0.6054015631923172 -0.0044925452576119   T   T   T
  0.2623780333465813  1.2735420746008754  4.5688126626703580   T   T   T
 -0.2861473255643320  2.0267405577173920  9.1989644434632911   T   T   T
  2.2365055904068338  5.9573636055123744  0.0097561767225776   T   T   T
  1.6594825642627054  6.6837319063966047  4.5901857589283983   T   T   T
  1.2164832991113632  7.3147158333895135  9.1646518075871839   T   T   T
  6.3307816899496832  0.5872228608735653 -0.0195001094063225   T   T   T
  5.7958663509435890  1.3074331369428769  4.5951130895539238   T   T   T
  5.2412338157654919  2.0372334506990395  9.1671678617660000   T   T   T
  7.7735347758809716  5.9461828500966583  0.0106480204713871   T   T   T
  7.2159544006418042  6.6368189451018473  4.5687542037937146   T   T   T
  6.5769222802940552  7.2516979075830834  9.1799672526411094   T   T   T
  3.7116641889909343  1.4941259388205763  1.8917530883825420   T   T   T
  3.1312590864513434  2.1392412258914772  6.4962232514348139   T   T   T
  2.6897386787415627  2.8807522129667569 11.0610382454898950   T   T   T
  5.1509244561278900  6.8131023023976711  1.9414828051954303   T   T   T
  4.6371836852638300  7.6448669201561943  6.5202372879840498   T   T   T
  4.0467202538533140  8.2822728108821373 11.0977928614731471   T   T   T
  9.2960799612175684  1.5030275275983338  1.8803896121887040   T   T   T
  8.7935557071356545  2.2025405015353985  6.4850330161903855   T   T   T
  8.1988407545246016  2.8857734770297201 11.0795877104088998   T   T   T
 10.7258442211421272  6.8612791971595080  1.9042804139555234   T   T   T
 10.1762155075400642  7.5643185934208486  6.4922969605329683   T   T   T
  9.6674053622844074  8.2358939593095961 11.0576728234656585   T   T   T
  1.9027905151509572  3.9114656354352277  2.7203101033797461   T   T   T
  1.3089702457616361  4.6212761886686300  7.2979544372862781   T   T   T
  0.8272394456117783  5.2646631123336558 11.8638719198408698   T   T   T
  3.3109315658941587  9.2557395809068996  2.6762074445946089   T   T   T
  2.8039656788043157 10.0094467305607182  7.2894943845448594   T   T   T
  2.2890958758521576 10.6852017958690375 11.8752682069584470   T   T   T
  7.4405395255822855  3.8615460911431150  2.6714228316739876   T   T   T
  6.9543515005914323  4.5430893028889043  7.2636596378610605   T   T   T
  6.3497045386868960  5.2996266406973573 11.8568206197998425   T   T   T
  8.8796246233540170  9.2710112879000697  2.6840371009895851   T   T   T
  8.3252728667661078  9.9607343740188750  7.2938767734288783   T   T   T
  7.8268418431465712 10.6463722667144847 11.8430699646026802   T   T   T
  4.1357430859663298  0.8792756974664154  3.2316027331083883   T   T   T
  3.5595600801281382  1.5321878715343844  7.8361678913046102   T   T   T
  3.0733468708936988  2.2170253944929232 12.4089480435581994   T   T   T
  5.5272044426015405  6.1974484314452800  3.2912343273994815   T   T   T
  5.0755569452017877  6.9325390705695433  7.7779537358020177   T   T   T
  4.5100891836928128  7.6313809608688858 12.4104485470594668   T   T   T
  9.6956188091788587  0.8880456367820156  3.2296933149421045   T   T   T
  9.1713197638551378  1.5872778710436906  7.8399086821462642   T   T   T
  8.6350050096108077  2.2442336106074534 12.4071756708311689   T   T   T
 11.1304650925127131  6.2307699871227520  3.2414554532127933   T   T   T
 10.6127877974492382  6.9274439331990436  7.8172102300380271   T   T   T
 10.0852618708964101  7.6260370267506215 12.4021570933790688   T   T   T
  2.5980662255990228  4.9470971505496095  3.6258272375950771   T   T   T
  2.0225997679755108  5.6686044664035089  8.1223675042433321   T   T   T
  1.4762349419528644  6.3374870232189275 12.7625781581316069   T   T   T
  4.0011017173689840 10.3269064778616375  3.5481808560149686   T   T   T
  3.4483985539768982 11.1073571639311357  8.1605682380333722   T   T   T
  2.9230419250664390 11.7868227648232171 12.7553176748859869   T   T   T
  8.1061544541938240  4.9369998157096813  3.5597936796156429   T   T   T
  7.5656805533540803  5.6069847442185408  8.2028734442725302   T   T   T
  7.0554524356072967  6.3419163866858010 12.7691966605132450   T   T   T
  9.5597189918842922 10.3369364232648646  3.5667527108005039   T   T   T
  9.0035429361194232 11.0310686853132704  8.1772526579979967   T   T   T
  8.5099122027550198 11.7106006967946463 12.7261563825941568   T   T   T
  0.8131665114782853  3.1151351683592230  3.4536039188111860   T   T   T
  0.2122153211472400  3.8343589916363099  8.0381227463745066   T   T   T
 -0.2934481627594958  4.5102170474684051 12.6026455645316346   T   T   T
  2.2022052981883324  8.5031630986844675  3.4171372701009606   T   T   T
  1.7236503783496024  9.2076979198643443  8.0196750162386063   T   T   T
  1.2091535039756194  9.8835502602468335 12.6102589880936122   T   T   T
  6.4592653922867473  2.9631505891524732  3.3831796318898699   T   T   T
  5.9563399766089962  3.5962087892719588  7.8727580798335826   T   T   T
  5.2877115971341899  4.5081222116598409 12.6310320801716127   T   T   T
  7.7939683067318084  8.4858917642551823  3.4268068032468841   T   T   T
  7.2441884551225098  9.1603165249096801  8.0324824763204496   T   T   T
  6.7516747885849018  9.8529702296830131 12.5920237574752250   T   T   T
  1.3804182731201056  4.5065381327652743  1.4017219493266213   T   T   T
  0.8113836663854611  5.1592711672732490  5.9344515565192513   T   T   T
  0.3429283593863543  5.8333716545649184 10.5217002750719413   T   T   T
  2.8280985029023324  9.8361724196635159  1.3379191126283756   T   T   T
  2.3190261962110834 10.5273760133477126  5.9273533065176238   T   T   T
  1.7940640389836868 11.2205421067163655 10.5240652547108038   T   T   T
  6.9153142151771583  4.4560415611364474  1.3559261265837670   T   T   T
  6.4590938523342212  5.1682251009756541  5.9469093272606672   T   T   T
  5.8866217494114306  5.8686966092226509 10.5366305698250908   T   T   T
  8.3869351007106854  9.8283719704215766  1.3430274167448328   T   T   T
  7.8444309314915275 10.5296123508037081  5.9515697087918280   T   T   T
  7.3274307662838014 11.2125125802012899 10.5103479481657249   T   T   T
  3.1170865007649509  2.9501443597236632  2.2501327617589624   T   T   T
  2.5173646917623467  3.5990897270204356  6.8291695655860210   T   T   T
  2.0761160778025216  4.3117252821582959 11.5425965548303502   T   T   T
  4.5590330084884361  8.3005135913478689  2.3037142989267743   T   T   T
  4.1276959462905838  9.1221450307971104  6.9753589177127289   T   T   T
  3.6292686346778305  9.8159744978284049 11.5746703864101264   T   T   T
  8.7666069301766836  2.9990054464230109  2.2013235467437196   T   T   T
  8.3030912037157840  3.7211090096805965  6.7970737766168199   T   T   T
  7.6236360500631513  4.3327654693507842 11.4860014751895481   T   T   T
 10.1489393362249878  8.3308682098426132  2.2986961221802114   T   T   T
  9.6003945520059641  9.0274717260530934  6.9091480275174009   T   T   T
  9.1012921748628788  9.7146277410315971 11.4384029042852031   T   T   T
  2.6758120515701593  0.6315147418979772  1.1584323961782359   T   T   T
  2.1289209285849942  1.2586434918263769  5.7401288594688484   T   T   T
  1.6102568031046105  2.0528570705752962 10.3309357430975126   T   T   T
  4.1196559247751390  6.0022369984921049  1.1527777563907977   T   T   T
  3.5062123593369479  6.9121013007950358  5.7818187078895029   T   T   T
  2.8593500380785071  7.6382643911817629 10.4483669012004796   T   T   T
  8.2570266631002998  0.6544504119220147  1.1393935070529002   T   T   T
  7.7373825799922509  1.3680318869229373  5.7524022724217474   T   T   T
  7.1707100211902199  2.0317333498191643 10.3280219135339131   T   T   T
  9.6871908804867424  6.0257532519341286  1.1526662120764197   T   T   T
  9.1310543164383287  6.7318530350599977  5.7423843206739118   T   T   T
  8.6105629708581937  7.3959446405729272 10.3261638886661409   T   T   T
  4.9171092002421730  1.8607908276424279  1.0057648817651550   T   T   T
  4.3331078372391634  2.5389888322100171  5.6145580361722383   T   T   T
  3.8924209281582671  3.2280413011572326 10.2087662475964791   T   T   T
  6.3696348191569783  7.2160647928011405  1.0725185051668953   T   T   T
  5.8129612304341656  7.9799497561477786  5.5697911187570011   T   T   T
  5.2454368911055482  8.5993215375247960 10.1677366930116300   T   T   T
 10.5266298830216503  1.8503564103040324  1.0107675671706269   T   T   T
 10.0188096452226230  2.5251532394518179  5.6023220190415639   T   T   T
  9.4121318250311052  3.2693769416974359 10.2043544747701311   T   T   T
 11.9359880466754635  7.2462461754216845  1.0285799030015883   T   T   T
 11.3719680981100542  7.9637240300879633  5.6045073959156921   T   T   T
 10.8722955175854477  8.6017608787342574 10.1652374400479104   T   T   T
