Ca Mn V  P  O 
1.0
       14.7226343155         0.0000000000         0.0000000000
        0.1734356336         8.2557572967         0.0000000000
        2.1481505702         0.3010891179        13.6767759557
   Ca   Mn    V    P    O
    5    6    6   24   84
Direct
     0.381421089         0.926694810         0.494309813
     0.049916204         0.918484688         0.157444134
     0.881421089         0.926694810         0.494309813
     0.457029909         0.415194362         0.833602786
     0.957029939         0.415194362         0.833602786
     0.282966018         0.007788314         0.168802381
     0.782966018         0.007788314         0.168802381
     0.117045529         0.010593585         0.509026647
     0.617045522         0.010593585         0.509026647
     0.444406748         0.983872294         0.838553667
     0.944406748         0.983872294         0.838553667
     0.054536790         0.488962471         0.166443303
     0.554536819         0.488962471         0.166443303
     0.388261616         0.494781107         0.492888212
     0.888261616         0.494781107         0.492888212
     0.222020671         0.505283296         0.830255568
     0.722020686         0.505283296         0.830255568
     0.421024978         0.756341696         0.038707841
     0.921024978         0.756341696         0.038707841
     0.226788968         0.681264162         0.037549224
     0.726788998         0.681264162         0.037549224
     0.406045705         0.265144140         0.297548234
     0.906045675         0.265144140         0.297548234
     0.102822296         0.189387947         0.300230592
     0.602822304         0.189387947         0.300230592
     0.257534623         0.773909748         0.368073761
     0.757534623         0.773909748         0.368073761
     0.061948076         0.689954519         0.370118171
     0.561948061         0.689954519         0.370118171
     0.434783995         0.199278042         0.632362604
     0.934783995         0.199278042         0.632362604
     0.238393947         0.280040264         0.630080342
     0.738393962         0.280040264         0.630080342
     0.399632335         0.699588895         0.696513236
     0.899632335         0.699588895         0.696513236
     0.094325244         0.773485005         0.706216812
     0.594325244         0.773485005         0.706216812
     0.273657769         0.181854054         0.960483968
     0.773657799         0.181854054         0.960483968
     0.077701718         0.264718741         0.965600193
     0.577701688         0.264718741         0.965600193
     0.331791431         0.647703707         0.059127841
     0.831791401         0.647703707         0.059127841
     0.403036505         0.917976379         0.095332533
     0.903036475         0.917976379         0.095332533
     0.279763669         0.178083569         0.069870740
     0.779763699         0.178083569         0.069870740
     0.196305439         0.848031223         0.078067146
     0.696305454         0.848031223         0.078067146
     0.175276577         0.541422844         0.092667781
     0.675276577         0.541422844         0.092667781
     0.434682697         0.417372704         0.235999763
     0.934682727         0.417372704         0.235999763
     0.053638134         0.290367335         0.075159162
     0.553638160         0.290367335         0.075159162
     0.497894168         0.139859512         0.285621017
     0.997894168         0.139859512         0.285621017
     0.996925831         0.666351974         0.083092652
     0.496925831         0.666351974         0.083092652
     0.334824681         0.163132250         0.262573749
     0.834824681         0.163132250         0.262573749
     0.284599066         0.822217047         0.260370582
     0.784599066         0.822217047         0.260370582
     0.154117793         0.056533404         0.234310716
     0.654117823         0.056533404         0.234310716
     0.119270839         0.360458314         0.261201799
     0.619270861         0.360458314         0.261201799
     0.057329692         0.691008031         0.259118587
     0.557329714         0.691008031         0.259118587
     0.385649502         0.297305405         0.407443792
     0.885649502         0.297305405         0.407443792
     0.334953845         0.679492295         0.406873703
     0.834953845         0.679492295         0.406873703
     0.169492349         0.661810994         0.381752163
     0.669492364         0.661810994         0.381752163
     0.236531511         0.924462378         0.434664696
     0.736531496         0.924462378         0.434664696
     0.113192499         0.173874751         0.407489121
     0.613192499         0.173874751         0.407489121
     0.486290932         0.063098535         0.570349574
     0.986290932         0.063098535         0.570349574
     0.453269064         0.369110197         0.592152715
     0.953269064         0.369110197         0.592152715
     0.031039285         0.854653418         0.414059609
     0.531039298         0.854653418         0.414059609
     0.013286200         0.547786891         0.424715072
     0.513286173         0.547786891         0.424715072
     0.390657902         0.690495789         0.587392867
     0.890657902         0.690495789         0.587392867
     0.268774420         0.427465767         0.564035416
     0.768774390         0.427465767         0.564035416
     0.329718351         0.153239504         0.620207667
     0.829718351         0.153239504         0.620207667
     0.165613040         0.178730786         0.598080337
     0.665613055         0.178730786         0.598080337
     0.446555316         0.188760206         0.740494370
     0.946555316         0.188760206         0.740494370
     0.123015441         0.826668322         0.599148393
     0.623015463         0.826668322         0.599148393
     0.379039824         0.867987692         0.733578384
     0.879039824         0.867987692         0.733578384
     0.350386381         0.561876416         0.759334564
     0.850386381         0.561876416         0.759334564
     0.217045292         0.326244265         0.737679899
     0.717045307         0.326244265         0.737679899
     0.165698156         0.666060567         0.743247032
     0.665698171         0.666060567         0.743247032
     0.502367675         0.178323120         0.923231065
     0.002367675         0.178323120         0.923231065
     0.006117298         0.650477767         0.710415661
     0.506117284         0.650477767         0.710415661
     0.446822971         0.782708526         0.928539217
     0.946823001         0.782708526         0.928539217
     0.061930161         0.917314470         0.771735787
     0.561930180         0.917314470         0.771735787
     0.325673252         0.042870212         0.905258417
     0.825673223         0.042870212         0.905258417
     0.299616128         0.349394411         0.912867844
     0.799616098         0.349394411         0.912867844
     0.229338259         0.673886061         0.927003324
     0.729338288         0.673886061         0.927003324
     0.097498529         0.424294204         0.903822541
     0.597498536         0.424294204         0.903822541
     0.167956159         0.149298921         0.947667956
     0.667956173         0.149298921         0.947667956
