Ca V  O                                 
   1.00000000000000     
    11.0672440804466365    0.0058102340004227   -0.0445569566102348
    -1.8396879708110814    7.8938553223814845    0.2784036157475661
    -0.0411985584084781   -2.7371691410577443   10.0270698180536328
Ca V O  
               5              18              45
Direct
  0.6832939879452766  0.9943421554735821  0.3617282335672840
  0.1882109086303103  0.1124800750643615  0.3258276599578309
  0.1514410148206764  0.9235329556071719  0.6563850381863077
  0.4813512236156896  0.9280132923539028  0.6502632813014486
  0.8016852895773852  0.8353455771197886  0.6784851290206788
  0.0413503813455023  0.2579357502015753  0.1145672050280169
  0.3836695751100692  0.2607613283004966  0.1148328760599640
  0.7140301633554955  0.2644211675530102  0.1178477957001149
  0.3043459743520600  0.8228560107732292  0.9156226588080969
  0.6327497833692419  0.8244497067626355  0.9209202688293061
  0.9726692188677859  0.8183544209968900  0.9189427880071932
  0.1133823888958787  0.6630924179224778  0.0929264610388003
  0.4497830021874520  0.6726067983944688  0.0996570050134338
  0.7824204629278313  0.6749574214909657  0.0891602374151290
  0.2288986163619029  0.3579381857089956  0.9085958643352328
  0.5620613296873245  0.3570456823784482  0.8996407004590807
  0.8895616596948059  0.3309096588698850  0.8891747519699891
  0.0954781996801870  0.5428855696976314  0.3966119619707200
  0.4273436335295884  0.5227961437934212  0.3945187131227854
  0.7568980912943744  0.5566668769128356  0.3946866732237666
  0.2350063863819898  0.3902273294330953  0.5903112010109552
  0.5728739653262451  0.3780441707567306  0.5765051445851626
  0.9005211762889047  0.3994972799200980  0.5769829584182133
  0.0095821818113038  0.0278126736913222  0.0109998960341784
  0.3403723044854274  0.0305207650186148  0.0133409795525807
  0.6688920229820710  0.0317659937322219  0.0165906981175965
  0.2765057754090989  0.6421066771461668  0.0429592700376418
  0.6102923451673590  0.6406710766127119  0.0270639794227279
  0.9421102800739973  0.6490563345860565  0.0324549674483734
  0.0647731499287403  0.3919549589081299  0.9544336775309290
  0.4033437639719750  0.4007009924220171  0.9599306835438952
  0.7357054162469865  0.3908617159541166  0.9480881372344854
  0.2161902198588521  0.2832415501199748  0.0863532245332834
  0.5524899150991800  0.2894210176145577  0.0813219879476392
  0.8805973370344446  0.2777110919331633  0.0730046445525332
  0.1326917593250769  0.7617424265115460  0.9348783380804377
  0.4575531873985383  0.7675313078494455  0.9402212210834904
  0.7952993058934084  0.7814181285357620  0.9174225873886215
  0.1414821115853186  0.8458280013632304  0.2068192143973491
  0.5010576785518595  0.8511770060045052  0.2154135472585423
  0.8000765460930026  0.8593976295676882  0.1996070852972309
  0.1980662503418174  0.1571524710654586  0.8225494123454453
  0.5201953544139997  0.1527750796958713  0.8213235754947235
  0.8560633895614274  0.1294053926557126  0.8017088648271553
  0.0851827707021258  0.5159304852371847  0.2130639168503663
  0.4239126587361781  0.5183288947938749  0.2150147905096205
  0.7591679149362918  0.5274439491612384  0.2091043350705917
  0.2474280217299807  0.4627532485135006  0.7645787599300107
  0.5786377776723128  0.4485723306324374  0.7544625904460673
  0.9102275423466324  0.4414146934272694  0.7543092879675015
  0.0312222822873522  0.2182247088609799  0.2664671780972370
  0.3790324870597175  0.2219524965646755  0.2682032302148372
  0.7141107787381671  0.2306931800521923  0.2707362540654614
  0.3056292691118685  0.8366783575949484  0.7512436004490937
  0.6165436422813215  0.8288313839175814  0.7547934434389347
  0.9831737831815630  0.8138610692712973  0.7492650129064984
  0.0787735970247070  0.4499092992126634  0.5581692967198535
  0.4105116681383620  0.4242293949253053  0.5555811194032358
  0.7499030288366555  0.4897042001216292  0.5693802598288045
  0.2474117572990124  0.4568356831452149  0.4152205113725813
  0.5836760274655717  0.4668427898837635  0.4128944504364327
  0.9204836812831232  0.5184742626410852  0.4259508505256306
  0.1517704583353634  0.7558485561695321  0.4506787355644590
  0.4691879778495718  0.7376341580239156  0.4540787800233801
  0.7655218082235677  0.7725383121783409  0.4496469866356918
  0.1923360813143660  0.1693277941539151  0.5530034373864723
  0.5607348884045535  0.1606309238002339  0.5369951603016716
  0.8473164435618088  0.1875055632432350  0.5207097586972154
 
  0.00000000E+00  0.00000000E+00  0.00000000E+00
  0.00000000E+00  0.00000000E+00  0.00000000E+00
  0.00000000E+00  0.00000000E+00  0.00000000E+00
  0.00000000E+00  0.00000000E+00  0.00000000E+00
  0.00000000E+00  0.00000000E+00  0.00000000E+00
  0.00000000E+00  0.00000000E+00  0.00000000E+00
  0.00000000E+00  0.00000000E+00  0.00000000E+00
  0.00000000E+00  0.00000000E+00  0.00000000E+00
  0.00000000E+00  0.00000000E+00  0.00000000E+00
  0.00000000E+00  0.00000000E+00  0.00000000E+00
  0.00000000E+00  0.00000000E+00  0.00000000E+00
  0.00000000E+00  0.00000000E+00  0.00000000E+00
  0.00000000E+00  0.00000000E+00  0.00000000E+00
  0.00000000E+00  0.00000000E+00  0.00000000E+00
  0.00000000E+00  0.00000000E+00  0.00000000E+00
  0.00000000E+00  0.00000000E+00  0.00000000E+00
  0.00000000E+00  0.00000000E+00  0.00000000E+00
  0.00000000E+00  0.00000000E+00  0.00000000E+00
  0.00000000E+00  0.00000000E+00  0.00000000E+00
  0.00000000E+00  0.00000000E+00  0.00000000E+00
  0.00000000E+00  0.00000000E+00  0.00000000E+00
  0.00000000E+00  0.00000000E+00  0.00000000E+00
  0.00000000E+00  0.00000000E+00  0.00000000E+00
  0.00000000E+00  0.00000000E+00  0.00000000E+00
  0.00000000E+00  0.00000000E+00  0.00000000E+00
  0.00000000E+00  0.00000000E+00  0.00000000E+00
  0.00000000E+00  0.00000000E+00  0.00000000E+00
  0.00000000E+00  0.00000000E+00  0.00000000E+00
  0.00000000E+00  0.00000000E+00  0.00000000E+00
  0.00000000E+00  0.00000000E+00  0.00000000E+00
  0.00000000E+00  0.00000000E+00  0.00000000E+00
  0.00000000E+00  0.00000000E+00  0.00000000E+00
  0.00000000E+00  0.00000000E+00  0.00000000E+00
  0.00000000E+00  0.00000000E+00  0.00000000E+00
  0.00000000E+00  0.00000000E+00  0.00000000E+00
  0.00000000E+00  0.00000000E+00  0.00000000E+00
  0.00000000E+00  0.00000000E+00  0.00000000E+00
  0.00000000E+00  0.00000000E+00  0.00000000E+00
  0.00000000E+00  0.00000000E+00  0.00000000E+00
  0.00000000E+00  0.00000000E+00  0.00000000E+00
  0.00000000E+00  0.00000000E+00  0.00000000E+00
  0.00000000E+00  0.00000000E+00  0.00000000E+00
  0.00000000E+00  0.00000000E+00  0.00000000E+00
  0.00000000E+00  0.00000000E+00  0.00000000E+00
  0.00000000E+00  0.00000000E+00  0.00000000E+00
  0.00000000E+00  0.00000000E+00  0.00000000E+00
  0.00000000E+00  0.00000000E+00  0.00000000E+00
  0.00000000E+00  0.00000000E+00  0.00000000E+00
  0.00000000E+00  0.00000000E+00  0.00000000E+00
  0.00000000E+00  0.00000000E+00  0.00000000E+00
  0.00000000E+00  0.00000000E+00  0.00000000E+00
  0.00000000E+00  0.00000000E+00  0.00000000E+00
  0.00000000E+00  0.00000000E+00  0.00000000E+00
  0.00000000E+00  0.00000000E+00  0.00000000E+00
  0.00000000E+00  0.00000000E+00  0.00000000E+00
  0.00000000E+00  0.00000000E+00  0.00000000E+00
  0.00000000E+00  0.00000000E+00  0.00000000E+00
  0.00000000E+00  0.00000000E+00  0.00000000E+00
  0.00000000E+00  0.00000000E+00  0.00000000E+00
  0.00000000E+00  0.00000000E+00  0.00000000E+00
  0.00000000E+00  0.00000000E+00  0.00000000E+00
  0.00000000E+00  0.00000000E+00  0.00000000E+00
  0.00000000E+00  0.00000000E+00  0.00000000E+00
  0.00000000E+00  0.00000000E+00  0.00000000E+00
  0.00000000E+00  0.00000000E+00  0.00000000E+00
  0.00000000E+00  0.00000000E+00  0.00000000E+00
  0.00000000E+00  0.00000000E+00  0.00000000E+00
  0.00000000E+00  0.00000000E+00  0.00000000E+00
