Ca V  O 
1.0
       11.0221347809         0.0000000000         0.0000000000
       -0.0015698436        11.4348448629         0.0000000000
       -2.7493871840        -2.8607784167         7.4739018411
   Ca    V    O
   15   16   40
Direct
     0.801120281         0.067568444         0.214601159
     0.301120311         0.067568444         0.214601159
     0.301120311         0.567568421         0.214601159
     0.801120281         0.567568421         0.214601159
     0.194732800         0.432579935         0.785638928
     0.194732800         0.932579935         0.785638928
     0.694732785         0.432579935         0.785638928
     0.694732785         0.932579935         0.785638928
     0.051070470         0.289680541         0.214563921
     0.051070470         0.789680541         0.214563921
     0.551070452         0.789680541         0.214563921
     0.444793612         0.210283786         0.785671651
     0.444793612         0.710283756         0.785671651
     0.944793582         0.210283786         0.785671651
     0.944793582         0.710283756         0.785671651
     0.005955266         0.000026535         0.000004340
     0.005955266         0.500026524         0.000004340
     0.505955279         0.000026535         0.000004340
     0.505955279         0.500026524         0.000004340
     0.255945146         0.250030935         0.000012090
     0.255945146         0.750030935         0.000012090
     0.755945146         0.250030935         0.000012090
     0.755945146         0.750030935         0.000012090
     0.105150655         0.093275063         0.499987870
     0.105150655         0.593275070         0.499987870
     0.605150640         0.093275063         0.499987870
     0.605150640         0.593275070         0.499987870
     0.355158031         0.406695813         0.499997556
     0.355158031         0.906695843         0.499997556
     0.855158031         0.406695813         0.499997556
     0.855158031         0.906695843         0.499997556
     0.121240057         0.116956398         0.964262128
     0.121240057         0.616956413         0.964262128
     0.621240079         0.116956398         0.964262128
     0.621240079         0.616956413         0.964262128
     0.137771472         0.381736815         0.035728488
     0.137771472         0.881736815         0.035728488
     0.637771487         0.381736815         0.035728488
     0.637771487         0.881736815         0.035728488
     0.371233702         0.115124702         0.964061081
     0.371233702         0.615124702         0.964061081
     0.871233702         0.115124702         0.964061081
     0.871233702         0.615124702         0.964061081
     0.387715131         0.386081010         0.035608508
     0.387715131         0.886080980         0.035608508
     0.887715101         0.386081010         0.035608508
     0.887715101         0.886080980         0.035608508
     0.089925468         0.108365163         0.279597849
     0.089925468         0.608365178         0.279597849
     0.589925468         0.108365163         0.279597849
     0.589925468         0.608365178         0.279597849
     0.449547529         0.391656727         0.720430136
     0.449547529         0.891656756         0.720430136
     0.949547529         0.391656727         0.720430136
     0.949547529         0.891656756         0.720430136
     0.340069532         0.281421363         0.279585540
     0.340069532         0.781421363         0.279585540
     0.840069532         0.281421363         0.279585540
     0.840069532         0.781421363         0.279585540
     0.199432731         0.218566194         0.720455945
     0.199432731         0.718566179         0.720455945
     0.699432731         0.218566194         0.720455945
     0.699432731         0.718566179         0.720455945
     0.426565856         0.065795302         0.499899745
     0.426565856         0.565795302         0.499899745
     0.926565886         0.065795302         0.499899745
     0.926565886         0.565795302         0.499899745
     0.176573709         0.434155822         0.499894083
     0.176573709         0.934155822         0.499894083
     0.676573694         0.434155822         0.499894083
     0.676573694         0.934155822         0.499894083
