V  F 
 1.0000000000000000
    17.8474460000000015    0.0000000000000000    0.0000000000000000
     0.0000000000000000    5.4901309999999999    0.0000000000000000
     0.0000000000000000    5.4989080000000001    7.8391849999999996
 V   F  
   8  40
Cartesian
  2.1434418539029760  1.3434301373333222  0.9610085122422949
  6.7149837919991002  6.8331562917545074  7.5882676928666006
 11.0671648539029572  6.8961548626666600  2.9585839877577040
 15.6387067919990734  6.9053367082454891  4.1705098071333815
  2.2087392080008912  4.0837022917545083  3.6686751928666137
  6.7802811460970185  4.0928841373333178  4.8806010122422823
 11.1324622080008790  4.1558827082454828  0.2509173071333876
 15.7040041460970023  9.6456088626666627  6.8781764877577078
  6.4578589827798032  5.5433206744970800  3.9660743897916007
  2.5555749304154682  5.5188142057346381  4.5945275467463773
  6.3579642651634432  5.7059697621315753  1.0336976461948773
 10.6794803108204643  5.7203462471816158  1.3989103013368223
  2.4427149396414647  5.7450430588287906  7.4836602869481244
 16.1196648326125960  5.7266310410437073  5.7136865414947575
  5.1412580702065700  6.7333507263930770  6.7840868395434182
  3.7540570515335063  6.6963087893903932  1.6809972333907948
  9.3139380338794044  6.8512425785671089  3.1718052357963411
 17.3805219239632862  6.8744530791876528  3.8998541780917706
  8.4567989239633086  1.3651319208123360  0.0197383219082191
  0.3902150338794274  1.3883424214328794  0.7477872642036391
 12.6777800515334942  1.5432762106095992  2.2385952666092179
 14.0649810702065423  7.0051422736069275  4.9746906604565728
  7.1959418326126494  8.0118619589562812  6.0450909585052273
  1.7557573108204674  2.5192387528183779  2.5206821986631902
 11.3664379396414379  7.9934499411711899  4.2751172130518729
 15.2816872651634164  2.5336152378684185  2.8858948538051008
 11.4792979304154752  8.2196787942653522  7.1642499532536315
 15.3815819827798013  8.1951723255028970  7.7927031102083921
  2.4658640172202064  2.7938666744970759  0.0464818897916074
  6.3681480695845378  2.7693602057346496  0.6749350467463537
  2.5657587348365549  8.4554237621315682  4.9532901461948855
  6.4810080603585307  2.9955890588287910  3.5640677869481094
 16.0916886891794810  8.4698002471816221  5.3185028013368054
 10.6515041673873299  2.9771770410436913  1.7940940414947573
  3.7824649297934121  3.9838967263930658  2.8644943395434161
  5.1696659484664824  9.4457627893903986  5.6005897333907759
 17.4572309661205551  9.6006965785671508  7.0913977357963471
  9.3906470760366716  9.6239070791876387  7.8194466780917571
  0.4669240760366872  4.1145859208123410  3.9393308219082450
  8.5335079661205704  4.1377964214328617  4.6673797642036439
 14.0933889484664618  4.2927302106095677  6.1581877666092222
 12.7061879297934013  4.2556882736069275  1.0550981604565846
  1.7277811673873327  5.2624079589562998  2.1254984585052510
 15.4047310603585021  5.2439959411711934  0.3555247130518746
  7.1679656891795123  5.2686927528183736  6.4402746986631811
 11.4894817348365397  5.2830692378684345  6.8054873538051277
 15.2918710695845199  5.4702247942653468  3.2446574532536294
 11.3895870172201867  5.4457183255029005  3.8731106102083888
