Ca Mn V  P  O 
1.0
       10.0489645004         0.0000000000         0.0000000000
       -2.4004860927         6.9412858333         0.0000000000
        0.0049188054         0.0149017766        16.9915298476
   Ca   Mn    V    P    O
    7    4    4   16   56
Direct
     0.612816691         0.744753122         0.293149054
     0.382578164         0.265209168         0.052770637
     0.882578135         0.265209168         0.052770637
     0.387516201         0.260070950         0.538158536
     0.887516201         0.260070950         0.538158536
     0.120124824         0.727970183         0.797592282
     0.620124817         0.727970183         0.797592282
     0.386896968         0.260680586         0.259950578
     0.886896968         0.260680586         0.259950578
     0.109531954         0.738659680         0.005336799
     0.609531939         0.738659680         0.005336799
     0.390913337         0.264720708         0.748773456
     0.890913367         0.264720708         0.748773456
     0.110249467         0.734571993         0.504527688
     0.610249460         0.734571993         0.504527688
     0.308168054         0.491081893         0.901478410
     0.808168054         0.491081893         0.901478410
     0.306956291         0.516203463         0.405300140
     0.806956291         0.516203463         0.405300140
     0.394199342         0.892465770         0.613815188
     0.894199371         0.892465770         0.613815188
     0.391255826         0.893347859         0.119579218
     0.891255856         0.893347859         0.119579218
     0.108283237         0.099163979         0.860457480
     0.608283222         0.099163979         0.860457480
     0.104321234         0.114233255         0.373277575
     0.604321241         0.114233255         0.373277575
     0.190417528         0.496312976         0.156999797
     0.690417528         0.496312976         0.156999797
     0.195925400         0.497248888         0.650441229
     0.695925415         0.497248888         0.650441229
     0.480704963         0.159914583         0.845533609
     0.980704963         0.159914583         0.845533609
     0.474739790         0.176797226         0.368457258
     0.974739790         0.176797226         0.368457258
     0.421859354         0.081436098         0.658158660
     0.921859384         0.081436098         0.658158660
     0.416302741         0.077395052         0.167838946
     0.916302741         0.077395052         0.167838946
     0.407042593         0.525704026         0.972218871
     0.907042623         0.525704026         0.972218871
     0.404285222         0.552320719         0.476976663
     0.904285192         0.552320719         0.476976663
     0.384828776         0.537042141         0.326899081
     0.884828806         0.537042141         0.326899081
     0.385354728         0.507224023         0.822077870
     0.885354757         0.507224023         0.822077870
     0.298361987         0.382609755         0.648320198
     0.798362017         0.382609755         0.648320198
     0.295765877         0.386694759         0.157916307
     0.795765877         0.386694759         0.157916307
     0.188999504         0.074984215         0.785546243
     0.688999534         0.074984215         0.785546243
     0.171222210         0.088024057         0.294071347
     0.671222210         0.088024057         0.294071347
     0.217268065         0.262881070         0.916930735
     0.717268050         0.262881070         0.916930735
     0.223718509         0.285248488         0.422719806
     0.723718524         0.285248488         0.422719806
     0.283577472         0.725984812         0.668740928
     0.783577442         0.725984812         0.668740928
     0.274854064         0.727806747         0.172760248
     0.774854064         0.727806747         0.172760248
     0.315793723         0.911637425         0.537424564
     0.815793753         0.911637425         0.537424564
     0.319045067         0.920174241         0.042131267
     0.819045067         0.920174241         0.042131267
     0.200201482         0.624720454         0.405025214
     0.700201511         0.624720454         0.405025214
     0.208460391         0.609315276         0.902009010
     0.708460391         0.609315276         0.902009010
     0.117881916         0.485122740         0.571802676
     0.617881894         0.485122740         0.571802676
     0.114004634         0.476182908         0.077726588
     0.614004612         0.476182908         0.077726588
     0.093081653         0.461002737         0.228598192
     0.593081653         0.461002737         0.228598192
     0.097348586         0.457589090         0.721282244
     0.597348571         0.457589090         0.721282244
     0.078256406         0.912199974         0.907816947
     0.578256428         0.912199974         0.907816947
     0.084760353         0.932292104         0.421386182
     0.584760368         0.932292104         0.421386182
     0.023799717         0.833028972         0.602631211
     0.523799717         0.833028972         0.602631211
     0.018325197         0.827970028         0.109816089
     0.518325210         0.827970028         0.109816089
