Trisodium tetramanganese dodecaoxotellur
   1.00000000000000     
     9.3541609999999995    0.0000000000000000    0.0000000000000000
     0.0000000000000000    9.6163319999999999    0.0000000000000000
     0.0000000000000000    0.0000000000000000   11.2118099999999998
   Ca   Mn   Te   O 
    11    16     8    48
Direct
  0.3631911695295829  0.2252932472173100  0.3173689307850480
  0.0786110823495244  0.7451704194179742  0.6385637893697640
  0.4228186949902237  0.7417292333953017  0.6379825623973274
  0.7520514342811347  0.2887364716360861  0.8475177883129650
  0.9191638666961423  0.7635359934312536  0.1573971324092488
  0.4233469154250138  0.2284390835569988  0.8476988586871224
  0.0803964217370211  0.2335972920338472  0.8478930995200797
  0.2505763885870367  0.7097941429888096  0.1507707437605584
  0.5790135698007136  0.7622499007749594  0.1583767270258072
  0.7513965948879326  0.7672045479462604  0.6843389797105534
  0.9234258057072872  0.2532706749846659  0.3585272576602176
  0.9131288673601216  0.5984434175492568  0.3871131842983091
  0.9080334493733805  0.0937886970727774  0.1334537468277373
  0.0795508521456659  0.4138132723895342  0.0946753659484101
  0.4199259983068188  0.4036988662874780  0.6135053132310602
  0.5918149758978998  0.0877951134041694  0.6159371482049912
  0.5966514798099040  0.0948396746807963  0.1353397153359705
  0.9094181249800714  0.0792596617369792  0.6202848486797035
  0.0860263756021851  0.4009792886513678  0.6142529003469855
  0.5843061827201268  0.5876083200970398  0.9014960574190346
  0.4099644180126703  0.9041961097526455  0.8687239593968429
  0.0918981278011285  0.9245747603094124  0.3860252787003456
  0.9191064287273109  0.5852615883984813  0.9090826180713596
  0.0909767424205877  0.9057811670808684  0.8705168310383422
  0.4063484910751067  0.9117579062993518  0.3860860087808970
  0.5841592861626395  0.5739695103389784  0.3836046660951641
  0.4198657218230932  0.4180655055002473  0.0802038347117999
  0.7536697623270737  0.4492089584593277  0.6010223607368023
  0.2486864641254508  0.5698750830307728  0.8692802345934211
  0.7454258093310752  0.9330961363198687  0.4055147962104654
  0.2454421096173339  0.0400431199831797  0.0931095536717818
  0.7515797298896251  0.9589719882388285  0.9126180380462963
  0.2503066779429536  0.0672568407713229  0.6041703742341035
  0.7480392583723399  0.4289052735516152  0.1279613451913256
  0.2446014868876473  0.5448760014065860  0.3928840083942553
  0.0656501441181466  0.6066560377963408  0.0409296209955529
  0.2471899587293252  0.8603326770743878  0.4955744406821964
  0.7510373714700326  0.0185805956447781  0.7435284859030934
  0.0952402650632394  0.4081572689293300  0.4292890036042531
  0.6086663677332268  0.1019850935123740  0.9476025758472401
  0.4047061661289218  0.1007302128669305  0.4851461099943389
  0.8989309378893456  0.5970484422516383  0.5771318113243949
  0.9376945007810058  0.3917381560484978  0.9609326371278831
  0.7590345703497138  0.4327691844497818  0.4287428818910864
  0.7535779220412874  0.5445557125651079  0.8062206218665876
  0.9081032259250715  0.4864425009529227  0.2283931184608082
  0.4076884859549569  0.5245998857556429  0.7649968594777047
  0.2513675398242459  0.9849169481970942  0.2663643961316443
  0.4516440359411579  0.0152288470028341  0.7207905584908673
  0.7522278053715439  0.2221637535014327  0.2070465319624021
  0.6005289474708099  0.8896503517244200  0.5350218249385280
  0.8998333256886253  0.1001430167066664  0.9494447878704599
  0.5406025734590584  0.9973586153582913  0.2827528234493064
  0.2475026494042224  0.5805501641206980  0.5638104130730968
  0.5720194041692425  0.2723331127997710  0.6849513365670229
  0.4414086395168205  0.2247788534212291  0.1275558462750489
  0.4347974003186086  0.6136897382962989  0.0306855991332065
  0.2528410978423570  0.3734461732723240  0.9393612780076023
  0.8969952139186738  0.8892310678264953  0.5320231386612713
  0.0902805566757389  0.5183065179395441  0.7660804421820319
  0.2533618706790449  0.2653481370717262  0.6711689714502979
  0.4064649886478667  0.4196557195733966  0.4271318412326169
  0.4332957747190808  0.7241535657006273  0.3261574499480867
  0.5851480145418686  0.4925599943925806  0.2197073055152141
  0.6007429494408651  0.5883091285014784  0.5744611610963009
  0.0477116228014484  0.0023667496296879  0.7231783696425653
  0.2569406837530335  0.4489238512376105  0.1856013433841231
  0.9470788195202936  0.0018119781818751  0.2874276676410327
  0.1018638580271742  0.8918742584015396  0.0569283496962635
  0.7469434061611225  0.7365814580408818  0.3326000551510457
  0.7516481825922757  0.6348674847597882  0.0497033246841543
  0.9438996657108408  0.7687869769715467  0.8358301440270831
  0.0970719258380107  0.1061729100008114  0.4796294607525965
  0.0502959269637044  0.2302040195573848  0.1588203988159905
  0.3950423378610114  0.8998393134913230  0.0595069419414130
  0.2508466498543862  0.7880029045536651  0.7799447223920065
  0.7529664909847235  0.9516100878602023  0.1131732178472446
  0.2447300249955443  0.0513504930319495  0.8979553998940132
  0.0643648247896624  0.7370894142183999  0.3232513938882314
  0.7591255838953266  0.1361658742310007  0.5142267328649566
  0.9353955100580994  0.2657780547493487  0.6844924019777234
  0.5647852790201892  0.7686607060671821  0.8281388296120715
  0.5649148363256616  0.3959797830178806  0.9533290418701033
 
             NaN             NaN             NaN
             NaN             NaN             NaN
             NaN             NaN             NaN
             NaN             NaN             NaN
             NaN             NaN             NaN
             NaN             NaN             NaN
             NaN             NaN             NaN
             NaN             NaN             NaN
             NaN             NaN             NaN
             NaN             NaN             NaN
             NaN             NaN             NaN
             NaN             NaN             NaN
             NaN             NaN             NaN
             NaN             NaN             NaN
             NaN             NaN             NaN
             NaN             NaN             NaN
             NaN             NaN             NaN
             NaN             NaN             NaN
             NaN             NaN             NaN
             NaN             NaN             NaN
             NaN             NaN             NaN
             NaN             NaN             NaN
             NaN             NaN             NaN
             NaN             NaN             NaN
             NaN             NaN             NaN
             NaN             NaN             NaN
             NaN             NaN             NaN
             NaN             NaN             NaN
             NaN             NaN             NaN
             NaN             NaN             NaN
             NaN             NaN             NaN
             NaN             NaN             NaN
             NaN             NaN             NaN
             NaN             NaN             NaN
             NaN             NaN             NaN
             NaN             NaN             NaN
             NaN             NaN             NaN
             NaN             NaN             NaN
             NaN             NaN             NaN
             NaN             NaN             NaN
             NaN             NaN             NaN
             NaN             NaN             NaN
             NaN             NaN             NaN
             NaN             NaN             NaN
             NaN             NaN             NaN
             NaN             NaN             NaN
             NaN             NaN             NaN
             NaN             NaN             NaN
             NaN             NaN             NaN
             NaN             NaN             NaN
             NaN             NaN             NaN
             NaN             NaN             NaN
             NaN             NaN             NaN
             NaN             NaN             NaN
             NaN             NaN             NaN
             NaN             NaN             NaN
             NaN             NaN             NaN
             NaN             NaN             NaN
             NaN             NaN             NaN
             NaN             NaN             NaN
             NaN             NaN             NaN
             NaN             NaN             NaN
             NaN             NaN             NaN
             NaN             NaN             NaN
             NaN             NaN             NaN
             NaN             NaN             NaN
             NaN             NaN             NaN
             NaN             NaN             NaN
             NaN             NaN             NaN
             NaN             NaN             NaN
             NaN             NaN             NaN
             NaN             NaN             NaN
             NaN             NaN             NaN
             NaN             NaN             NaN
             NaN             NaN             NaN
             NaN             NaN             NaN
             NaN             NaN             NaN
             NaN             NaN             NaN
             NaN             NaN             NaN
             NaN             NaN             NaN
             NaN             NaN             NaN
             NaN             NaN             NaN
             NaN             NaN             NaN
