Ca Mn P  O 
1.0
        8.3765430450         0.0000000000         0.0000000000
        0.0000000000        10.6061191559         0.0000000000
       -0.0000055067         4.9959518024        12.8476612922
   Ca   Mn    P    O
    7    8   16   56
Direct
     0.690706372         0.508484304         0.268337995
     0.809286416         0.008485266         0.768342316
     0.809286416         0.508485258         0.768342316
     0.309292287         0.491507679         0.731656253
     0.309292287         0.991507649         0.731656253
     0.690706372         0.008484297         0.268337995
     0.190712929         0.991507053         0.231656030
     0.360786617         0.146370888         0.400611490
     0.360786617         0.646370888         0.400611490
     0.639171183         0.353652984         0.599378943
     0.639171183         0.853652954         0.599378943
     0.139189258         0.146360785         0.900627017
     0.139189258         0.646360755         0.900627017
     0.860832214         0.353644490         0.099379160
     0.860832214         0.853644490         0.099379160
     0.718938529         0.157040924         0.474513710
     0.718938529         0.657040954         0.474513710
     0.022589287         0.282383502         0.676027000
     0.022589287         0.782383502         0.676027000
     0.522554457         0.217658117         0.823929012
     0.522554457         0.717658103         0.823929012
     0.281022787         0.342979223         0.525503635
     0.281022787         0.842979193         0.525503635
     0.977484226         0.217669606         0.323905557
     0.977484226         0.717669606         0.323905557
     0.477464527         0.282343388         0.176114574
     0.477464527         0.782343388         0.176114574
     0.781057596         0.157065153         0.974491775
     0.781057596         0.657065153         0.974491775
     0.218895495         0.342954904         0.025492687
     0.218895495         0.842954874         0.025492687
     0.383485913         0.391853929         0.598507106
     0.383485913         0.891853929         0.598507106
     0.537720919         0.110649586         0.773555219
     0.537720919         0.610649586         0.773555219
     0.149066508         0.255319327         0.338687271
     0.149066508         0.755319357         0.338687271
     0.616535962         0.108127706         0.401470900
     0.616535962         0.608127713         0.401470900
     0.285406590         0.446852595         0.414210558
     0.285406590         0.946852565         0.414210558
     0.462294132         0.389394015         0.226457402
     0.462294132         0.889394045         0.226457402
     0.115846306         0.152707040         0.736572206
     0.115846306         0.652707040         0.736572206
     0.823997438         0.302558124         0.963069379
     0.823997438         0.802558124         0.963069379
     0.096568070         0.345906287         0.560064137
     0.096568070         0.845906258         0.560064137
     0.324000984         0.197480336         0.536923945
     0.324000984         0.697480321         0.536923945
     0.615881562         0.347293496         0.763431907
     0.615881562         0.847293496         0.763431907
     0.675998986         0.302562565         0.463056445
     0.675998986         0.802562594         0.463056445
     0.214623839         0.446907043         0.914159000
     0.214623839         0.946907043         0.914159000
     0.883509994         0.108120397         0.901456952
     0.883509994         0.608120382         0.901456952
     0.384102017         0.152647153         0.236585900
     0.384102017         0.652647138         0.236585900
     0.176005721         0.197400287         0.036921822
     0.176005721         0.697400272         0.036921822
     0.903397799         0.154071495         0.439950913
     0.903397799         0.654071510         0.439950913
     0.649015367         0.244667739         0.161318287
     0.649015367         0.744667768         0.161318287
     0.785401642         0.053085122         0.085846797
     0.785401642         0.553085148         0.085846797
     0.403468877         0.345951229         0.059992801
     0.403468877         0.845951200         0.059992801
     0.596544683         0.154078081         0.939944267
     0.596544683         0.654078066         0.939944267
     0.884087503         0.347291321         0.263429672
     0.884087503         0.847291350         0.263429672
     0.962251008         0.110650308         0.273558736
     0.962251008         0.610650301         0.273558736
     0.851056516         0.244671449         0.661340177
     0.851056516         0.744671464         0.661340177
     0.350996673         0.255319744         0.838678956
     0.350996673         0.755319715         0.838678956
     0.037698757         0.389335066         0.726450801
     0.037698757         0.889335036         0.726450801
     0.714599907         0.053085379         0.585832834
     0.714599907         0.553085387         0.585832834
     0.116452001         0.391904861         0.098558351
     0.116452001         0.891904831         0.098558351
