Ca Ti Mn Si O  F                        
   1.00000000000000     
     9.9872684479000000    0.0000000000000000    0.0000000000000000
     0.0000000000000000   10.9652748108000004    0.0000000000000000
     0.0000000000000000   -4.3438069094999996   13.5038650633999993
   Ca   Ti   Mn   Si   O    F 
    11     8    12    16    64     8
Selective dynamics
Direct
  0.3310383796300194  0.4182409865385561  0.4315863778322326   T   T   T
  0.6028458248640149  0.1930918858639667  0.9823911004106299   T   T   T
  0.3993068319095009  0.8060142948757281  0.0162935545443051   T   T   T
  0.8976359379725158  0.6918272676859810  0.4907464686679650   T   T   T
  0.3744318015354908  0.4198678654747771  0.9121892869707920   T   T   T
  0.6276395590351265  0.5751845604598493  0.0935612409176102   T   T   T
  0.8796102157656872  0.0855081370817668  0.5859261864326456   T   T   T
  0.1251056388813676  0.9183379424977933  0.4114081028778843   T   T   T
  0.1218342780143230  0.9200873130870417  0.9116099177868069   T   T   T
  0.8765622679219419  0.0770966061513152  0.0889671724919919   T   T   T
  0.6158751743455120  0.5766673723876201  0.5836528382694161   T   T   T
  0.4026408499713893  0.7801169080264144  0.7494070167466381   T   T   T
  0.5918235571538092  0.2225414955620380  0.2536373992689856   T   T   T
  0.8988278362324964  0.7250259265824939  0.7508595920947154   T   T   T
  0.0961864181175446  0.2776393664089424  0.2502823399280329   T   T   T
  0.0982658693381833  0.2822946738835745  0.7652983646988510   T   T   T
  0.9037086377292718  0.7235233181790670  0.2339826487076616   T   T   T
  0.5969752309482751  0.2265322121248713  0.7299358561589967   T   T   T
  0.4033655385058609  0.7717906902128500  0.2690552070231200   T   T   T
  0.3904229693874013  0.8153499958682876  0.5158307886359680   T   T   T
  0.6076441440254327  0.1872191921815361  0.4819153958121515   T   T   T
  0.8922712397108066  0.6831876584453014  0.9829955717549166   T   T   T
  0.1070862691246706  0.3127449532632153  0.0167249393620128   T   T   T
  0.3612125809528511  0.4379356026891285  0.6874662326402887   T   T   T
  0.6282343773240023  0.5522359267531151  0.3215899656427672   T   T   T
  0.8650376600076308  0.0614477031484652  0.8119784406892763   T   T   T
  0.1373279953733851  0.9424168472980606  0.1881283203264126   T   T   T
  0.1382053100264412  0.9467406636473595  0.6809766110776898   T   T   T
  0.8690725041180587  0.0619147303959524  0.3198040721027269   T   T   T
  0.6381324871214755  0.5612346918942583  0.8120609323197095   T   T   T
  0.3636177620939080  0.4359877291709498  0.1874959133053651   T   T   T
  0.3357724818793940  0.1238221591383243  0.8586643385190905   T   T   T
  0.6654653692447675  0.8739196025685265  0.1419200735451443   T   T   T
  0.8416914162349775  0.3816591622638036  0.6383174959158024   T   T   T
  0.1620141799066442  0.6196233260572218  0.3607332103647797   T   T   T
  0.6696064601434620  0.8768586123157481  0.6386793524710659   T   T   T
  0.3314151408033332  0.1204669576401645  0.3572366787228075   T   T   T
  0.1706546159366816  0.6257190388447476  0.8610601053640662   T   T   T
  0.8244076438872540  0.3721222132901573  0.1416847674644444   T   T   T
  0.1649014948970060  0.6271652358700448  0.5928403232225163   T   T   T
  0.8378790486775610  0.3765886634732747  0.4152076305450640   T   T   T
  0.6646163362433556  0.8789909506216680  0.9139285882251358   T   T   T
  0.3314438952131160  0.1213604704166333  0.0866295621322441   T   T   T
  0.3292524370407424  0.1301860214813392  0.5820082347012491   T   T   T
  0.6694995218402087  0.8747749596769888  0.4132779461116948   T   T   T
  0.8287178089215775  0.3746643476041703  0.9143371107136518   T   T   T
  0.1695712421977802  0.6231844679455240  0.0868085492931451   T   T   T
  0.5126484473666884  0.3804025344435694  0.2836604411546545   T   T   T
  0.4839979843114383  0.6218208618911042  0.7242393112182721   T   T   T
  0.0174573899840608  0.1114317001787818  0.2213649708125113   T   T   T
  0.9743333564420128  0.8858086671753678  0.7819217708347501   T   T   T
  0.2190607505304299  0.4786003810989666  0.8069635728635313   T   T   T
  0.7772178097526089  0.5161121835167382  0.2058446650343987   T   T   T
  0.7185255071127997  0.0234759732841728  0.6943939969427613   T   T   T
  0.2822022362950966  0.9723151711765318  0.3054510829616233   T   T   T
  0.0189992521412958  0.1115219319456439  0.7262745221402922   T   T   T
  0.9852406157692679  0.8820281355299034  0.2678907847895589   T   T   T
  0.5199430286599506  0.3903451452578643  0.7712095653934373   T   T   T
  0.4807215864802177  0.6080776896553559  0.2309608433311203   T   T   T
  0.5113540306579871  0.8417212660633766  0.6454691133145858   T   T   T
  0.4915521119422174  0.1480436794410197  0.3488159457194487   T   T   T
  0.0135654582120082  0.6622937748668447  0.8519160993691108   T   T   T
  0.9810470401857199  0.3298687588663448  0.1416666999109048   T   T   T
  0.2271883994151514  0.2428629266285013  0.8738146786645704   T   T   T
  0.7717883021423441  0.7520943186402321  0.1242190752521157   T   T   T
  0.7317189498614398  0.2622580358493107  0.6226431065971144   T   T   T
  0.2706919277081663  0.7380562690201674  0.3757294561025900   T   T   T
  0.7427108351187209  0.0150599686142253  0.9255505273956368   T   T   T
  0.2549842773114194  0.9835046047338568  0.0734240032351356   T   T   T
  0.2479718140172477  0.5014392481069569  0.5945272053882327   T   T   T
  0.7564384509209222  0.5141628976668724  0.4325271270420615   T   T   T
  0.7582001018768602  0.7601979629083556  0.6574948263783756   T   T   T
  0.2475522060538727  0.2274082712894084  0.3217274432217194   T   T   T
  0.2631711614116754  0.7415059640246322  0.8444541434876546   T   T   T
  0.7307355554947385  0.2533286397566975  0.1528054768059305   T   T   T
  0.2668492625424001  0.9854859513974187  0.5656616185227172   T   T   T
  0.7303257969481823  0.0180452124916931  0.4276276504180654   T   T   T
  0.7702148916452557  0.5166917058040383  0.9192792315036585   T   T   T
  0.2337203367486502  0.4806050291316420  0.0729223738550833   T   T   T
  0.3692920207526850  0.1196230961022584  0.9722149264206166   T   T   T
  0.6322865027902909  0.8802604626033916  0.0289246012985995   T   T   T
  0.8857497407984969  0.3768778132647859  0.5259804118244014   T   T   T
  0.1423724752291816  0.6032421588089633  0.4720409400456195   T   T   T
  0.4798081352125534  0.1722302970909845  0.8300861843987029   T   T   T
  0.5205862536294967  0.8256987536031901  0.1699026019937541   T   T   T
  0.9708931704913244  0.3438060306585436  0.6934249498023818   T   T   T
  0.0169418246840887  0.6727570376876115  0.3386158862506941   T   T   T
  0.2055007680615815  0.6518293288275017  0.9804386927931747   T   T   T
  0.7834133759607543  0.3645462543170566  0.0256145924665939   T   T   T
  0.7076112516843812  0.8466859875815991  0.5194806366285155   T   T   T
  0.2980329853946245  0.1624345215635800  0.4772610674634490   T   T   T
  0.9905897905744423  0.3561522044002493  0.9022995133446162   T   T   T
  0.0070022898600172  0.6336343479612842  0.1010768055982509   T   T   T
  0.4925562900911272  0.1414474716799939  0.5986530211669061   T   T   T
  0.5068788768690209  0.8594782749678485  0.3999307242028873   T   T   T
  0.2764419357126289  0.9831810282408264  0.7983634531789457   T   T   T
  0.7271367486617356  0.0127011001610419  0.2029086500407434   T   T   T
  0.7758711589191241  0.5220992717728048  0.6941643623072318   T   T   T
  0.2159978069523482  0.4787857203726110  0.2951974651723744   T   T   T
  0.2530428771409766  0.7607431169620095  0.6361395366283681   T   T   T
  0.7398411759194429  0.2512313098971142  0.3679983951713832   T   T   T
  0.7553259805252261  0.7496557036526907  0.8645241574533848   T   T   T
  0.2358513770132789  0.2487642469521282  0.1310968056887381   T   T   T
  0.5137245727488766  0.8673129135994252  0.8694615097106444   T   T   T
  0.4792664466099251  0.1349636346577137  0.1358008582112851   T   T   T
  0.0111131891776226  0.6481937201310024  0.6316428357648557   T   T   T
  0.9719180681125685  0.3663529415582802  0.3482749302946421   T   T   T
  0.2556873634746296  0.2417679686534163  0.6712925198515191   T   T   T
  0.7484848238289775  0.7558365286785353  0.3348742976590485   T   T   T
  0.7465979352517033  0.2519656128360531  0.8416389469021289   T   T   T
  0.2497023231663665  0.7432494450691611  0.1637132726582810   T   T   T
  0.0181180713332635  0.1126989619340358  0.9682525352870994   T   T   T
  0.9788932856266542  0.8811316402161676  0.0291533774863445   T   T   T
  0.5050924109549296  0.3847170748196224  0.5313740325268167   T   T   T
  0.4756911057684488  0.6091346813185341  0.4641298386447993   T   T   T
  0.9979921362635855  0.8891647657935260  0.5409328642250758   T   T   T
  0.9959312533509481  0.0938472718018776  0.4517109681573757   T   T   T
  0.4978923056809885  0.6074909581871679  0.9663517534260965   T   T   T
  0.4991809479224391  0.3887047388719206  0.0407823521914016   T   T   T
 
             NaN             NaN             NaN
             NaN             NaN             NaN
             NaN             NaN             NaN
             NaN             NaN             NaN
             NaN             NaN             NaN
             NaN             NaN             NaN
             NaN             NaN             NaN
             NaN             NaN             NaN
             NaN             NaN             NaN
             NaN             NaN             NaN
             NaN             NaN             NaN
             NaN             NaN             NaN
             NaN             NaN             NaN
             NaN             NaN             NaN
             NaN             NaN             NaN
             NaN             NaN             NaN
             NaN             NaN             NaN
             NaN             NaN             NaN
             NaN             NaN             NaN
             NaN             NaN             NaN
             NaN             NaN             NaN
             NaN             NaN             NaN
             NaN             NaN             NaN
             NaN             NaN             NaN
             NaN             NaN             NaN
             NaN             NaN             NaN
             NaN             NaN             NaN
             NaN             NaN             NaN
             NaN             NaN             NaN
             NaN             NaN             NaN
             NaN             NaN             NaN
             NaN             NaN             NaN
             NaN             NaN             NaN
             NaN             NaN             NaN
             NaN             NaN             NaN
             NaN             NaN             NaN
             NaN             NaN             NaN
             NaN             NaN             NaN
             NaN             NaN             NaN
             NaN             NaN             NaN
             NaN             NaN             NaN
             NaN             NaN             NaN
             NaN             NaN             NaN
             NaN             NaN             NaN
             NaN             NaN             NaN
             NaN             NaN             NaN
             NaN             NaN             NaN
             NaN             NaN             NaN
             NaN             NaN             NaN
             NaN             NaN             NaN
             NaN             NaN             NaN
             NaN             NaN             NaN
             NaN             NaN             NaN
             NaN             NaN             NaN
             NaN             NaN             NaN
             NaN             NaN             NaN
             NaN             NaN             NaN
             NaN             NaN             NaN
             NaN             NaN             NaN
             NaN             NaN             NaN
             NaN             NaN             NaN
             NaN             NaN             NaN
             NaN             NaN             NaN
             NaN             NaN             NaN
             NaN             NaN             NaN
             NaN             NaN             NaN
             NaN             NaN             NaN
             NaN             NaN             NaN
             NaN             NaN             NaN
             NaN             NaN             NaN
             NaN             NaN             NaN
             NaN             NaN             NaN
             NaN             NaN             NaN
             NaN             NaN             NaN
             NaN             NaN             NaN
             NaN             NaN             NaN
             NaN             NaN             NaN
             NaN             NaN             NaN
             NaN             NaN             NaN
             NaN             NaN             NaN
             NaN             NaN             NaN
             NaN             NaN             NaN
             NaN             NaN             NaN
             NaN             NaN             NaN
             NaN             NaN             NaN
             NaN             NaN             NaN
             NaN             NaN             NaN
             NaN             NaN             NaN
             NaN             NaN             NaN
             NaN             NaN             NaN
             NaN             NaN             NaN
             NaN             NaN             NaN
             NaN             NaN             NaN
             NaN             NaN             NaN
             NaN             NaN             NaN
             NaN             NaN             NaN
             NaN             NaN             NaN
             NaN             NaN             NaN
             NaN             NaN             NaN
             NaN             NaN             NaN
             NaN             NaN             NaN
             NaN             NaN             NaN
             NaN             NaN             NaN
             NaN             NaN             NaN
             NaN             NaN             NaN
             NaN             NaN             NaN
             NaN             NaN             NaN
             NaN             NaN             NaN
             NaN             NaN             NaN
             NaN             NaN             NaN
             NaN             NaN             NaN
             NaN             NaN             NaN
             NaN             NaN             NaN
             NaN             NaN             NaN
             NaN             NaN             NaN
             NaN             NaN             NaN
             NaN             NaN             NaN
             NaN             NaN             NaN
             NaN             NaN             NaN
