Ca Ti Mn Si O  F 
 1.0000000000000000
     9.9872684479000000    0.0000000000000000    0.0000000000000000
     0.0000000000000000   10.9652748108000004    0.0000000000000000
     0.0000000000000000   -4.3438069094999996   13.5038650633999993
 Ca  Ti  Mn  Si  O   F  
  11   8  12  16  64   8
Selective dynamics
Cartesian
  3.2150752510284426  2.6660630528263249  5.8091179325107811   T   T   T
  6.0111901070408953 -2.1503801289838447 13.2841213203176558   T   T   T
  3.9810999720209019  8.7734947923809994  0.2410132626449470   T   T   T
  8.9944619523169589  5.4547940793833796  6.6034023715110068   T   T   T
  3.6551044787555003  0.7019561617255912 12.3595706134807308   T   T   T
  6.3404729700725513  5.8711631201401708  1.2044237005857805   T   T   T
  8.7352128031849947 -1.5985825067614541  7.8962239300652053   T   T   T
  1.3324922677088633  8.3833646448738630  5.6040295184768514   T   T   T
  1.2165170408559933  6.1013443049676646 12.2902740434333939   T   T   T
  8.7271461155221353  0.4838751182711887  1.1809519867185765   T   T   T
  6.1963963267293805  3.7581945838897965  7.8691773243981471   T   T   T
  4.0877234931078350  5.2554833507010859 10.1404854897234635   T   T   T
  5.8693724075920777  1.3843629957528163  3.3886642904828874   T   T   T
  9.0302872439206947  4.6955199862039745 10.1037910188495115   T   T   T
  0.8941698720103889  1.8895878919177773  3.3781706559644848   T   T   T
  0.9127030925777747 -0.3167382835217084 10.3010364805369985   T   T   T
  9.0882405425747912  6.9675242307092979  3.2174802102455375   T   T   T
  5.9001523218883403 -0.6473090400284190  9.9283777266305773   T   T   T
  4.0806554509144330  7.2966798916768569  3.5697090402718969   T   T   T
  3.9898893528837664  6.7011764975995041  6.9684744430516314   T   T   T
  5.9725703166929325 -0.0438020022068286  6.5310151537838204   T   T   T
  9.0105935148825633  3.2001372027273178 13.3013176974987726   T   T   T
  1.0110657016413034  3.3615550418225588  0.2287470265764617   T   T   T
  3.5150264042929149  1.7253526153152230  9.1828537964568948   T   T   T
  6.2953467161002443  4.6676095191313678  4.3908676842693106   T   T   T
  8.5939989083199677 -2.8546810890958993 11.0489149566154410   T   T   T
  1.4001762517051544  9.5338920463362431  2.4440686352236733   T   T   T
  1.4352359283786735  7.3996548749783226  9.1353946533093033   T   T   T
  8.5881944156583554 -0.6572878877318037  4.3933437430594413   T   T   T
  6.4218286805992708  2.6236586688335577 11.0780685087302189   T   T   T
  3.5574547963396062  3.9605003816895858  2.4477434081777445   T   T   T
  3.3285048512828816 -2.3440116605285470 11.5826869230928349   T   T   T
  6.6828758601082381  8.9414569122307075  1.9209436089346992   T   T   T
  8.3638525867656703  1.3725184515618665  8.6717492950194153   T   T   T
  1.6543378558915449  5.2807006960892826  4.8432175680618483   T   T   T
  6.7381784336850723  6.7882039671141694  8.6343335644899586   T   T   T
  3.2991538541519718 -0.2112271519917454  4.7946451260986374   T   T   T
  1.7340773337445470  3.1572616049985909 11.6005343652056219   T   T   T
  8.2017817693052866  3.4325773231310888  1.9246314078523734   T   T   T
  1.6939539128547649  4.3513174935858343  8.0005597157052506   T   T   T
  8.3590377739439301  2.2921141120946444  5.6054193542753747   T   T   T
  6.6754263259868809  5.6275354292075788 12.3421853373130634   T   T   T
  3.2841386253110887  1.0036211038914353  1.1429558721365169   T   T   T
  3.2660913946857351 -1.1039704503916448  7.8794506560086095   T   T   T
  6.7135306316283554  7.8085447336241591  5.5809576756951635   T   T   T
  8.2627316089295260  0.1369827873555792 12.3397047577992662   T   T   T
  1.7269594390014247  6.4743579566966876  1.1772267372926302   T   T   T
  5.1171746350650302  2.9297913403544595  3.8180229655215596   T   T   T
  4.8201677469844766  3.6821849548464836  9.7454551667671989   T   T   T
  0.1710269869052257  0.2966222507697243  2.9636721237951473   T   T   T
  9.7075248167365089  6.2919551814829457 10.5509717349992975   T   T   T
  2.2064021032172301  1.7919527049348905 10.8822888202999621   T   T   T
  7.7114988800609083  4.7323987919687909  2.7499526454187744   T   T   T
  7.2518382525748448 -2.8341683952787178  9.3712662768234285   T   T   T
  2.8164756020041244  9.3772709095665725  4.0835701351506613   T   T   T
  0.1873704509909300 -1.8931997255933926  9.7940562578385588   T   T   T
  9.8460043254289040  8.5088049641988519  3.6657849395639879   T   T   T
  5.1703444054776089  0.9010056180846790 10.4715446395276857   T   T   T
  4.8018227476672832  5.7266518764924763  3.0643948245237693   T   T   T
  5.1664095093884796  6.3383203298346489  8.7730333023313261   T   T   T
  4.8839308564543487  0.1971583841070074  4.6639877895658515   T   T   T
  0.1824059951557266  3.6656067713032696 11.4872182495078334   T   T   T
  9.7531006467710046  2.9192318998657338  1.9758120935444798   T   T   T
  2.2743787610006572 -1.0834054042832633 11.7529982499283889   T   T   T
  7.7306648066673871  7.6654275636680884  1.7698241740574623   T   T   T
  7.2689960012040418  0.1096936890148406  8.6031067935673402   T   T   T
  2.7102989572586762  6.5490507345811304  4.9453413385750933   T   T   T
  7.3784748460222680 -3.8787501903399471 12.5788048963763863   T   T   T
  2.5832243995231834 10.5021283114547153  0.9035648772800983   T   T   T
  2.4297773046062159  2.9326742369233187  7.9120659235959412   T   T   T
  7.6298411519776774  3.7530341483682617  5.8552818242411826   T   T   T
  7.6533823867994251  5.4277599566824390  8.8493997000688385   T   T   T
  2.3962090255257413  1.0862423916952488  4.3508969067515268   T   T   T
  2.7002921263817519  4.4839107302501073 11.3893742922394221   T   T   T
  7.2333918853651893  2.0937200829911364  2.0626542497636109   T   T   T
  2.7278215043696084  8.3288302697141745  7.6237310287318083   T   T   T
  7.2378712075960658 -1.6349685633027260  5.8592581001155972   T   T   T
  7.7243760696869108  1.6730966866210726 12.5364370972285020   T   T   T
  2.2948036043133175  4.9611530169893054  0.9412140986121893   T   T   T
  3.7185041045646856 -2.7710630900360997 13.1452738795107678   T   T   T
  6.3255206724934396  9.3566935854203201  0.3433103578532721   T   T   T
  8.6686619266123373  1.6733741873334720  7.0912108339539328   T   T   T
  1.4003315245266412  4.8206005025635035  6.4219263728920781   T   T   T
  4.7866071639720928 -1.7645805689400658 11.0991855418991161   T   T   T
  5.2166325706756211  8.3635476833370817  2.3767238143889378   T   T   T
  9.7144850521503017  0.7599971949640748  9.3401508584234332   T   T   T
  0.1816720017442034  5.8736203138067902  4.4415630706952376   T   T   T
  2.0110757960465540  2.9311744867390579 13.2402808663153060   T   T   T
  7.8911498383156022  3.7841992536438442  0.3132197574404201   T   T   T
  7.0061634097540395  6.9682844554608661  6.9919985609930677   T   T   T
  3.0445453230707158 -0.3059207276379926  6.4378113327563797   T   T   T
  9.8644039123002880 -0.0414160416183234 12.0808814466018308   T   T   T
  0.1230639981739468  6.5790406159125672  1.4835593030723679   T   T   T
  4.8784276453507198 -1.0075041513063370  8.2220163788837919   T   T   T
  5.1103169192006765  7.6512383656164697  5.2738925772467704   T   T   T
  2.7087644493208503  7.3226966415473651 10.8442261404638778   T   T   T
  7.3026935392630374 -0.7372225388252170  2.6670027244108119   T   T   T
  7.7491264408020193  2.6961507312771773  9.3919246631998234   T   T   T
  2.1997563019634745  3.9681424171852191  4.0704897100987276   T   T   T
  2.6242062908353514  5.5441026727912268  8.6668147201080004   T   T   T
  7.3634551339724785  1.2136616000164089  4.8339613163227932   T   T   T
  7.6174639955188512  4.4951720206094770 11.6134201811793467   T   T   T
  2.2886159050438395  2.1525768966099932  1.7724708710635935   T   T   T
  5.1773755731800897  5.7014728647933142 11.6832390510673765   T   T   T
  4.7526739128073858  0.9282955397565295  1.8608966311695649   T   T   T
  0.1668679528587723  4.3706888036256917  8.5890539423284071   T   T   T
  9.7818785570286071  2.4153688054597944  4.8081246475377091   T   T   T
  2.4446078116226078 -0.2672549994243386  9.0263525835935958   T   T   T
  7.6190838731980488  6.9256680973223013  4.5344656576925368   T   T   T
  7.3588293618836751 -0.8258522681188480 11.3470481788471371   T   T   T
  2.6285135814651146  7.4237984135418742  2.1733611530080474   T   T   T
  0.0966732565884875 -2.9676209401682216 12.9808020899491989   T   T   T
  9.8642915217336391  9.5349463135134638  0.4985462666261102   T   T   T
  5.0223768171481513  1.8750094828724782  7.2358558800212132   T   T   T
  4.8302110027277845  4.7020027872905041  6.2430460079382408   T   T   T
  9.9844318947284521  7.4184989214361758  7.3029511846987347   T   T   T
 -0.0544529561731834 -0.9108587872298753  6.1039021939404421   T   T   T
  4.9871656827857249  2.4857283767648708 13.0302776528356432   T   T   T
  4.9854667462933850  4.1066454777867323  0.5352900029436748   T   T   T
