Ca Mo P  O 
1.0
       13.5525741577         0.0000000000         0.0000000000
        1.7537126110        13.1757863360         0.0000000000
        5.4699123408         0.7720760249        12.8427846440
   Ca   Mo    P    O
   15   16   32  112
Direct
     0.363682508         0.549361646         0.391406000
     0.363682508         0.049361646         0.391406000
     0.363682508         0.049361646         0.891406000
     0.363682508         0.549361646         0.891406000
     0.863682508         0.049361646         0.391406000
     0.863682508         0.049361646         0.891406000
     0.863682508         0.549361646         0.391406000
     0.863682508         0.549361646         0.891406000
     0.136317477         0.450638354         0.108594008
     0.136317477         0.450638354         0.608594000
     0.136317477         0.950638354         0.108594008
     0.136317477         0.950638354         0.608594000
     0.636317492         0.450638354         0.608594000
     0.636317492         0.950638354         0.108594008
     0.636317492         0.950638354         0.608594000
     0.451918602         0.175849766         0.117011890
     0.451918602         0.175849766         0.617011905
     0.451918602         0.675849795         0.117011890
     0.451918602         0.675849795         0.617011905
     0.951918602         0.175849766         0.117011890
     0.951918602         0.175849766         0.617011905
     0.951918602         0.675849795         0.117011890
     0.951918602         0.675849795         0.617011905
     0.048081402         0.324150234         0.382988095
     0.048081402         0.324150234         0.882988095
     0.048081402         0.824150205         0.382988095
     0.048081402         0.824150205         0.882988095
     0.548081398         0.324150234         0.382988095
     0.548081398         0.324150234         0.882988095
     0.548081398         0.824150205         0.382988095
     0.548081398         0.824150205         0.882988095
     0.391328365         0.427989990         0.121987499
     0.391328365         0.427989990         0.621987522
     0.391328365         0.927989960         0.121987499
     0.391328365         0.927989960         0.621987522
     0.891328335         0.427989990         0.121987499
     0.891328335         0.427989990         0.621987522
     0.891328335         0.927989960         0.121987499
     0.891328335         0.927989960         0.621987522
     0.321310520         0.308459610         0.329198152
     0.321310520         0.308459610         0.829198122
     0.321310520         0.808459640         0.329198152
     0.321310520         0.808459640         0.829198122
     0.821310520         0.308459610         0.329198152
     0.821310520         0.308459610         0.829198122
     0.821310520         0.808459640         0.329198152
     0.821310520         0.808459640         0.829198122
     0.108671658         0.072010003         0.378012508
     0.108671658         0.072010003         0.878012538
     0.108671658         0.572009981         0.378012508
     0.108671658         0.572009981         0.878012538
     0.608671665         0.072010003         0.378012508
     0.608671665         0.072010003         0.878012538
     0.608671665         0.572009981         0.378012508
     0.608671665         0.572009981         0.878012538
     0.178689450         0.191540375         0.170801878
     0.178689450         0.191540375         0.670801878
     0.178689450         0.691540360         0.170801878
     0.178689450         0.691540360         0.670801878
     0.678689480         0.191540375         0.170801878
     0.678689480         0.191540375         0.670801878
     0.678689480         0.691540360         0.170801878
     0.678689480         0.691540360         0.670801878
     0.112583280         0.129236728         0.135624647
     0.112583280         0.129236728         0.635624647
     0.112583280         0.629236698         0.135624647
     0.112583280         0.629236698         0.635624647
     0.612583280         0.129236728         0.135624647
     0.612583280         0.129236728         0.635624647
     0.612583280         0.629236698         0.135624647
     0.612583280         0.629236698         0.635624647
     0.320714295         0.474532664         0.063465044
     0.320714295         0.474532664         0.563465059
     0.320714295         0.974532664         0.063465044
     0.320714295         0.974532664         0.563465059
     0.820714295         0.474532664         0.063465044
     0.820714295         0.474532664         0.563465059
     0.820714295         0.974532664         0.063465044
     0.820714295         0.974532664         0.563465059
     0.446254611         0.005561405         0.154508799
     0.446254611         0.005561405         0.654508829
     0.446254611         0.505561411         0.154508799
     0.446254611         0.505561411         0.654508829
     0.946254611         0.005561405         0.154508799
     0.946254611         0.005561405         0.654508829
     0.946254611         0.505561411         0.154508799
     0.946254611         0.505561411         0.654508829
     0.179285690         0.025467347         0.436534971
     0.179285690         0.025467347         0.936535001
     0.179285690         0.525467336         0.436534971
     0.179285690         0.525467336         0.936535001
     0.679285705         0.025467347         0.436534971
     0.679285705         0.025467347         0.936535001
     0.679285705         0.525467336         0.436534971
     0.679285705         0.525467336         0.936535001
     0.189823776         0.126170948         0.274163276
     0.189823776         0.126170948         0.774163246
     0.189823776         0.626170933         0.274163276
     0.189823776         0.626170933         0.774163246
     0.689823747         0.126170948         0.274163276
     0.689823747         0.126170948         0.774163246
     0.689823747         0.626170933         0.274163276
     0.689823747         0.626170933         0.774163246
     0.053745385         0.494438618         0.345491171
     0.053745385         0.494438618         0.845491171
     0.053745385         0.994438648         0.345491171
     0.053745385         0.994438648         0.845491171
     0.553745389         0.494438618         0.345491171
     0.553745389         0.494438618         0.845491171
     0.553745389         0.994438648         0.345491171
     0.553745389         0.994438648         0.845491171
     0.019595051         0.154692650         0.438095570
     0.019595051         0.154692650         0.938095570
     0.019595051         0.654692650         0.438095570
     0.019595051         0.654692650         0.938095570
     0.519595027         0.154692650         0.438095570
     0.519595027         0.154692650         0.938095570
     0.519595027         0.654692650         0.438095570
     0.519595027         0.654692650         0.938095570
     0.293321311         0.198988527         0.094701916
     0.293321311         0.198988527         0.594701886
     0.293321311         0.698988557         0.094701916
     0.293321311         0.698988557         0.594701886
     0.793321311         0.198988527         0.094701916
     0.793321311         0.198988527         0.594701886
     0.793321311         0.698988557         0.094701916
     0.793321311         0.698988557         0.594701886
     0.382302463         0.204334363         0.290854335
     0.382302463         0.204334363         0.790854335
     0.382302463         0.704334378         0.290854335
     0.382302463         0.704334378         0.790854335
     0.882302463         0.204334363         0.290854335
     0.882302463         0.204334363         0.790854335
     0.882302463         0.704334378         0.290854335
     0.882302463         0.704334378         0.790854335
     0.310176224         0.373829037         0.225836724
     0.310176224         0.373829037         0.725836754
     0.310176224         0.873829007         0.225836724
     0.310176224         0.873829007         0.725836754
     0.810176253         0.373829037         0.225836724
     0.810176253         0.373829037         0.725836754
     0.810176253         0.873829007         0.225836724
     0.810176253         0.873829007         0.725836754
     0.206678718         0.301011473         0.405298084
     0.206678718         0.301011473         0.905298114
     0.206678718         0.801011443         0.405298084
     0.206678718         0.801011443         0.905298114
     0.706678748         0.301011473         0.405298084
     0.706678748         0.301011473         0.905298114
     0.706678748         0.801011443         0.405298084
     0.706678748         0.801011443         0.905298114
     0.480404973         0.345307350         0.061904419
     0.480404973         0.345307350         0.561904430
     0.480404973         0.845307350         0.061904419
     0.480404973         0.845307350         0.561904430
     0.980404973         0.345307350         0.061904419
     0.980404973         0.345307350         0.561904430
     0.980404973         0.845307350         0.061904419
     0.980404973         0.845307350         0.561904430
     0.387416720         0.370763302         0.364375353
     0.387416720         0.370763302         0.864375353
     0.387416720         0.870763302         0.364375353
     0.387416720         0.870763302         0.864375353
     0.887416720         0.370763302         0.364375353
     0.887416720         0.370763302         0.864375353
     0.887416720         0.870763302         0.364375353
     0.887416720         0.870763302         0.864375353
     0.117697544         0.295665652         0.209145650
     0.117697544         0.295665652         0.709145665
     0.117697544         0.795665622         0.209145650
     0.117697544         0.795665622         0.709145665
     0.617697537         0.295665652         0.209145650
     0.617697537         0.295665652         0.709145665
     0.617697537         0.795665622         0.209145650
     0.617697537         0.795665622         0.709145665
