Ca V  O                                 
   1.00000000000000     
    11.0808181762999993    0.0000000000000000    0.0000000000000000
    -1.8468029563999999    7.7866447772000003    0.0000000000000000
     0.0000000000000000   -3.0461372258999999    9.8078967616000003
   Ca   V    O 
     5    18    45
Direct
  0.6212539741831216  0.0304143617969787  0.3638653202550314
  0.0237977691249055  0.0030663258485640  0.3692275847458567
  0.1421028530191740  0.8446105320378399  0.6746243891941047
  0.4855534746610828  0.8652663792339804  0.6651810436666254
  0.8204482210308994  0.9113822533964105  0.6465547320202889
  0.0558841592249154  0.2572181925397461  0.1151137661607519
  0.3852155189123969  0.2512769909450914  0.1151858515314831
  0.7204706558375894  0.2482690202312993  0.1047147506419099
  0.3061660082057478  0.7881746428636728  0.9108608247599479
  0.6427957074708436  0.7845480855582194  0.9024766640572890
  0.9688663314050866  0.7968697286730071  0.9110359471159979
  0.1244326505376426  0.6779577074422031  0.0943994595821252
  0.4534771319591515  0.6693014255630567  0.0920277731241206
  0.7876746390372001  0.6785798622256635  0.1071864699764552
  0.2339143354913895  0.3390328918717461  0.8937566453365298
  0.5690131145777730  0.3470305234463118  0.9018588025920894
  0.9050035342758270  0.3597852128576340  0.9061623541658622
  0.1003093819040732  0.5550398165227857  0.3944056596410035
  0.4440331191683010  0.5535006343323348  0.3938642600727947
  0.7733937965878244  0.5233538906492725  0.3916380428047727
  0.2482935420838541  0.4318126976639170  0.5874431782353278
  0.5803694041781532  0.4187407335043953  0.5918326204462824
  0.9150981084651464  0.3919146446340749  0.5825786737104720
  0.0090040414410557  0.0179917071381010  0.0121595757955066
  0.3459554734766487  0.0104187959416935  0.0084559238181438
  0.6804616350991709  0.0117505829769040  0.0052892031058460
  0.2821729178821707  0.6377971821986707  0.0372822373492875
  0.6167514677890494  0.6426587702717501  0.0489164438347609
  0.9488434054837347  0.6422480876942370  0.0443586987890660
  0.0768116791494360  0.3889888553651131  0.9534578200260527
  0.4066574511914944  0.3798012790959677  0.9483813463215549
  0.7420769949346637  0.3874633444021578  0.9565491135783170
  0.2231647949653259  0.2722196535021259  0.0717639284412027
  0.5562056741404142  0.2745963060570495  0.0724880791356866
  0.8926271423115111  0.2838090906304253  0.0810132234212623
  0.1292280661596316  0.7555818413948221  0.9195864466324334
  0.4688987519003454  0.7414644189833790  0.9220117320867955
  0.7988851947573825  0.7456235399033589  0.9369085296940342
  0.1488318111214593  0.8741541509821833  0.2103769277111001
  0.4785119584423861  0.8704794998566452  0.2032810945847903
  0.8240073000021071  0.8753074493675187  0.2282895622384071
  0.1957592887781432  0.1354046105077028  0.7869965619408748
  0.5435310151208723  0.1457174552843881  0.7928123998308053
  0.8692611009733497  0.1506065170320966  0.8124939292372456
  0.1024781461943056  0.5309274501035053  0.2107725741401443
  0.4307650352030720  0.5273728331834336  0.2081020623402317
  0.7625632749896567  0.5228598046082973  0.2109690473213436
  0.2557706560676514  0.4649291250277485  0.7704950731313809
  0.5927526712777879  0.4800060563434486  0.7783033467623915
  0.9222453331092281  0.4655151999687143  0.7691135769941674
  0.0603571334136974  0.2389347686001177  0.2741059686756585
  0.3862182316784029  0.2471490468050132  0.2751170446029755
  0.7167668911371929  0.2375334354906213  0.2697156907193088
  0.3078942871171008  0.7858088541970120  0.7385924432908710
  0.6516192509864728  0.7967359158184882  0.7350006369844234
  0.9545055162060246  0.8091636101754640  0.7468990756709422
  0.0923237903137859  0.5047563564814372  0.5776764609687353
  0.4295366393806298  0.5005276083918068  0.5722430802510456
  0.7578083321870950  0.4455306486458825  0.5617437341228266
  0.2674895787461631  0.5388000646866589  0.4309405622472808
  0.6002601918233499  0.4950403387326836  0.4248644542473968
  0.9277355820715029  0.4624616504700268  0.4132651545389947
  0.1044858544690038  0.7776242886829609  0.4484015691736656
  0.5099712976754059  0.7811155492692203  0.4426843289844645
  0.8343233117596768  0.7477263270974487  0.4416194833578274
  0.1988073032589038  0.2133818636243062  0.5202804178756848
  0.5339666326609546  0.1963336392062621  0.5408526400899089
  0.8903755826966662  0.1641138739824344  0.5336063281251205
 
             NaN             NaN             NaN
             NaN             NaN             NaN
             NaN             NaN             NaN
             NaN             NaN             NaN
             NaN             NaN             NaN
             NaN             NaN             NaN
             NaN             NaN             NaN
             NaN             NaN             NaN
             NaN             NaN             NaN
             NaN             NaN             NaN
             NaN             NaN             NaN
             NaN             NaN             NaN
             NaN             NaN             NaN
             NaN             NaN             NaN
             NaN             NaN             NaN
             NaN             NaN             NaN
             NaN             NaN             NaN
             NaN             NaN             NaN
             NaN             NaN             NaN
             NaN             NaN             NaN
             NaN             NaN             NaN
             NaN             NaN             NaN
             NaN             NaN             NaN
             NaN             NaN             NaN
             NaN             NaN             NaN
             NaN             NaN             NaN
             NaN             NaN             NaN
             NaN             NaN             NaN
             NaN             NaN             NaN
             NaN             NaN             NaN
             NaN             NaN             NaN
             NaN             NaN             NaN
             NaN             NaN             NaN
             NaN             NaN             NaN
             NaN             NaN             NaN
             NaN             NaN             NaN
             NaN             NaN             NaN
             NaN             NaN             NaN
             NaN             NaN             NaN
             NaN             NaN             NaN
             NaN             NaN             NaN
             NaN             NaN             NaN
             NaN             NaN             NaN
             NaN             NaN             NaN
             NaN             NaN             NaN
             NaN             NaN             NaN
             NaN             NaN             NaN
             NaN             NaN             NaN
             NaN             NaN             NaN
             NaN             NaN             NaN
             NaN             NaN             NaN
             NaN             NaN             NaN
             NaN             NaN             NaN
             NaN             NaN             NaN
             NaN             NaN             NaN
             NaN             NaN             NaN
             NaN             NaN             NaN
             NaN             NaN             NaN
             NaN             NaN             NaN
             NaN             NaN             NaN
             NaN             NaN             NaN
             NaN             NaN             NaN
             NaN             NaN             NaN
             NaN             NaN             NaN
             NaN             NaN             NaN
             NaN             NaN             NaN
             NaN             NaN             NaN
             NaN             NaN             NaN
