Ca V  O                                 
   1.00000000000000     
    11.0808181762999993    0.0000000000000000    0.0000000000000000
    -1.8468029563999999    7.7866447772000003    0.0000000000000000
     0.0000000000000000   -3.0461372258999999    9.8078967616000003
   Ca   V    O 
     5    18    45
Direct
  0.6212262320307849  0.0304258908919632  0.3638815803108073
  0.0238153150559275  0.0030811393816455  0.3692147216081886
  0.1421095143718528  0.8446351662582970  0.6746396978615407
  0.4855681074990768  0.8652554378670503  0.6652264100419014
  0.8204630879249796  0.9114063465329799  0.6465590918047109
  0.0558870767298257  0.2571873469166148  0.1151439594140766
  0.3852313762058394  0.2512521498244694  0.1152462852210747
  0.7204850138079306  0.2482626036017252  0.1046911358153204
  0.3061640317483469  0.7881664112549484  0.9108624575897969
  0.6428051631165256  0.7845209055941634  0.9024682033648770
  0.9688799033351603  0.7968952277744304  0.9110296167314410
  0.1244380549060011  0.6779512454049228  0.0943978781128868
  0.4534804274260906  0.6692940069594536  0.0920066490759616
  0.7876920690560295  0.6786004532059242  0.1071965979448713
  0.2339252582777186  0.3390408495691117  0.8937331137185756
  0.5690172199861635  0.3470178076169063  0.9018292748017454
  0.9050173805198849  0.3598100503540704  0.9061923495403763
  0.1003038997952779  0.5550046582299436  0.3943784552949693
  0.4440348056199204  0.5534663198204700  0.3938564250682106
  0.7734196419300051  0.5233640380545196  0.3916428736915196
  0.2483097983938813  0.4318294175802070  0.5874891125255620
  0.5803586117174744  0.4187100855117334  0.5918519184028913
  0.9151064360817555  0.3918981602040756  0.5825791023569765
  0.0090209660706403  0.0180026742733452  0.0121627384773144
  0.3459766834112945  0.0104276334272249  0.0084446601279821
  0.6804721572275660  0.0117680339142676  0.0052967880861569
  0.2821893863033803  0.6377939304965834  0.0372744163845125
  0.6167497571405505  0.6426717006428131  0.0489235082005897
  0.9488578251348267  0.6422342281930961  0.0443492180853425
  0.0768159622764085  0.3889643814703834  0.9534654466042345
  0.4066660382146109  0.3798146817864599  0.9483823596623949
  0.7420863517249713  0.3874524101530278  0.9565459975833812
  0.2231649938554393  0.2722037461523293  0.0717586448928807
  0.5562206640271622  0.2745662860598523  0.0724711022104563
  0.8926228588265410  0.2837774305251211  0.0810158367535318
  0.1292323320162407  0.7555680573937761  0.9195755601754603
  0.4689032750382399  0.7414680721921493  0.9220116263570994
  0.7988834215832208  0.7456275020426133  0.9368987332086192
  0.1488491968229645  0.8741592956175932  0.2103788773200377
  0.4785027517971236  0.8704958695632889  0.2032867291997274
  0.8240286851603570  0.8752740083153878  0.2282697130886529
  0.1957808925076112  0.1354150534507343  0.7870030428601499
  0.5435425497204539  0.1457336132476231  0.7928064177488759
  0.8692550270089164  0.1505722371172705  0.8124817119038185
  0.1024879541669380  0.5309023243006075  0.2107561961946972
  0.4307747954957089  0.5273828256858148  0.2081018554304489
  0.7625635521681419  0.5228252116545596  0.2109700188017090
  0.2557822271430500  0.4649179013926646  0.7705048340928191
  0.5927608300507846  0.4800164361532401  0.7783079965674972
  0.9222475523906634  0.4655156916002584  0.7691220014232248
  0.0603681132103098  0.2389303578804735  0.2740503682035726
  0.3862480609729642  0.2471228724368127  0.2750660453815212
  0.7167617916046466  0.2375274850538262  0.2697248774944682
  0.3079007302837166  0.7858049898932071  0.7385910585281196
  0.6516441176536407  0.7967299488332037  0.7350039943953856
  0.9545183811905255  0.8091688564410695  0.7469003668939570
  0.0923279352763539  0.5047703126904082  0.5776781032035269
  0.4295580815517817  0.5005741299673375  0.5722681146695907
  0.7578116069855073  0.4455155986003352  0.5617436447217476
  0.2674963750960540  0.5388004718494988  0.4309254982679994
  0.6002756392512111  0.4950874436411954  0.4248689735841232
  0.9277346172059938  0.4624398506039814  0.4132533988491592
  0.1044978164766488  0.7776575850864773  0.4484041149887011
  0.5099876395097999  0.7812022225134149  0.4427073801680213
  0.8343505732184693  0.7477134139827606  0.4416238459044262
  0.1988321627348709  0.2133844635491416  0.5202681214466429
  0.5339446957442523  0.1964117045475058  0.5408634536754281
  0.8903893980176798  0.1641093392151635  0.5336080439108093
 
             NaN             NaN             NaN
             NaN             NaN             NaN
             NaN             NaN             NaN
             NaN             NaN             NaN
             NaN             NaN             NaN
             NaN             NaN             NaN
             NaN             NaN             NaN
             NaN             NaN             NaN
             NaN             NaN             NaN
             NaN             NaN             NaN
             NaN             NaN             NaN
             NaN             NaN             NaN
             NaN             NaN             NaN
             NaN             NaN             NaN
             NaN             NaN             NaN
             NaN             NaN             NaN
             NaN             NaN             NaN
             NaN             NaN             NaN
             NaN             NaN             NaN
             NaN             NaN             NaN
             NaN             NaN             NaN
             NaN             NaN             NaN
             NaN             NaN             NaN
             NaN             NaN             NaN
             NaN             NaN             NaN
             NaN             NaN             NaN
             NaN             NaN             NaN
             NaN             NaN             NaN
             NaN             NaN             NaN
             NaN             NaN             NaN
             NaN             NaN             NaN
             NaN             NaN             NaN
             NaN             NaN             NaN
             NaN             NaN             NaN
             NaN             NaN             NaN
             NaN             NaN             NaN
             NaN             NaN             NaN
             NaN             NaN             NaN
             NaN             NaN             NaN
             NaN             NaN             NaN
             NaN             NaN             NaN
             NaN             NaN             NaN
             NaN             NaN             NaN
             NaN             NaN             NaN
             NaN             NaN             NaN
             NaN             NaN             NaN
             NaN             NaN             NaN
             NaN             NaN             NaN
             NaN             NaN             NaN
             NaN             NaN             NaN
             NaN             NaN             NaN
             NaN             NaN             NaN
             NaN             NaN             NaN
             NaN             NaN             NaN
             NaN             NaN             NaN
             NaN             NaN             NaN
             NaN             NaN             NaN
             NaN             NaN             NaN
             NaN             NaN             NaN
             NaN             NaN             NaN
             NaN             NaN             NaN
             NaN             NaN             NaN
             NaN             NaN             NaN
             NaN             NaN             NaN
             NaN             NaN             NaN
             NaN             NaN             NaN
             NaN             NaN             NaN
             NaN             NaN             NaN
