Ca V  Fe P  O 
1.0
        9.8261823654         0.0000000000         0.0000000000
       -4.6929923391         8.6256538853         0.0000000000
       -1.2222993330        -2.0474749628         6.9219657605
   Ca    V   Fe    P    O
    3    2    2    8   28
Direct
     0.660300255         0.570929885         0.737869322
     0.676005065         0.088708021         0.261422902
     0.182502329         0.587109804         0.263038397
     0.864612877         0.357932240         0.730880439
     0.891816914         0.885417223         0.268243998
     0.397558898         0.384208560         0.262782902
     0.365811139         0.853414118         0.737805128
     0.095545970         0.287690520         0.497162551
     0.757415235         0.026049986         0.892724395
     0.259643644         0.525067568         0.890758455
     0.460406572         0.154076010         0.505954444
     0.597150505         0.789190590         0.494444788
     0.725660503         0.490014642         0.107978873
     0.222859144         0.993087292         0.108693883
     0.962629855         0.653254688         0.502323329
     0.067592710         0.117284007         0.459102780
     0.357668310         0.049913656         0.619122624
     0.603224576         0.024513669         0.917157292
     0.107335486         0.528711736         0.912986994
     0.198966503         0.354595482         0.727295041
     0.390235126         0.050786864         0.275198877
     0.224643171         0.147454903         0.083975509
     0.198630244         0.391720772         0.384539902
     0.458865345         0.311134219         0.524273157
     0.132429481         0.680510819         0.541918159
     0.630134225         0.180599153         0.541211545
     0.873528481         0.167517439         0.832357585
     0.377952695         0.661027730         0.824108124
     0.241502821         0.917124212         0.922170341
     0.745271325         0.418684125         0.919537008
     0.332484275         0.506780207         0.079860985
     0.832126260         0.005276932         0.078424029
     0.082735352         0.877718270         0.171894088
     0.588814616         0.370533258         0.172101885
     0.571372151         0.619797587         0.457472414
     0.440944314         0.791828811         0.475393355
     0.938983798         0.289978087         0.481818229
     0.857036531         0.549960911         0.614801705
     0.700469017         0.859665573         0.725230634
     0.895144582         0.550031304         0.272156149
     0.721734166         0.642474651         0.086479388
     0.701705337         0.893954992         0.381891578
     0.958906114         0.809171200         0.517326057
