Ca V  O 
1.0
       22.1925964355         0.0000000000         0.0000000000
      -11.0960461587        19.2194890037         0.0000000000
       -0.0000408315        -0.0000707212         9.5824823376
   Ca    V    O
   47   72  168
Direct
     0.333316475         0.666656792         0.524022818
     0.014879539         0.261224121         0.347959131
     0.014879539         0.761224151         0.347959131
     0.514879525         0.261224121         0.347959131
     0.514879525         0.761224151         0.347959131
     0.246381149         0.485094786         0.348089039
     0.246381149         0.985094786         0.348089039
     0.746381164         0.485094786         0.348089039
     0.746381164         0.985094786         0.348089039
     0.166686445         0.333356708         0.668323517
     0.166686445         0.833356738         0.668323517
     0.666686416         0.333356708         0.668323517
     0.666686416         0.833356738         0.668323517
     0.166655451         0.333319128         0.024004944
     0.166655451         0.833319128         0.024004944
     0.666655421         0.333319128         0.024004944
     0.666655421         0.833319128         0.024004944
     0.000001536         0.000016469         0.092921607
     0.000001536         0.500016451         0.092921607
     0.500001550         0.000016469         0.092921607
     0.500001550         0.500016451         0.092921607
     0.000014345         0.000002245         0.592907369
     0.000014345         0.500002265         0.592907369
     0.500014365         0.000002245         0.592907369
     0.500014365         0.500002265         0.592907369
     0.238727093         0.253605783         0.348013550
     0.238727093         0.753605783         0.348013550
     0.738727093         0.253605783         0.348013550
     0.738727093         0.753605783         0.348013550
     0.253604233         0.238716424         0.848039806
     0.253604233         0.738716424         0.848039806
     0.753604233         0.238716424         0.848039806
     0.753604233         0.738716424         0.848039806
     0.261238396         0.014888039         0.847965598
     0.261238396         0.514888048         0.847965598
     0.761238396         0.014888039         0.847965598
     0.761238396         0.514888048         0.847965598
     0.333371878         0.166705355         0.168316558
     0.833371878         0.166705355         0.168316558
     0.833371878         0.666705370         0.168316558
     0.333316475         0.166656807         0.524022818
     0.833316445         0.166656807         0.524022818
     0.833316445         0.666656792         0.524022818
     0.485101163         0.246374398         0.848123491
     0.485101163         0.746374369         0.848123491
     0.985101163         0.246374398         0.848123491
     0.985101163         0.746374369         0.848123491
     0.066197611         0.405986160         0.202862456
     0.066197611         0.905986190         0.202862456
     0.566197634         0.405986160         0.202862456
     0.566197634         0.905986190         0.202862456
     0.075094633         0.416054368         0.850631356
     0.075094633         0.916054368         0.850631356
     0.575094640         0.416054368         0.850631356
     0.575094640         0.916054368         0.850631356
     0.103131592         0.440523595         0.507298589
     0.103131592         0.940523624         0.507298589
     0.603131592         0.440523595         0.507298589
     0.603131592         0.940523624         0.507298589
     0.059479412         0.162719995         0.507286489
     0.059479412         0.662719965         0.507286489
     0.559479415         0.162719995         0.507286489
     0.559479415         0.662719965         0.507286489
     0.083976313         0.159111828         0.850580633
     0.083976313         0.659111857         0.850580633
     0.583976328         0.159111828         0.850580633
     0.583976328         0.659111857         0.850580633
     0.094006963         0.160210893         0.202898994
     0.094006963         0.660210907         0.202898994
     0.594006956         0.160210893         0.202898994
     0.594006956         0.660210907         0.202898994
     0.160280362         0.094084308         0.702874959
     0.160280362         0.594084322         0.702874959
     0.660280347         0.094084308         0.702874959
     0.660280347         0.594084322         0.702874959
     0.159097061         0.083964020         0.350595087
     0.159097061         0.583963990         0.350595087
     0.659097075         0.083964020         0.350595087
     0.659097075         0.583963990         0.350595087
     0.339708090         0.433755279         0.202836618
     0.339708090         0.933755279         0.202836618
     0.839708090         0.433755279         0.202836618
     0.839708090         0.933755279         0.202836618
     0.162653193         0.059485100         0.007252842
     0.162653193         0.559485078         0.007252842
     0.662653208         0.059485100         0.007252842
     0.662653208         0.559485078         0.007252842
     0.340940744         0.424891353         0.850640595
     0.340940744         0.924891353         0.850640595
     0.840940714         0.424891353         0.850640595
     0.840940714         0.924891353         0.850640595
     0.337339491         0.396837562         0.507312000
     0.337339491         0.896837592         0.507312000
     0.837339520         0.396837562         0.507312000
     0.837339520         0.896837592         0.507312000
     0.396808237         0.337319523         0.007338373
     0.396808237         0.837319493         0.007338373
     0.896808267         0.337319523         0.007338373
     0.896808267         0.837319493         0.007338373
     0.424893767         0.340908468         0.350635111
     0.424893767         0.840908468         0.350635111
     0.924893737         0.340908468         0.350635111
     0.924893737         0.840908468         0.350635111
     0.433762401         0.339761645         0.702884197
     0.433762401         0.839761615         0.702884197
     0.933762431         0.339761645         0.702884197
     0.933762431         0.839761615         0.702884197
     0.405969322         0.066215381         0.702834249
     0.405969322         0.566215396         0.702834249
     0.905969322         0.066215381         0.702834249
     0.905969322         0.566215396         0.702834249
     0.416088641         0.075097404         0.350651979
     0.416088641         0.575097382         0.350651979
     0.916088641         0.075097404         0.350651979
     0.916088641         0.575097382         0.350651979
     0.440530449         0.103209935         0.007358295
     0.440530449         0.603209913         0.007358295
     0.940530419         0.103209935         0.007358295
     0.940530419         0.603209913         0.007358295
     0.031488515         0.416510642         0.673514783
     0.031488515         0.916510642         0.673514783
     0.531488538         0.416510642         0.673514783
     0.531488538         0.916510642         0.673514783
     0.028106740         0.371499062         0.394022316
     0.028106740         0.871499062         0.394022316
     0.528106749         0.371499062         0.394022316
     0.528106749         0.871499062         0.394022316
     0.083823785         0.464652330         0.029669933
     0.083823785         0.964652300         0.029669933
     0.583823800         0.464652330         0.029669933
     0.583823800         0.964652300         0.029669933
     0.141824350         0.483591080         0.307965159
     0.141824350         0.983591080         0.307965159
     0.641824365         0.483591080         0.307965159
     0.641824365         0.983591080         0.307965159
     0.081715807         0.336971164         0.164925754
     0.081715807         0.836971164         0.164925754
     0.581715822         0.336971164         0.164925754
     0.581715822         0.836971164         0.164925754
     0.097968102         0.347788900         0.845487833
     0.097968102         0.847788930         0.845487833
     0.597968102         0.347788900         0.845487833
     0.597968102         0.847788930         0.845487833
     0.016394053         0.158209264         0.307860225
     0.016394053         0.658209264         0.307860225
     0.516394079         0.158209264         0.307860225
     0.516394079         0.658209264         0.307860225
     0.175819144         0.428055853         0.544280708
     0.175819144         0.928055882         0.544280708
     0.675819159         0.428055853         0.544280708
     0.675819159         0.928055882         0.544280708
     0.071931742         0.247722805         0.544199049
     0.071931742         0.747722805         0.544199049
     0.571931720         0.247722805         0.544199049
     0.571931720         0.747722805         0.544199049
     0.035392512         0.119173288         0.029667763
     0.035392512         0.619173288         0.029667763
     0.535392523         0.119173288         0.029667763
     0.535392523         0.619173288         0.029667763
     0.152257726         0.250252217         0.845438838
     0.152257726         0.750252247         0.845438838
     0.652257740         0.250252217         0.845438838
     0.652257740         0.750252247         0.845438838
     0.083480276         0.115037270         0.673573375
     0.083480276         0.615037262         0.673573375
     0.583480299         0.115037270         0.673573375
     0.583480299         0.615037262         0.673573375
     0.163051426         0.244755283         0.164929882
     0.163051426         0.744755268         0.164929882
     0.663051426         0.244755283         0.164929882
     0.663051426         0.744755268         0.164929882
     0.255320579         0.418262005         0.164996430
     0.255320579         0.918262005         0.164996430
     0.755320549         0.418262005         0.164996430
     0.755320549         0.918262005         0.164996430
     0.128541216         0.156608194         0.393985540
     0.128541216         0.656608224         0.393985540
     0.628541231         0.156608194         0.393985540
     0.628541231         0.656608224         0.393985540
     0.249751374         0.402036488         0.845480204
     0.249751374         0.902036488         0.845480204
     0.749751389         0.402036488         0.845480204
     0.749751389         0.902036488         0.845480204
     0.115048788         0.083484448         0.173569411
     0.115048788         0.583484471         0.173569411
     0.615048766         0.083484448         0.173569411
     0.615048766         0.583484471         0.173569411
     0.156607017         0.128512397         0.894026935
     0.156607017         0.628512383         0.894026935
     0.656607032         0.128512397         0.894026935
     0.656607032         0.628512383         0.894026935
     0.252277106         0.324187577         0.544217229
     0.252277106         0.824187577         0.544217229
     0.752277136         0.324187577         0.544217229
     0.752277136         0.824187577         0.544217229
     0.119174808         0.035360459         0.529643595
     0.119174808         0.535360456         0.529643595
     0.619174838         0.035360459         0.529643595
     0.619174838         0.535360456         0.529643595
     0.343360513         0.471897781         0.394043386
     0.343360513         0.971897781         0.394043386
     0.843360543         0.471897781         0.394043386
     0.843360543         0.971897781         0.394043386
     0.158219159         0.016383346         0.807872117
     0.158219159         0.516383350         0.807872117
     0.658219159         0.016383346         0.807872117
     0.658219159         0.516383350         0.807872117
     0.384981751         0.468468070         0.673548460
     0.384981751         0.968468070         0.673548460
     0.884981751         0.468468070         0.673548460
     0.884981751         0.968468070         0.673548460
     0.244696751         0.163007021         0.664947331
     0.244696751         0.663007021         0.664947331
     0.744696736         0.163007021         0.664947331
     0.744696736         0.663007021         0.664947331
     0.341762275         0.358154327         0.307896316
     0.341762275         0.858154297         0.307896316
     0.841762304         0.358154327         0.307896316
     0.841762304         0.858154297         0.307896316
     0.380800039         0.416188300         0.029691631
     0.380800039         0.916188300         0.029691631
     0.880800009         0.416188300         0.029691631
     0.880800009         0.916188300         0.029691631
     0.250261217         0.152267605         0.345439196
     0.250261217         0.652267575         0.345439196
     0.750261188         0.152267605         0.345439196
     0.750261188         0.652267575         0.345439196
     0.358157933         0.341766447         0.807892084
     0.358157933         0.841766477         0.807892084
     0.858157933         0.341766447         0.807892084
     0.858157933         0.841766477         0.807892084
     0.247769043         0.071930520         0.044227686
     0.247769043         0.571930528         0.044227686
     0.747769058         0.071930520         0.044227686
     0.747769058         0.571930528         0.044227686
     0.324194103         0.252291888         0.044232581
     0.324194103         0.752291918         0.044232581
     0.824194074         0.252291888         0.044232581
     0.824194074         0.752291918         0.044232581
     0.416177005         0.380793095         0.529710352
     0.416177005         0.880793095         0.529710352
     0.916177034         0.380793095         0.529710352
     0.916177034         0.880793095         0.529710352
     0.402039796         0.249768972         0.345492065
     0.402039796         0.749768972         0.345492065
     0.902039766         0.249768972         0.345492065
     0.902039766         0.749768972         0.345492065
     0.468473375         0.384983331         0.173558608
     0.468473375         0.884983301         0.173558608
     0.968473375         0.384983331         0.173558608
     0.968473375         0.884983301         0.173558608
     0.418253392         0.255278647         0.664972365
     0.418253392         0.755278647         0.664972365
     0.918253422         0.255278647         0.664972365
     0.918253422         0.755278647         0.664972365
     0.336984128         0.081710272         0.664950848
     0.336984128         0.581710279         0.664950848
     0.836984158         0.081710272         0.664950848
     0.836984158         0.581710279         0.664950848
     0.471890002         0.343356848         0.894038737
     0.471890002         0.843356848         0.894038737
     0.971889973         0.343356848         0.894038737
     0.971889973         0.843356848         0.894038737
     0.347760797         0.097971648         0.345494688
     0.347760797         0.597971678         0.345494688
     0.847760797         0.097971648         0.345494688
     0.847760797         0.597971678         0.345494688
     0.428059995         0.175781205         0.044266272
     0.428059995         0.675781190         0.044266272
     0.928059995         0.175781205         0.044266272
     0.928059995         0.675781190         0.044266272
     0.371478349         0.028077979         0.894014001
     0.371478349         0.528077960         0.894014001
     0.871478319         0.028077979         0.894014001
     0.871478319         0.528077960         0.894014001
     0.416512072         0.031493619         0.173533678
     0.416512072         0.531493604         0.173533678
     0.916512072         0.031493619         0.173533678
     0.916512072         0.531493604         0.173533678
     0.483606368         0.141834959         0.807955384
     0.483606368         0.641834974         0.807955384
     0.983606339         0.141834959         0.807955384
     0.983606339         0.641834974         0.807955384
     0.464650989         0.083826378         0.529646993
     0.464650989         0.583826363         0.529646993
     0.964650989         0.083826378         0.529646993
     0.964650989         0.583826363         0.529646993
