Mn V  P  O 
 1.0000000000000000
     7.0321899999999999    0.0000000000000000    0.0000000000000000
    -0.2906680000000000    8.1542790000000007    0.0000000000000000
    -0.8333469999999999   -0.1133990000000000   18.3736320000000006
 Mn  V   P   O  
   4   4  16  56
Cartesian
 -0.1609129312095677 -0.0576652063712404 14.7731444385505846
  5.3231438688153618 -0.0268039186304356 10.1819238831880607
  3.7734413592327325  0.0021161498765526  5.5863329755833186
  1.9325440124522921  8.1830442739584832  0.9940766687326007
  3.7697800009290332  4.0063805872764071 17.3828493803227069
  2.2201934495485371  4.0345012678973644 12.7896993045265077
  0.6705067398341311  4.0629700640903064  8.1978130127667708
  6.1519137842436864  4.0912778116250834  3.6046146008082904
  2.0713299563626464  1.3805943951149389 16.5820371076261139
 -0.7038419455028734  6.2028833771189467 17.3066152300762788
  4.2027622617841613  2.1758214127293387 14.7803329801551229
  1.5114148376894174  5.5312674695330903 15.5834495614223147
  4.7794070031507072  6.2303583805014968 12.7156426054074814
  0.5215685998376538  1.4095264601551827 11.9892901084101915
  2.6525172033497655  2.2024105265412564 10.1859590406472638
 -0.0379183765522617  5.5580162257684700 10.9915075527356318
  6.0049417302760819  1.4371379852439623  7.3962992792660662
  3.2291255433271839  6.2587046985695460  8.1186607966045692
  5.4452847953303065  5.5895557619465137  6.3974372296135904
  1.1038635583818479  2.2352638102133664  5.5937502198713256
  4.4516953623083930  1.4675816230870811  2.8007459075131171
  1.6811320426223497  6.2872525885235770  3.5261523507547161
  6.5840327904577673  2.2625973177775753  0.9983791967607494
  3.8948126663749609  5.6131431059665733  1.8024474970011251
  4.8588112990307408  2.6444985732644839 18.2142496236118490
  5.1174951925036138  5.3008248429227809 17.6479226994938045
  5.9068929315816954  7.3990844654603327 16.4576950436538532
  2.1978008571725298  0.3218603347999740 17.6602649410269947
  2.3286380301518927  2.8148507839423380 17.1573284452450920
  2.7379881107816386  5.3322931820263726 16.5228793152713038
  4.4577502923177068  3.3986756059658227 15.7424697752162785
  3.3539045605961477  1.1143263360609472 15.6350109523932908
  0.2089969891531943  5.1677669443715715 16.4518405986345755
  5.4396084058814917  1.4849371394089577 14.3348693884146936
  0.8170767955513545  1.3980879343805264 15.7331890694876577
  5.5292217834893389  6.5967645035644811 13.9797404089674835
  1.4003805793036872  6.9203676386640236 15.0507460223536516
  1.5280263724388821  4.4159644280013701 14.5100145124254798
  3.3123464103203060  2.6718335677437977 13.6229539887207647
  3.5671861808148324  5.3295832514945829 13.0540564793821456
  5.6935804410537543  5.1947384565244299 11.8612526846685356
  4.3591336547357509  7.4259515189757836 11.8661188216113906
  6.2971421365537417  1.4260651661139021 11.1443792531712553
  0.6472631847628298  0.3488046622086670 13.0650945536646539
  0.7841553342258520  2.8406143633868846 12.5689822347656985
  1.1902646791246330  5.3599428220569596 11.9311607225990919
  2.9068360558954858  3.4233837370979288 11.1490990366358336
  1.8023187096472284  1.1429940378993420 11.0414153534329245
  3.8885003045348721  1.5090322123260715  9.7423948158060263
  3.9802120790235933  6.6248531169307139  9.3814464866231013
  6.1298776672616562  0.3779510727282756  8.4740014553658529
 -0.1492798140254305  6.9456388060441778 10.4554984199771770
  6.2674301472570297  2.8698129978587845  7.9731838984782479
 -0.0205001722347219  4.4413201361840118  9.9198039113865235
  1.7624148522045537  2.7003161937925624  9.0292052085571601
  2.0153205211614322  5.3568833661120223  8.4550131244378459
  4.1419438032463818  5.2247034323901849  7.2628281896602136
  2.8077688824095115  7.4538803053362006  7.2688905944864679
  4.7463123795602664  1.4575245116376085  6.5546792136196244
  5.3310991637303973  6.9784204620828039  5.8650333849854990
  5.4610376987306539  4.4754140236284163  5.3223734403924192
 -0.3604984962967331  5.3895703177918248  7.3368898159069573
  1.3601835432441218  3.4545996681872824  6.5574918505091091
  0.2539199546252532  1.1731786281141716  6.4475962266432294
  2.3388017250753363  1.5427516713087168  5.1463508220377596
  2.4291676294439144  6.6529280713671310  4.7909765447239447
  4.5804136218146123  0.4093858408233419  3.8793402147773124
  4.7129914666237100  2.8996229221048804  3.3793223158061259
  5.1216864732824847  5.4182966950372657  2.7413998320969553
  0.2119051027219901  2.7349512808785827  4.4381429627461326
  0.4661799518911778  5.3869277003716132  3.8592552332456886
  5.7342048672723660  1.2005793650693688  1.8533163107198087
  2.5936595419102293  5.2520129458905931  2.6719154113249188
  1.2637231437460654  7.4832585427255509  2.6760594343099884
  3.1948589239353526  1.4846204785902117  1.9561679122265683
  3.7797866226195831  7.0013889234130193  1.2695114427029475
  3.9095077793588562  4.4996173745891861  0.7262116399083548
 -0.1963999177904095  3.4857638875127255  1.9583281665867549
  0.7901210501009838  1.5744463796201467  0.5523338779530101
  0.8779184403662421  6.6848797175286983  0.1970100285490924
