Ca Ti O 
 1.0000000000000000
    14.6439819335999992    0.0000000000000000    0.0000000000000000
    13.3873346942999998    5.9351054458999997    0.0000000000000000
     6.3008069636000004    1.3340776753000001    7.1998947533999997
 Ca  Ti  O  
   3  16  32
Selective dynamics
Cartesian
 20.8222728679768032  3.8166888476760934  6.7544331847763672   T   T   T
 14.0095543761489392  2.9689078426155118  6.3599677301883064   T   T   T
 28.0954736186614369  5.9488606170081493  6.2788178022641690   T   T   T
  7.9107685113726953  1.6925052735367176  3.1763779072502722   T   T   T
 14.6071999467657712  4.6516256621820311  3.1477248437380587   T   T   T
 15.2387301007539744  1.6689742474481375  3.1895770256536671   T   T   T
 21.9259863606525158  4.6532844369074633  3.1286266496017516   T   T   T
 16.9967708573285066  3.6115138363384225  5.6554658712391266   T   T   T
 23.5392918833063227  6.5638465816850120  5.6855613111672563   T   T   T
 24.2697749014526636  3.5732885327851878  5.6692057371251785   T   T   T
 31.0884598417805158  6.5971251497251329  5.6426849972365183   T   T   T
  3.2986424362665274  0.7113809543328208  1.0854938078835539   T   T   T
 10.0638167984316969  3.6744051255353529  1.1051935611442032   T   T   T
 10.6805994772197845  0.7225395647289364  1.1145852655195849   T   T   T
 17.4538450401191483  3.7172075498062185  1.1123662795414386   T   T   T
 12.3295350163561466  2.6129661198428513  3.5969232231602133   T   T   T
 19.1208969361995109  5.6392193571566001  3.5971970248939660   T   T   T
 19.7224606667044711  2.6009255563224341  3.4959223370254695   T   T   T
 26.2912119235454895  5.5706612975268186  3.6103411780435168   T   T   T
  4.4691586633141114  0.9547310200447634  2.6553114579951203   T   T   T
 11.1692315138933456  3.9232913511764647  2.6806269388152599   T   T   T
 11.8027224751867479  0.9479313813590449  2.6780213602741396   T   T   T
 18.5001394219609274  3.9374197072749979  2.6776662443575776   T   T   T
  9.1677337262588239  1.9476110570325307  1.6686201509203329   T   T   T
 15.8991203623732869  4.9241896960932046  1.8023358720905243   T   T   T
 16.4664038392537933  1.9682571585107227  1.7365230631706980   T   T   T
 23.1767970614973216  4.9120978544882616  1.6625522734410219   T   T   T
 11.0048236526659835  2.3310758426863352  5.0745218899203017   T   T   T
 17.7100711782905869  5.3018812842762317  5.0304662045251547   T   T   T
 18.3672017535311944  2.3574615742030618  5.0426533098197046   T   T   T
 25.0083442841017387  5.3154079249965607  5.0860424099969705   T   T   T
 15.6693658505480062  3.3210297983521824  4.2515517204529454   T   T   T
 22.4692141914150909  6.3206698388608951  4.1107050782194330   T   T   T
 23.0915051611684916  3.3581308020159670  4.1340103191701338   T   T   T
 29.6938496613062668  6.2920590714036706  4.2853194839718398   T   T   T
 13.9027871703931840  2.9362939829074435  2.3670884318085719   T   T   T
 20.6121589561317329  5.9165310672583633  2.3338173199857262   T   T   T
 21.2409317286045329  2.9718422557258912  2.3059532604125899   T   T   T
 27.9011146614630263  5.9135651565648137  2.4809066668453017   T   T   T
  8.8025023953423940  1.9129209426989942  6.5082339057106138   T   T   T
 15.4328925631347094  4.7932337603662907  6.5290445813793543   T   T   T
 16.0513270506825343  1.8769999869828018  6.5266591787902914   T   T   T
 22.7812658345189050  4.8422165119751543  6.5161356427402932   T   T   T
  6.3449300048282602  1.3915491740412540  4.4361151513086821   T   T   T
 13.0339978798720821  4.2911675796878193  4.6531526421520484   T   T   T
 13.6623668424674438  1.3667055611190133  4.6528309378094876   T   T   T
 20.3735858736137985  4.3098777918176969  4.5110108504517452   T   T   T
 11.4286369075007226  2.4127911389366359  0.2583256163044396   T   T   T
 18.0409499258941644  5.3809108001997652  0.3026685960610197   T   T   T
 18.6878225288826911  2.4353637170204427  0.3105893274635722   T   T   T
 25.3695120303844135  5.3824053030175003  0.2619556401686696   T   T   T
