Ca Mn V  P  O 
1.0
       10.0094642639         0.0000000000         0.0000000000
        2.2098047274         6.9432864357         0.0000000000
       -0.0737158871         0.0205305610        24.8482918273
   Ca   Mn    V    P    O
   11    6    6   24   84
Direct
     0.112049386         0.254849553         0.319243997
     0.129455492         0.249007702         0.656277835
     0.629455507         0.249007702         0.656277835
     0.113718286         0.250975192         0.969165862
     0.613718271         0.250975192         0.969165862
     0.383704126         0.722537100         0.140098453
     0.883704126         0.722537100         0.140098453
     0.380688041         0.748384476         0.491876274
     0.880688071         0.748384476         0.491876274
     0.384644121         0.762255013         0.818375528
     0.884644151         0.762255013         0.818375528
     0.114549488         0.261818618         0.822646081
     0.614549518         0.261818618         0.822646081
     0.383395791         0.764802456         0.657394707
     0.883395791         0.764802456         0.657394707
     0.386067986         0.730785072         0.996397316
     0.886067986         0.730785072         0.996397316
     0.108076021         0.259834290         0.170397311
     0.608076036         0.259834290         0.170397311
     0.127493992         0.244485065         0.494277209
     0.627493978         0.244485065         0.494277209
     0.383219302         0.746644139         0.334550291
     0.883219302         0.746644139         0.334550291
     0.190010220         0.489848316         0.066625513
     0.690010190         0.489848316         0.066625513
     0.184490070         0.544706643         0.406463146
     0.684490085         0.544706643         0.406463146
     0.179348156         0.578611553         0.734373987
     0.679348171         0.578611553         0.734373987
     0.104329459         0.879403293         0.258557081
     0.604329467         0.879403293         0.258557081
     0.120076150         0.855008245         0.573527694
     0.620076180         0.855008245         0.573527694
     0.107486889         0.877090633         0.917629421
     0.607486904         0.877090633         0.917629421
     0.385796547         0.098610118         0.093337506
     0.885796547         0.098610118         0.093337506
     0.396256298         0.135971919         0.411556631
     0.896256328         0.135971919         0.411556631
     0.386323273         0.152195141         0.741508365
     0.886323273         0.152195141         0.741508365
     0.305217803         0.488628209         0.238716230
     0.805217803         0.488628209         0.238716230
     0.328818977         0.426505357         0.570695400
     0.828818977         0.426505357         0.570695400
     0.312134296         0.472421527         0.896629274
     0.812134266         0.472421527         0.896629274
     0.011470167         0.168565840         0.102286093
     0.511470139         0.168565840         0.102286093
     0.027519999         0.192197859         0.745895147
     0.527520001         0.192197859         0.745895147
     0.031134848         0.191804200         0.415859431
     0.531134844         0.191804200         0.415859431
     0.096742690         0.050112702         0.881387174
     0.596742690         0.050112702         0.881387174
     0.073761687         0.067868181         0.228283241
     0.573761702         0.067868181         0.228283241
     0.137148738         0.963323116         0.522530377
     0.637148738         0.963323116         0.522530377
     0.091820613         0.528323412         0.017973524
     0.591820598         0.528323412         0.017973524
     0.087893598         0.601613104         0.683923364
     0.587893605         0.601613104         0.683923364
     0.079510771         0.582139432         0.359536827
     0.579510748         0.582139432         0.359536827
     0.099880695         0.589216709         0.787390113
     0.599880695         0.589216709         0.787390113
     0.113937981         0.505975723         0.120919883
     0.613937974         0.505975723         0.120919883
     0.116052404         0.537888408         0.461021632
     0.616052389         0.537888408         0.461021632
     0.202840656         0.370055318         0.240874797
     0.702840686         0.370055318         0.240874797
     0.223508343         0.311494231         0.570271075
     0.723508358         0.311494231         0.570271075
     0.206469119         0.359657556         0.895156264
     0.706469119         0.359657556         0.895156264
     0.307687134         0.070396893         0.144817948
     0.807687163         0.070396893         0.144817948
     0.339489907         0.076128863         0.463565022
     0.839489937         0.076128863         0.463565022
     0.335979968         0.082720734         0.793986201
     0.835979939         0.082720734         0.793986201
     0.273575842         0.260220289         0.055360362
     0.773575842         0.260220289         0.055360362
     0.273509473         0.326593935         0.389085650
     0.773509502         0.326593935         0.389085650
     0.266129225         0.351694107         0.727407813
     0.766129255         0.351694107         0.727407813
     0.218564108         0.714411557         0.222779915
     0.718564093         0.714411557         0.222779915
     0.228047431         0.702929735         0.887783706
     0.728047431         0.702929735         0.887783706
     0.241895944         0.653648674         0.561896086
     0.741895914         0.653648674         0.561896086
     0.182315513         0.901107848         0.310853601
     0.682315528         0.901107848         0.310853601
     0.166303739         0.933241189         0.625194728
     0.666303754         0.933241189         0.625194728
     0.168772504         0.909747541         0.972594798
     0.668772519         0.909747541         0.972594798
     0.294793695         0.604209721         0.066937059
     0.794793725         0.604209721         0.066937059
     0.284919977         0.667859018         0.407059759
     0.784919977         0.667859018         0.407059759
     0.283848554         0.694278598         0.735087335
     0.783848524         0.694278598         0.735087335
     0.378881365         0.486646473         0.293292850
     0.878881335         0.486646473         0.293292850
     0.405381709         0.417937577         0.624276817
     0.905381680         0.417937577         0.624276817
     0.387413055         0.452370167         0.951078534
     0.887413025         0.452370167         0.951078534
     0.405407667         0.447040677         0.191100836
     0.905407667         0.447040677         0.191100836
     0.422799349         0.401472837         0.521139264
     0.922799349         0.401472837         0.521139264
     0.408204257         0.444694310         0.847844839
     0.908204257         0.444694310         0.847844839
     0.416230917         0.911798835         0.060854945
     0.916230917         0.911798835         0.060854945
     0.372700930         0.035620809         0.691932499
     0.872700930         0.035620809         0.691932499
     0.397934586         0.001657128         0.364467591
     0.897934556         0.001657128         0.364467591
     0.477762163         0.807438135         0.264732063
     0.977762163         0.807438135         0.264732063
     0.479561985         0.812665761         0.576917410
     0.979561985         0.812665761         0.576917410
     0.474846512         0.815854251         0.919908226
     0.974846482         0.815854251         0.919908226
