Ca Mn V  Fe O 
1.0
       14.1527814865         0.0000000000         0.0000000000
        1.7587554364        14.0430766971         0.0000000000
        3.1044354433         2.7398877458        11.0959102754
   Ca   Mn    V   Fe    O
   15   8   32    8   96
Direct 
     0.358100057         0.641899943         0.500000000
     0.358100057         0.141899928         0.000000000
     0.358100057         0.141899928         0.500000000
     0.358100057         0.641899943         0.000000000
     0.858100057         0.141899928         0.000000000
     0.858100057         0.141899928         0.500000000
     0.858100057         0.641899943         0.000000000
     0.858100057         0.641899943         0.500000000
     0.142005816         0.357994169         0.250000000
     0.142005816         0.357994169         0.750000000
     0.142005816         0.857994199         0.250000000
     0.642005801         0.357994169         0.250000000
     0.642005801         0.357994169         0.750000000
     0.642005801         0.857994199         0.250000000
     0.642005801         0.857994199         0.750000000
     0.042262770         0.457737237         0.000000000
     0.042262770         0.457737237         0.500000000
     0.042262770         0.957737207         0.000000000
     0.042262770         0.957737207         0.500000000
     0.542262793         0.457737237         0.000000000
     0.542262793         0.457737237         0.500000000
     0.542262793         0.957737207         0.000000000
     0.542262793         0.957737207         0.500000000
     0.401680171         0.305319488         0.245217875
     0.401680171         0.305319488         0.745217860
     0.401680171         0.805319488         0.245217875
     0.401680171         0.805319488         0.745217860
     0.901680171         0.305319488         0.245217875
     0.901680171         0.305319488         0.745217860
     0.901680171         0.805319488         0.245217875
     0.901680171         0.805319488         0.745217860
     0.306321949         0.401571542         0.994884014
     0.306321949         0.401571542         0.494884014
     0.306321949         0.901571512         0.994884014
     0.306321949         0.901571512         0.494884014
     0.806321979         0.401571542         0.994884014
     0.806321979         0.401571542         0.494884014
     0.806321979         0.901571512         0.994884014
     0.806321979         0.901571512         0.494884014
     0.194680512         0.098319851         0.254782110
     0.194680512         0.098319851         0.754782081
     0.194680512         0.598319829         0.254782110
     0.194680512         0.598319829         0.754782081
     0.694680512         0.098319851         0.254782110
     0.694680512         0.098319851         0.754782081
     0.694680512         0.598319829         0.254782110
     0.694680512         0.598319829         0.754782081
     0.098428451         0.193678036         0.505115926
     0.098428451         0.193678036         0.005115926
     0.098428451         0.693678021         0.505115926
     0.098428451         0.693678021         0.005115926
     0.598428428         0.193678036         0.505115926
     0.598428428         0.193678036         0.005115926
     0.598428428         0.693678021         0.505115926
     0.598428428         0.693678021         0.005115926
     0.457879245         0.042120747         0.250000000
     0.457879245         0.042120747         0.750000000
     0.457879245         0.542120755         0.250000000
     0.457879245         0.542120755         0.750000000
     0.957879245         0.042120747         0.250000000
     0.957879245         0.042120747         0.750000000
     0.957879245         0.542120755         0.250000000
     0.957879245         0.542120755         0.750000000
     0.491169006         0.399304122         0.197852358
     0.491169006         0.399304122         0.697852373
     0.491169006         0.899304152         0.197852358
     0.491169006         0.899304152         0.697852373
     0.991168976         0.399304122         0.197852358
     0.991168976         0.399304122         0.697852373
     0.991168976         0.899304152         0.197852358
     0.991168976         0.899304152         0.697852373
     0.447967172         0.182813883         0.282102019
     0.447967172         0.182813883         0.782101989
     0.447967172         0.682813883         0.282102019
     0.447967172         0.682813883         0.782101989
     0.947967172         0.182813883         0.282102019
     0.947967172         0.182813883         0.782101989
     0.947967172         0.682813883         0.282102019
     0.947967172         0.682813883         0.782101989
     0.398602456         0.492206484         0.446465909
     0.398602456         0.492206484         0.946465909
     0.398602456         0.992206454         0.446465909
     0.398602456         0.992206454         0.946465909
     0.898602486         0.492206484         0.446465909
     0.898602486         0.492206484         0.946465909
     0.898602486         0.992206454         0.446465909
     0.898602486         0.992206454         0.946465909
     0.313021600         0.325413644         0.148107409
     0.313021600         0.325413644         0.648107409
     0.313021600         0.825413644         0.148107409
     0.313021600         0.825413644         0.648107409
     0.813021600         0.325413644         0.148107409
     0.813021600         0.325413644         0.648107409
     0.813021600         0.825413644         0.148107409
     0.813021600         0.825413644         0.648107409
     0.317186117         0.052032847         0.217897967
     0.317186117         0.052032847         0.717897952
     0.317186117         0.552032828         0.217897967
     0.317186117         0.552032828         0.717897952
     0.817186117         0.052032847         0.217897967
     0.817186117         0.052032847         0.717897952
     0.817186117         0.552032828         0.217897967
     0.817186117         0.552032828         0.717897952
     0.325328857         0.312733889         0.399126679
     0.325328857         0.312733889         0.899126649
     0.325328857         0.812733889         0.399126679
     0.325328857         0.812733889         0.899126649
     0.825328827         0.312733889         0.399126679
     0.825328827         0.312733889         0.899126649
     0.825328827         0.812733889         0.399126679
     0.825328827         0.812733889         0.899126649
     0.174586341         0.186978385         0.351892591
     0.174586341         0.186978385         0.851892591
     0.174586341         0.686978400         0.351892591
     0.174586341         0.686978400         0.851892591
     0.674586356         0.186978385         0.351892591
     0.674586356         0.186978385         0.851892591
     0.674586356         0.686978400         0.351892591
     0.674586356         0.686978400         0.851892591
     0.184607580         0.449583679         0.032865290
     0.184607580         0.449583679         0.532865286
     0.184607580         0.949583650         0.032865290
     0.184607580         0.949583650         0.532865286
     0.684607565         0.449583679         0.032865290
     0.684607565         0.449583679         0.532865286
     0.684607565         0.949583650         0.032865290
     0.684607565         0.949583650         0.532865286
     0.187266111         0.174671113         0.100873299
     0.187266111         0.174671113         0.600873291
     0.187266111         0.674671113         0.100873299
     0.187266111         0.674671113         0.600873291
     0.687266111         0.174671113         0.100873299
     0.687266111         0.174671113         0.600873291
     0.687266111         0.674671113         0.100873299
     0.687266111         0.674671113         0.600873291
     0.100695901         0.008831018         0.302147657
     0.100695901         0.008831018         0.802147627
     0.100695901         0.508831024         0.302147657
     0.100695901         0.508831024         0.802147627
     0.600695908         0.008831018         0.302147657
     0.600695908         0.008831018         0.802147627
     0.600695908         0.508831024         0.302147657
     0.600695908         0.508831024         0.802147627
     0.050416332         0.315392435         0.467134714
     0.050416332         0.315392435         0.967134714
     0.050416332         0.815392435         0.467134714
     0.050416332         0.815392435         0.967134714
     0.550416350         0.315392435         0.467134714
     0.550416350         0.315392435         0.967134714
     0.550416350         0.815392435         0.467134714
     0.550416350         0.815392435         0.967134714
     0.007793513         0.101397529         0.053534098
     0.007793513         0.101397529         0.553534091
     0.007793513         0.601397514         0.053534098
     0.007793513         0.601397514         0.553534091
     0.507793486         0.101397529         0.053534098
     0.507793486         0.101397529         0.553534091
     0.507793486         0.601397514         0.053534098
     0.507793486         0.601397514         0.553534091
