Ca Cr P  O 
 1.0000000000000000
     8.7485284804999992    0.0000000000000000    0.0000000000000000
     0.0000065873000000    9.8939285278000000    0.0000000000000000
    -0.0000058994000000    2.4026902022000001    6.9821501365999996
 Ca  Cr  P   O  
   3   4   8  28
Selective dynamics
Cartesian
  2.8017466618715710  7.3045075836839795  5.2540025266393489   T   T   T
  7.4432002339017522  4.2503851456184023  1.6469558454825575   T   T   T
  7.4920267249382411  9.2398631644690337  1.5627546473031191   T   T   T
  6.5299729192272675  2.9087497365814667  5.3469782887930952   T   T   T
  6.5532966268875805  7.8992857635707017  5.3917440510832328   T   T   T
  2.2856812202756336  4.4205847376585981  1.6683769966072957   T   T   T
  2.3482243163581078  9.4676201498056791  1.6074869954082582   T   T   T
  0.4901227422176150  1.8209002396196508 -0.0312595413866251   T   T   T
  0.5034710076537611  6.7805349887853241 -0.0632486321499969   T   T   T
  4.9767772484034429  5.4038747572361627  6.9755988169766496   T   T   T
  4.8656900208800575 10.3949726055004650  7.0199022646006313   T   T   T
  8.4987721286709412  5.2894086409093264  4.2768643817788972   T   T   T
  8.4916391558929902 10.2211585690023412  4.2281327414163528   T   T   T
  4.2821247853481488  2.1170425237614983  2.7916780742875420   T   T   T
  4.2716102153295505  7.1031567845256713  2.7712011299107191   T   T   T
  0.7715010627366720  4.7356019590229410  5.4145541963145547   T   T   T
  0.7474201580284788  9.5961238985472779  5.3579377777525110   T   T   T
  5.3112370951277974  2.6783236633013408  1.5531977568895312   T   T   T
  5.2993758892254128  7.6748995531769291  1.6431624033296750   T   T   T
  0.4590625490294397  3.0721496172403389  0.8551979257840742   T   T   T
  0.5571755572809037  8.0111098258243807  0.8326207576625644   T   T   T
  5.1638177869135671  4.1826996256550304  6.1019729043853816   T   T   T
  5.0212988326523336  9.1117701532044073  6.1879345083800663   T   T   T
  3.0786046392446011  3.0405918975884183  2.8581880378617721   T   T   T
  3.0270082372192388  8.0299781848427543  2.9355162027925790   T   T   T
  7.2902173951806821  4.3129130321699716  4.1119631811154331   T   T   T
  7.2696163213088676  9.2489072828800580  4.0721773354027384   T   T   T
  5.2330611180624000  2.2110157884765544  3.9820813127427210   T   T   T
  5.0275981672727452  7.2024827161912572  4.1290221673843410   T   T   T
  0.5159632174018105  5.2450586352803255  2.9581972794120732   T   T   T
  0.5247948258768426 10.1314963401252136  2.9147877417553874   T   T   T
  3.8766653901592356  5.6977370476442175  2.4156682086336123   T   T   T
  3.9199996154237406 10.5898401649067004  2.3891631502589799   T   T   T
  8.0550545394113904  1.7084379320400098  4.6699215659584103   T   T   T
  8.0698425896754920  6.6949017758291802  4.6978057632346388   T   T   T
  3.5698324788166311  5.9958710524268160  6.8822697055641076   T   T   T
  3.4591485076016033 10.9232614654610281  7.0834725869085338   T   T   T
  7.8379315302535764  1.1229301442226778 -0.0773981491214782   T   T   T
  7.8421617846858958  6.1120499052321540 -0.0147143373728865   T   T   T
  6.0699713657731493  6.4990325932469775  6.7491984114965335   T   T   T
  5.9967616248079132 11.4232331355267913  6.7436323135430278   T   T   T
  1.6230649837252140  0.8750368893107263  0.2739641264468192   T   T   T
  1.6455302565539738  5.7721499419293716  0.1339985381652389   T   T   T
