Mn C  S  O 
 1.0000000000000000
     6.8048609999999998    0.0000000000000000    0.0000000000000000
     0.0000000000000000    5.0892379999999999    0.0000000000000000
     0.0000000000000000    0.7192140000000000    8.6776959999999992
 Mn  C   S   O  
   2   2   2  14
Cartesian
  1.7477389270430697  1.5549870681023918  5.7347306434962402
  5.1501694270430702  4.2534649318976037  2.9429653565037608
  1.6595197942956461  2.0896403679832520  8.0486862515511994
  5.0619502942956451  3.7188116320167359  0.6290097484487580
  5.1560621435714440  1.7497555741390132  5.0234369677082160
  1.7536316435714425  4.0586964258609841  3.6542590322917841
  4.9933973691563658  4.1479233270667075  8.1156071921354815
  1.6971924406230987  0.8632217039776678  7.5630793028877141
  1.7094227611863158  2.9643307219659518  7.0568988556678818
  6.3566404373118539  1.4905035857002520  5.8233735176141082
  3.9525599964053635  1.4876135402120980  5.8163230447255394
  1.7634205073426066  4.8480721423621818  4.9287424977443708
  5.1594860723532303  3.2021527311584257  4.5934753011374854
  1.7570555723532311  2.6062992688415711  4.0842206988625138
  5.1658510073426118  0.9603798576378143  3.7489535022556306
  0.5501294964053650  4.3208384597878959  2.8613729552744571
  2.9542099373118531  4.3179484142997460  2.8543224823858946
  5.1118532611863143  2.8441212780340410  1.6207971443321163
  5.0996229406231013  4.9452302960223333  1.1146166971122800
  1.5909668691563632  1.6605286729332929  0.5620888078645591
