Ca Sr Cr F 
1.0
       19.1258373260         0.0000000000         0.0000000000
        0.0000000000        11.6275959015         0.0000000000
        0.0000000000         0.6762622837         9.8207865031
   Ca   Sr   Cr    F
   15   16   16   96
Direct
     0.519695878         0.623984039         0.360960275
     0.019695861         0.123984054         0.360960275
     0.019695861         0.623984039         0.360960275
     0.519695878         0.123984054         0.360960275
     0.269695878         0.376015961         0.139039725
     0.269695878         0.876015961         0.139039725
     0.769695878         0.376015961         0.139039725
     0.769695878         0.876015961         0.139039725
     0.480304152         0.876015961         0.639039695
     0.980304122         0.376015961         0.639039695
     0.980304122         0.876015961         0.639039695
     0.230304137         0.123984069         0.860960245
     0.230304137         0.623984098         0.860960245
     0.730304122         0.123984069         0.860960245
     0.730304122         0.623984098         0.860960245
     0.165239155         0.383321226         0.492325693
     0.165239155         0.883321226         0.492325693
     0.665239155         0.383321226         0.492325693
     0.665239155         0.883321226         0.492325693
     0.415239155         0.116678767         0.007674275
     0.415239155         0.616678774         0.007674275
     0.915239155         0.116678767         0.007674275
     0.915239155         0.616678774         0.007674275
     0.334760845         0.116678767         0.507674277
     0.334760845         0.616678774         0.507674277
     0.834760845         0.116678767         0.507674277
     0.834760845         0.616678774         0.507674277
     0.084760845         0.383321226         0.992325664
     0.084760845         0.883321226         0.992325664
     0.584760845         0.383321226         0.992325664
     0.584760845         0.883321226         0.992325664
     0.459536105         0.368010134         0.268437296
     0.459536105         0.868010163         0.268437296
     0.959536076         0.368010134         0.268437296
     0.959536076         0.868010163         0.268437296
     0.209536105         0.131989852         0.231562689
     0.209536105         0.631989837         0.231562689
     0.709536076         0.131989852         0.231562689
     0.709536076         0.631989837         0.231562689
     0.040463895         0.131989837         0.731562674
     0.040463895         0.631989837         0.731562674
     0.540463924         0.131989837         0.731562674
     0.540463924         0.631989837         0.731562674
     0.290463895         0.368010163         0.768437326
     0.290463895         0.868010163         0.768437326
     0.790463924         0.368010163         0.768437326
     0.790463924         0.868010163         0.768437326
     0.014977331         0.995506525         0.166854441
     0.014977331         0.495506525         0.166854441
     0.514977336         0.995506525         0.166854441
     0.514977336         0.495506525         0.166854441
     0.264977336         0.504493475         0.333145559
     0.264977336         0.004493475         0.333145559
     0.764977336         0.504493475         0.333145559
     0.764977336         0.004493475         0.333145559
     0.485022664         0.504493475         0.833145618
     0.485022664         0.004493475         0.833145618
     0.985022664         0.504493475         0.833145618
     0.985022664         0.004493475         0.833145618
     0.235022664         0.995506525         0.666854441
     0.235022664         0.495506525         0.666854441
     0.735022664         0.995506525         0.666854441
     0.735022664         0.495506525         0.666854441
     0.341118872         0.226371378         0.842534840
     0.341118872         0.726371408         0.842534840
     0.841118872         0.226371378         0.842534840
     0.841118872         0.726371408         0.842534840
     0.091118865         0.273628622         0.657465100
     0.091118865         0.773628592         0.657465100
     0.591118872         0.273628622         0.657465100
     0.591118872         0.773628592         0.657465100
     0.158881143         0.273628622         0.157465115
     0.158881143         0.773628592         0.157465115
     0.658881128         0.273628622         0.157465115
     0.658881128         0.773628592         0.157465115
     0.408881158         0.226371378         0.342534870
     0.408881158         0.726371408         0.342534870
     0.908881187         0.226371378         0.342534870
     0.908881187         0.726371408         0.342534870
     0.459864914         0.182201624         0.605322897
     0.459864914         0.682201624         0.605322897
     0.959864914         0.182201624         0.605322897
     0.959864914         0.682201624         0.605322897
     0.209864914         0.317798406         0.894677043
     0.209864914         0.817798376         0.894677043
     0.709864914         0.317798406         0.894677043
     0.709864914         0.817798376         0.894677043
     0.040135093         0.317798376         0.394677043
     0.040135093         0.817798376         0.394677043
     0.540135086         0.317798376         0.394677043
     0.540135086         0.817798376         0.394677043
     0.290135086         0.182201609         0.105322942
     0.290135086         0.682201624         0.105322942
     0.790135086         0.182201609         0.105322942
     0.790135086         0.682201624         0.105322942
     0.247423798         0.236887515         0.640173018
     0.247423798         0.736887515         0.640173018
     0.747423768         0.236887515         0.640173018
     0.747423768         0.736887515         0.640173018
     0.497423798         0.263112485         0.859826922
     0.497423798         0.763112485         0.859826922
     0.997423768         0.263112485         0.859826922
     0.997423768         0.763112485         0.859826922
     0.252576202         0.263112485         0.359826952
     0.252576202         0.763112485         0.359826952
     0.752576232         0.263112485         0.359826952
     0.752576232         0.763112485         0.359826952
     0.002576172         0.236887515         0.140173063
     0.002576172         0.736887515         0.140173063
     0.502576172         0.236887515         0.140173063
     0.502576172         0.736887515         0.140173063
     0.117953829         0.072498389         0.849493504
     0.117953829         0.572498381         0.849493504
     0.617953837         0.072498389         0.849493504
     0.617953837         0.572498381         0.849493504
     0.367953837         0.427501589         0.650506496
     0.367953837         0.927501559         0.650506496
     0.867953837         0.427501589         0.650506496
     0.867953837         0.927501559         0.650506496
     0.382046163         0.427501589         0.150506526
     0.382046163         0.927501559         0.150506526
     0.882046163         0.427501589         0.150506526
     0.882046163         0.927501559         0.150506526
     0.132046163         0.072498381         0.349493474
     0.132046163         0.572498381         0.349493474
     0.632046163         0.072498381         0.349493474
     0.632046163         0.572498381         0.349493474
     0.311751723         0.990092099         0.927166402
     0.311751723         0.490092099         0.927166402
     0.811751723         0.990092099         0.927166402
     0.811751723         0.490092099         0.927166402
     0.061751705         0.509907901         0.572833598
     0.061751705         0.009907901         0.572833598
     0.561751723         0.509907901         0.572833598
     0.561751723         0.009907901         0.572833598
     0.188248292         0.509907901         0.072833560
     0.188248292         0.009907901         0.072833560
     0.688248277         0.509907901         0.072833560
     0.688248277         0.009907901         0.072833560
     0.438248307         0.990092099         0.427166432
     0.438248307         0.490092099         0.427166432
     0.938248277         0.990092099         0.427166432
     0.938248277         0.490092099         0.427166432
