Ca Ti O                                 
   1.00000000000000     
    12.4370679855000006    0.0000000000000000    0.0000000000000000
    -1.0659715856000000   13.9755822961000007    0.0000000000000000
    -0.5859648079000001   -2.0967458091000002   10.1808118850000007
   Ca   Ti   O 
    11    48    96
Selective dynamics
Direct
  0.7997177003334630  0.7778649607917736  0.5995829400879392   T   T   T
  0.0157609841560790  0.2170654706964630  0.0672358752572112   T   T   T
  0.0113968556611806  0.7181683417267278  0.0634491302200317   T   T   T
  0.5146768008533975  0.2148990856812545  0.0648172682510920   T   T   T
  0.5147147518822205  0.7160677684345598  0.0692355156407926   T   T   T
  0.3720761600097577  0.2868888174139436  0.7000945970315251   T   T   T
  0.3662732688309203  0.7838663957166088  0.7012835280613319   T   T   T
  0.8731314675250700  0.2874837950312198  0.7014884898498651   T   T   T
  0.2231250363938731  0.2823757048317490  0.4111134487585213   T   T   T
  0.2317130080943165  0.7874304947696449  0.4240066648721228   T   T   T
  0.7230721844430358  0.2775727899252465  0.4106262881804919   T   T   T
  0.0092694641596348  0.4864087633983650  0.9911385503723814   T   T   T
  0.0014649015069129  0.9871186619830166  0.0013898595072674   T   T   T
  0.5084807082871532  0.4862614466665983  0.9892159003437218   T   T   T
  0.5054708736444919  0.9869744664551137  0.9921738021946767   T   T   T
  0.1267334637285248 -0.0015226927564626  0.2502766844156182   T   T   T
  0.1227240318078573  0.5012989758893694  0.2509229915067734   T   T   T
  0.6285474541364837  0.0019023974537047  0.2455064519240797   T   T   T
  0.6241097215354963  0.4998510144379568  0.2500229144700692   T   T   T
  0.3661592331039635  0.0131897777582101  0.7557500127223796   T   T   T
  0.3715485418202855  0.5160307715742934  0.7582812479397883   T   T   T
  0.8707771339591960  0.0107014781549260  0.7573098883266093   T   T   T
  0.8668088906932829  0.5161303532733634  0.7596987375724488   T   T   T
  0.2496925832859917  0.0120785591455201  0.5066795496694326   T   T   T
  0.2523607811056370  0.5112928543235358  0.5046787455056965   T   T   T
  0.7496627138243812  0.0045790121662087  0.5021021455611338   T   T   T
  0.7473141791466675  0.5072455191147272  0.5062730387692889   T   T   T
  0.1284005493283969  0.1474381424977698  0.7899744688073450   T   T   T
  0.1300961404934808  0.6466664855991817  0.7895156137240876   T   T   T
  0.6297954337992775  0.1483358525295111  0.7850968726340400   T   T   T
  0.6338938508579546  0.6533701162269852  0.7922107993096313   T   T   T
  0.0074781778385915  0.1434083812372910  0.5399830082246210   T   T   T
  0.0117130230151570  0.6422448394967064  0.5393729045913610   T   T   T
  0.5089264390486417  0.1452755979642372  0.5380747770995238   T   T   T
  0.5189677210947922  0.6530666339186593  0.5352046695950076   T   T   T
  0.3894806270205162  0.1464901372087986  0.2969574171494060   T   T   T
  0.3884680174832826  0.6447227306295511  0.2974451314864230   T   T   T
  0.8911965423433612  0.1454649755921535  0.2971066785063734   T   T   T
  0.8790455597256360  0.6427406334896826  0.2886485663707170   T   T   T
  0.2607282768714492  0.1442470078131312  0.0466433955932384   T   T   T
  0.2606493343927078  0.6481547108398880  0.0483571850047375   T   T   T
  0.7613410594428115  0.1455628642264845  0.0405862001937376   T   T   T
  0.7586078279722787  0.6459509014060990  0.0504949487133954   T   T   T
  0.2477661093315941  0.3509931074877627  0.9634152297659851   T   T   T
  0.2442575812565841  0.8512528131870255  0.9618141227157467   T   T   T
  0.7484350550317298  0.3509659630832563  0.9631085202981892   T   T   T
  0.7519727157762596  0.8498083658232551  0.9621651053075887   T   T   T
  0.1203984391914180  0.3538712366577588  0.7068526869783883   T   T   T
  0.0769706022682017  0.8372477006318350  0.7225625319360207   T   T   T
  0.6181553404191826  0.3543192844323268  0.7079248839742720   T   T   T
  0.6111067664396720  0.8597966572927218  0.7148437064760612   T   T   T
  0.3658939340659563  0.3557858097549724  0.2011093568723566   T   T   T
  0.3653832118234882  0.8573886986066582  0.2037115621065217   T   T   T
  0.8656649034960107  0.3552205113000509  0.2020039003551236   T   T   T
  0.8542455253953170  0.8497714606813017  0.2191602461541831   T   T   T
  0.4869878508283854  0.3558241117797536  0.4526539293625345   T   T   T
  0.5020221084354459  0.8519305859441458  0.4468646125686998   T   T   T
  0.9889859019760554  0.3553404196738960  0.4529413555127456   T   T   T
  0.9914853780078772  0.8512628588277913  0.4465878448547471   T   T   T
  0.0075695272878329  0.0766640971567124  0.8616729445967652   T   T   T
  0.0064452145906804  0.5774726268466478  0.8610127197616743   T   T   T
  0.5078078217944628  0.0763802717669098  0.8587879790980055   T   T   T
  0.5064343680650967  0.5807202272071633  0.8616412490518862   T   T   T
  0.2575045559448025  0.0804986979492554  0.3549070336839960   T   T   T
  0.2566003946719037  0.5799930465211162  0.3548226283421058   T   T   T
  0.7580911887529532  0.0793498552634250  0.3530934029090004   T   T   T
  0.7592742282103331  0.5699235799687293  0.3521859266641944   T   T   T
  0.3808991434356886  0.0860583783553724  0.6110846583109777   T   T   T
  0.3846680177703266  0.5812741195389198  0.6072034609629693   T   T   T
  0.8806511468076974  0.0805631741408054  0.6078685822020126   T   T   T
  0.8831100591899121  0.5745859427545349  0.6005746284437178   T   T   T
  0.1282128478295427  0.0768275212293975  0.1010626378273025   T   T   T
  0.1287486582824481  0.5771086781590048  0.1016679018142356   T   T   T
  0.6295111537628543  0.0784340894768303  0.0987153481977136   T   T   T
  0.6267519290179776  0.5765664216688712  0.1015074367859635   T   T   T
  0.1402375919874718  0.0856603314851698  0.6044582393785817   T   T   T
  0.1447163260762365  0.5898950576296043  0.6017342135722225   T   T   T
  0.6415413409581483  0.0903235575096978  0.6019875728996098   T   T   T
  0.6494056408927248  0.5939093305786175  0.6041601585736003   T   T   T
  0.2631588886565712  0.0861432686687376  0.8518962854552802   T   T   T
  0.2650466220884722  0.5900457480177036  0.8509293565112249   T   T   T
  0.7658950093605081  0.0905082777610203  0.8529655535509467   T   T   T
  0.7632494081405775  0.5886040637550174  0.8519226381281810   T   T   T
  0.0175355569246007  0.0850298966699745  0.3522449381981518   T   T   T
  0.0161408591067855  0.5838971241148245  0.3510528962955072   T   T   T
  0.5188371308137085  0.0893257978342842  0.3491300776193477   T   T   T
  0.5168882352737104  0.5840618043967879  0.3503171927117376   T   T   T
  0.3931114938423527  0.0891720836388014  0.1008375800658091   T   T   T
  0.3904071925515340  0.5905449118051143  0.1037394043499593   T   T   T
  0.8939212304813119  0.0916961305662641  0.1034207142656808   T   T   T
  0.8929894393281351  0.5896950217501480  0.1004588735060521   T   T   T
  0.1608249790575467  0.2288761956058459  0.9732318643276500   T   T   T
  0.1596078052508391  0.7295335637227651  0.9755665323578716   T   T   T
  0.6608948930401223  0.2306403130031164  0.9737308743709969   T   T   T
  0.6583283019036054  0.7301328282643315  0.9741949398491221   T   T   T
  0.0243648665929723  0.2277229139608904  0.7348515325631814   T   T   T
  0.0015040570671896  0.7252992947888549  0.7353305472546540   T   T   T
  0.5247122644947909  0.2302489206844952  0.7354034804231387   T   T   T
  0.5263404746970466  0.7326141037162847  0.7308732359171073   T   T   T
  0.2757702846380333  0.2305343948412876  0.2175393366211240   T   T   T
  0.2748197184437065  0.7317758690498719  0.2222179841694126   T   T   T
  0.7788106465534869  0.2304910524474392  0.2168969417956606   T   T   T
  0.7726275345257528  0.7295983813358617  0.2303635677015486   T   T   T
  0.3892377670314829  0.2353309257223453  0.4793925444097766   T   T   T
  0.3973292581687969  0.7327611863224384  0.4820847221253907   T   T   T
  0.8906128354747108  0.2332178348635960  0.4800297215432370   T   T   T
  0.9079416532790200  0.7225623721702026  0.4638186130567787   T   T   T
  0.2182877531106111  0.2686048371707257  0.7714881231027158   T   T   T
  0.2067926674351815  0.7717092923279483  0.7704733236300768   T   T   T
  0.7185814630070887  0.2696756619994133  0.7711043405009671   T   T   T
  0.7248039626009321  0.7736883277891011  0.7784462918877542   T   T   T
  0.0910530458061342  0.2671927246078838  0.5294095409332490   T   T   T
  0.0950704913738621  0.7720043535282550  0.5397159382533101   T   T   T
  0.5897396444989267  0.2693499176952123  0.5289394750191773   T   T   T
  0.6089869917721162  0.7722086406101762  0.5257813704831809   T   T   T
  0.4789381619239302  0.2688550309756653  0.2753599281036362   T   T   T
  0.4776263533841775  0.7675751975322948  0.2755528948583528   T   T   T
  0.9827200441375458  0.2678949403506454  0.2782368912134071   T   T   T
  0.9793382679386006  0.7705458709174807  0.2712227670227326   T   T   T
  0.3568712979134661  0.2680963672638750  0.0153089066585037   T   T   T
  0.3557248000610239  0.7691530495578844  0.0164063398767756   T   T   T
  0.8580204767540716  0.2690701256535160  0.0141189906902753   T   T   T
  0.8527106061498663  0.7704093924583167  0.0255098746509795   T   T   T
  0.1123319393800339  0.4102221064446478  0.8952626842843793   T   T   T
  0.1043736849640634  0.9078686443733268  0.9037339699826004   T   T   T
  0.6118896108948504  0.4109585334741322  0.8953116401340195   T   T   T
  0.6112964937714146  0.9102084853702532  0.9009720434005567   T   T   T
  0.4873713563828948  0.4117216869838861  0.6474406079207257   T   T   T
  0.4889147228034708  0.9087456988300906  0.6446976312225371   T   T   T
  0.9897230628071662  0.4094726566426795  0.6456465268231077   T   T   T
  0.9667327103578753  0.9031480949175734  0.6469967111656395   T   T   T
  0.3557207557048363  0.4106115012948225  0.3965587156735507   T   T   T
  0.3650587919834183  0.9107561174484383  0.3939555197993703   T   T   T
  0.8560421272994103  0.4054718137902282  0.3968272137549992   T   T   T
  0.8577256214931575  0.9099321206587438  0.4086777296217903   T   T   T
  0.2349955743439906  0.4131447766292957  0.1458323288136549   T   T   T
  0.2341075723094674  0.9140063132287768  0.1462850382726978   T   T   T
  0.7356215661938198  0.4127948396625644  0.1442448283582355   T   T   T
  0.7348474618295237  0.9141611719344844  0.1454797476883642   T   T   T
  0.2489222764776258  0.4195488471764455  0.6411053728132103   T   T   T
  0.2661293831234444  0.9228002998797147  0.6322247275070244   T   T   T
  0.7484790390951330  0.4179514707535494  0.6412123603367412   T   T   T
  0.7379804686035123  0.9300184407082240  0.6520657886618564   T   T   T
  0.3699287681021710  0.4225319537891281  0.8876226481407709   T   T   T
  0.3681950275490309  0.9201048182331719  0.8854846118686989   T   T   T
  0.8705514026310766  0.4222886378973411  0.8870918354733300   T   T   T
  0.8674090738732692  0.9277732126001343  0.8980028089258444   T   T   T
  0.1223913402653955  0.4234828552578920  0.4013565078239772   T   T   T
  0.1252090741415799  0.9213158709383351  0.4006684275388857   T   T   T
  0.6207876381070764  0.4217933411558123  0.3996244781319441   T   T   T
  0.6177535618824260  0.9308234131671737  0.3965857815788020   T   T   T
  0.4964543863701947  0.4191115108974794  0.1396743750742515   T   T   T
  0.4961227429364007  0.9210547116523706  0.1445184544968948   T   T   T
  0.9968721326844628  0.4176373649310526  0.1406995530691251   T   T   T
  0.9924240813123359  0.9224207190229292  0.1472856651515457   T   T   T
 
             NaN             NaN             NaN
             NaN             NaN             NaN
             NaN             NaN             NaN
             NaN             NaN             NaN
             NaN             NaN             NaN
             NaN             NaN             NaN
             NaN             NaN             NaN
             NaN             NaN             NaN
             NaN             NaN             NaN
             NaN             NaN             NaN
             NaN             NaN             NaN
             NaN             NaN             NaN
             NaN             NaN             NaN
             NaN             NaN             NaN
             NaN             NaN             NaN
             NaN             NaN             NaN
             NaN             NaN             NaN
             NaN             NaN             NaN
             NaN             NaN             NaN
             NaN             NaN             NaN
             NaN             NaN             NaN
             NaN             NaN             NaN
             NaN             NaN             NaN
             NaN             NaN             NaN
             NaN             NaN             NaN
             NaN             NaN             NaN
             NaN             NaN             NaN
             NaN             NaN             NaN
             NaN             NaN             NaN
             NaN             NaN             NaN
             NaN             NaN             NaN
             NaN             NaN             NaN
             NaN             NaN             NaN
             NaN             NaN             NaN
             NaN             NaN             NaN
             NaN             NaN             NaN
             NaN             NaN             NaN
             NaN             NaN             NaN
             NaN             NaN             NaN
             NaN             NaN             NaN
             NaN             NaN             NaN
             NaN             NaN             NaN
             NaN             NaN             NaN
             NaN             NaN             NaN
             NaN             NaN             NaN
             NaN             NaN             NaN
             NaN             NaN             NaN
             NaN             NaN             NaN
             NaN             NaN             NaN
             NaN             NaN             NaN
             NaN             NaN             NaN
             NaN             NaN             NaN
             NaN             NaN             NaN
             NaN             NaN             NaN
             NaN             NaN             NaN
             NaN             NaN             NaN
             NaN             NaN             NaN
             NaN             NaN             NaN
             NaN             NaN             NaN
             NaN             NaN             NaN
             NaN             NaN             NaN
             NaN             NaN             NaN
             NaN             NaN             NaN
             NaN             NaN             NaN
             NaN             NaN             NaN
             NaN             NaN             NaN
             NaN             NaN             NaN
             NaN             NaN             NaN
             NaN             NaN             NaN
             NaN             NaN             NaN
             NaN             NaN             NaN
             NaN             NaN             NaN
             NaN             NaN             NaN
             NaN             NaN             NaN
             NaN             NaN             NaN
             NaN             NaN             NaN
             NaN             NaN             NaN
             NaN             NaN             NaN
             NaN             NaN             NaN
             NaN             NaN             NaN
             NaN             NaN             NaN
             NaN             NaN             NaN
             NaN             NaN             NaN
             NaN             NaN             NaN
             NaN             NaN             NaN
             NaN             NaN             NaN
             NaN             NaN             NaN
             NaN             NaN             NaN
             NaN             NaN             NaN
             NaN             NaN             NaN
             NaN             NaN             NaN
             NaN             NaN             NaN
             NaN             NaN             NaN
             NaN             NaN             NaN
             NaN             NaN             NaN
             NaN             NaN             NaN
             NaN             NaN             NaN
             NaN             NaN             NaN
             NaN             NaN             NaN
             NaN             NaN             NaN
             NaN             NaN             NaN
             NaN             NaN             NaN
             NaN             NaN             NaN
             NaN             NaN             NaN
             NaN             NaN             NaN
             NaN             NaN             NaN
             NaN             NaN             NaN
             NaN             NaN             NaN
             NaN             NaN             NaN
             NaN             NaN             NaN
             NaN             NaN             NaN
             NaN             NaN             NaN
             NaN             NaN             NaN
             NaN             NaN             NaN
             NaN             NaN             NaN
             NaN             NaN             NaN
             NaN             NaN             NaN
             NaN             NaN             NaN
             NaN             NaN             NaN
             NaN             NaN             NaN
             NaN             NaN             NaN
             NaN             NaN             NaN
             NaN             NaN             NaN
             NaN             NaN             NaN
             NaN             NaN             NaN
             NaN             NaN             NaN
             NaN             NaN             NaN
             NaN             NaN             NaN
             NaN             NaN             NaN
             NaN             NaN             NaN
             NaN             NaN             NaN
             NaN             NaN             NaN
             NaN             NaN             NaN
             NaN             NaN             NaN
             NaN             NaN             NaN
             NaN             NaN             NaN
             NaN             NaN             NaN
             NaN             NaN             NaN
             NaN             NaN             NaN
             NaN             NaN             NaN
             NaN             NaN             NaN
             NaN             NaN             NaN
             NaN             NaN             NaN
             NaN             NaN             NaN
             NaN             NaN             NaN
             NaN             NaN             NaN
             NaN             NaN             NaN
             NaN             NaN             NaN
             NaN             NaN             NaN
             NaN             NaN             NaN
             NaN             NaN             NaN
             NaN             NaN             NaN
             NaN             NaN             NaN
             NaN             NaN             NaN
             NaN             NaN             NaN
