Ca Ti O 
 1.0000000000000000
    12.4370679855000006    0.0000000000000000    0.0000000000000000
    -1.0659715856000000   13.9755822961000007    0.0000000000000000
    -0.5859648079000001   -2.0967458091000002   10.1808118850000007
 Ca  Ti  O  
  11  48  96
Selective dynamics
Cartesian
  8.8770301407556769  9.6405670056252735  6.2168961269988978   T   T   T
 -0.0761001818863511  2.8468681909922537  0.6843809451317593   T   T   T
 -0.6302629461331141  9.8260992610000137  0.6939831424872762   T   T   T
  6.1349500250844837  2.8186991624625040  0.6794574203629016   T   T   T
  5.5981733515082341  9.8396612597868440  0.6684975209690763   T   T   T
  3.9120481479854323  2.5555783214450383  7.1304521938615624   T   T   T
  3.3331527217737253  9.4664980946906336  7.1384646644150269   T   T   T
 10.1320053142177127  2.5572383761156665  7.1460964374253777   T   T   T
  2.1716257739305758  3.1184340073629784  4.1408858897315994   T   T   T
  1.7880390746100088 10.1087091853830131  4.2639393286068650   T   T   T
  8.3922356206302915  3.0228815731573375  4.1427661742846871   T   T   T
 -0.9770962955341170  4.6696328312594773 10.1287740756556133   T   T   T
 -1.5666623045620993 11.6503041545913462 10.1886716931748129   T   T   T
  5.2062747430028349  4.6946063949541852 10.0919071798986106   T   T   T
  4.7114388634373849 11.6497947606293799 10.0942900345310385   T   T   T
  0.3508915944017150 13.4542935518947484  2.5444757659668338   T   T   T
  0.8536713503967461  6.4991340836796470  2.6070543735786420   T   T   T
  6.6310906547960435 13.4654029347313493  2.5346591136326087   T   T   T
  7.0830921991932554  6.4532379914220863  2.5506323549243177   T   T   T
  4.0919244096376328 -1.4005951992639400  7.6729151265738613   T   T   T
  3.6298773874341528  5.6479703938900769  7.6743469444604449   T   T   T
 10.3789882399791384 -1.4091673590790519  7.6939646218988216   T   T   T
  9.8217307578097994  5.6291244603612958  7.7384359793896644   T   T   T
  2.7642647664073290 -0.8719303095809645  5.1435859100163155   T   T   T
  2.2678682779454240  6.1069334097276462  5.1106884844147311   T   T   T
  9.0252274905066514 -1.0011933892921476  5.0614999007026338   T   T   T
  8.4492793457976099  6.0261230833060644  5.0974398465028816   T   T   T
  0.9641454317938729  0.4182026250096165  8.0377373235343264   T   T   T
  0.4350445099008793  7.3955821478570121  8.0496265587645528   T   T   T
  7.2077305019377516  0.4170104105749533  8.0310964689465312   T   T   T
  6.7343061959429571  7.4431815214420931  8.0495439186875597   T   T   T
 -0.3926051358398021  0.8676033531032400  5.4870604054009746   T   T   T
 -0.8863809441154784  7.8175628624601492  5.4723576726105430   T   T   T
  5.8952860347234184  0.8615264553589493  5.5046400762510634   T   T   T
  5.4352757564283127  7.9692205246654231  5.4350110617073941   T   T   T
  4.5195181528680655  1.4364080695097563  3.0320858553243917   T   T   T
  3.9830267154378540  8.3938932235676731  2.9825437112880726   T   T   T
 10.7711452314227696  1.4307380544162995  3.0417303499860755   T   T   T
 10.0560838907431087  8.3868327954533406  2.9618972106980932   T   T   T
  3.0834631521450473  1.9242063828145657  0.4525487349694869   T   T   T
  2.5355111365868219  8.9302478619355181  0.4472147488923317   T   T   T
  9.3173488406375391  1.9330210891032686  0.4275919310941751   T   T   T
  8.7213699496858119  8.9258251068226535  0.5247303110962036   T   T   T
  2.1566266942123407  2.8963281126756444  9.8182500876975265   T   T   T
  1.5994962655794565  9.8821141752550652  9.8072365843579519   T   T   T
  8.3617358633972785  2.8869819872691078  9.8158727560981927   T   T   T
  7.9335546626439548  9.8681995286815667  9.7725090877807208   T   T   T
  0.6933133311956849  3.4794554337875625  7.1955974702383543   T   T   T
 -0.2330179418677423 10.2375936038447612  7.2960790360992496   T   T   T
  6.8912663064974780  3.4778541422935265  7.2134167273803484   T   T   T
  6.2684208652927751 10.5070675333706234  7.2178268093263380   T   T   T
  4.0371384742990033  4.5658254909597149  2.0369272357547041   T   T   T
  3.5104956925777087 11.5566083459954054  2.0967714492120972   T   T   T
 10.2615455048592015  4.5435799005596040  2.0662486909743971   T   T   T
  9.6131885624742317 11.4630041355973660  2.2125664454862597   T   T   T
  5.3459508888990745  4.0289920234078380  4.6352929722154599   T   T   T
  5.0633626109675474 10.9392672269682816  4.5613345301006785   T   T   T
 11.5953272946319679  4.0239277398759281  4.6525809696406029   T   T   T
 11.1690968208904184 10.9770633957011157  4.5553890380895297   T   T   T
 -0.4855132487723359 -0.7626868924142142  8.7780349107095947   T   T   T
 -1.0313136308148241  6.2505960939638818  8.7845097896785127   T   T   T
  5.7325108663555042 -0.7733021555398553  8.7655280738912538   T   T   T
  5.2045924112757760  6.2803155028864985  8.7599869739320031   T   T   T
  2.9093908488663889  0.3642903135015986  3.5960274876659812   T   T   T
  2.3665191266588694  7.4023328108694937  3.6010444425813981   T   T   T
  9.1272834614382301  0.3822383099984993  3.5835577746726432   T   T   T
  8.6075414789579590  7.2413014454266218  3.5775499238558996   T   T   T
  4.3307828603856553 -0.1329756699081778  6.1653340503329312   T   T   T
  3.8261257894538763  6.8657590043085888  6.1630799364403375   T   T   T
 10.5205373630831058 -0.1588452322273615  6.1877005819659194   T   T   T
 10.0120052336247056  6.7490152018863681  6.1141285397196867   T   T   T
  1.4643483403163944  0.8448199699633020  1.0168795073269961   T   T   T
  0.9234604580650980  7.8314727238351107  1.0041913731861070   T   T   T
  7.6800215317637939  0.8490517643046660  0.9877094432647582   T   T   T
  7.1356576776859661  7.8271093625996180  1.0024659305620083   T   T   T
  1.3103948293024517 -0.0513934285048166  6.1530448709592918   T   T   T
  0.7790651778526851  6.9783653097389795  6.1647118066762854   T   T   T
  7.5049948711696501 -0.0101507747797922  6.1302400190959219   T   T   T
  7.0772654324052864  7.0165281311136649  6.1506578544884460   T   T   T
  2.7186602192514471 -0.5613919220063061  8.6376869092786102   T   T   T
  2.1729872673521036  6.4718136245457751  8.6265823934345072   T   T   T
  8.9517449402104816 -0.5144762763702841  8.6672825594521878   T   T   T
  8.3984105614490492  6.4355884881479613  8.6613346059148242   T   T   T
 -0.0645553290275368  0.4625666686535991  3.6010619858896420   T   T   T
 -0.6252879549291875  7.4359614119776341  3.5724673560288420   T   T   T
  6.1324533912266252  0.5287747281484891  3.5823440800328785   T   T   T
  5.5822240122160727  7.4287965748276656  3.5780309485060582   T   T   T
  4.7130133734210107  1.0241244473883593  1.0493413232209647   T   T   T
  4.1917562243383060  8.0157589919839598  1.0278533827260883   T   T   T
 10.9605992257190969  1.0399189336489787  1.0568020190943450   T   T   T
 10.3969131459636088  8.0063870649096422  1.0346049210840116   T   T   T
  1.1957203447537592  1.1482541348173261  9.9097579214468059   T   T   T
  0.6349034104801395  8.1500269227112838  9.9180183346701742   T   T   T
  7.4060868683526344  1.1560904585838592  9.9188801263246145   T   T   T
  6.8820322674729795  8.1311918505741971  9.9174924149966834   T   T   T
 -0.3836044948696208  1.6232357995583859  7.5014689107091375   T   T   T
 -1.1582903144940233  8.6320528248265873  7.4664063375324927   T   T   T
  5.8342374448862708  1.6277599061018060  7.5068665425015935   T   T   T
  5.3526323656614094  8.6788906184680954  7.4402185031003505   T   T   T
  3.0608755927594511  2.7572211010113863  2.1989031462262343   T   T   T
  2.5187874149834806  9.7562246154037133  2.2275256941095236   T   T   T
  9.3021420500119181  2.7472848404378230  2.2006984994936314   T   T   T
  8.6768215666035342  9.7061784110612166  2.3233718622787607   T   T   T
  4.2593500903387636  2.3074355905541801  4.8775667763587753   T   T   T
  3.8852272662713974  9.2532291058360716  4.8954863738491534   T   T   T
 10.5033369274896913  2.2786262586399193  4.8983429802511091   T   T   T
 10.2207144305510926  9.1097031933549637  4.7207462072521764   T   T   T
  1.9646531535649792  2.1652241338380973  7.8722547113475052   T   T   T
  1.3326615498883756  9.1815516921549776  7.8575314514937551   T   T   T
  8.1780768193366651  2.1664167619417753  7.8730014873600407   T   T   T
  7.7382400410521086  9.1748307711954133  7.9413136078270510   T   T   T
  0.5146463712566413  2.6460161697291520  5.4115300405774800   T   T   T
  0.0418332548866151  9.6532604427123125  5.4428962078799339   T   T   T
  6.7061123974150467  2.6548495058741715  5.4126610753379785   T   T   T
  6.4650247369504950  9.6856404953610369  5.3498765245075912   T   T   T
  5.5291021783738268  3.1855095350369620  2.8168839113762973   T   T   T
  4.9825183128569668 10.1660129774970116  2.7790067046301092   T   T   T
 11.7813155507309304  3.1757908866235316  2.8347228639876083   T   T   T
 11.1837038773958177 10.2143410270491994  2.7843967256093549   T   T   T
  4.1683040996510954  3.7381329759048443  0.1359187248550361   T   T   T
  3.6079247752376311 10.7425365961443156  0.1395986587944104   T   T   T
 10.3868077669494863  3.7498262591289264  0.1427495090555416   T   T   T
  9.8141188793289409 10.7270805265025295  0.2593563961174366   T   T   T
  0.4111351017659678  3.8417843460845673  9.1451318594599904   T   T   T
 -0.1669508536742745 10.8017360064911507  9.1948277764463775   T   T   T
  6.6282362254591307  3.8528938532818597  9.1349763919545790   T   T   T
  6.1143975743386250 10.8059897731254235  9.1705370749502197   T   T   T
  5.2110212517822152  4.4114985173478898  6.6116990706348604   T   T   T
  4.7029091162197414 11.3398089482640945  6.5795901847341378   T   T   T
 11.4445220114152324  4.3948566580419604  6.6235249138913792   T   T   T
 10.7180054707508816 11.3022172453386940  6.5746139077638226   T   T   T
  3.7159405889149597  4.9291286063852793  4.0318036900129872   T   T   T
  3.3136518801385368 11.8882507068932046  3.9963746335197876   T   T   T
  9.9211230916201636  4.8550834902542581  4.0330083750720931   T   T   T
  9.4576683570679041 11.8896326984189500  4.1367897183857476   T   T   T
  2.4103527994981926  5.4876149234580547  1.4942286348382745   T   T   T
  1.8748362882719032 12.4690641324555660  1.4792447120973948   T   T   T
  8.6147773952881117  5.4612945740714300  1.4822413851822924   T   T   T
  8.0841967259039205 12.4582693135702289  1.4711206646672137   T   T   T
  2.2680419055406489  4.5366668955287004  6.5268622541203705   T   T   T
  1.8735450951718196 11.5680578428404690  6.4617635761558851   T   T   T
  8.4724693941252678  4.5136132954219974  6.5421466712651313   T   T   T
  7.8245504053139872 11.6418568443756545  6.6551365631416850   T   T   T
  3.6078177637833471  4.0731931827184127  9.0354034140450104   T   T   T
  3.0881285874744000 11.0274954543250168  9.0192770247177787   T   T   T
  9.8357938019070872  4.0650950812918616  9.0388619424783698   T   T   T
  9.2862351401875571 11.0956832442938573  9.1115856427289099   T   T   T
  0.8115536341890057  5.1055894790801117  4.0960821479701801   T   T   T
  0.3287997711377977 12.0548018271025956  4.0838024538021553   T   T   T
  7.0155155172167039  5.0671164929956944  4.0914649132794390   T   T   T
  6.4657076128934321 12.1721902133765347  4.0399596980019385   T   T   T
  5.6220571931629282  5.5791705235155318  1.4551416674007018   T   T   T
  5.0915415100172599 12.5819358548778624  1.4632726952942166   T   T   T
 11.8483237264752912  5.5710148584624832  1.4742126159705145   T   T   T
 11.2637386446108394 12.5809028146151896  1.5245451236211125   T   T   T
