Ca V  O  F 
1.0
       11.9343299866         0.0000000000         0.0000000000
        1.9623974967         8.1951714142         0.0000000000
        0.0909257272         1.0820854577         8.4720185691
   Ca    V    O    F
    5   12    3   36
Direct
     0.772822142         0.368999511         0.322631717
     0.106155492         0.368999511         0.322631717
     0.230364740         0.609836817         0.699398994
     0.563698053         0.609836817         0.699398994
     0.897031426         0.609836817         0.699398994
     0.026919916         0.835331559         0.351528287
     0.360253245         0.835331559         0.351528287
     0.693586588         0.835331559         0.351528287
     0.306902558         0.169916064         0.016938882
     0.640235901         0.169916064         0.016938882
     0.973569214         0.169916064         0.016938882
     0.032876015         0.791839719         0.995602250
     0.366209358         0.791839719         0.995602250
     0.699542701         0.791839719         0.995602250
     0.301046401         0.191880435         0.631644011
     0.634379745         0.191880435         0.631644011
     0.967713058         0.191880435         0.631644011
     0.008546024         0.955440819         0.142221004
     0.341879368         0.955440819         0.142221004
     0.675212681         0.955440819         0.142221004
     0.323670417         0.047776293         0.459068239
     0.657003760         0.047776293         0.459068239
     0.990337074         0.047776293         0.459068239
     0.196841761         0.814854801         0.388829827
     0.530175090         0.814854801         0.388829827
     0.863508403         0.814854801         0.388829827
     0.060822044         0.631730676         0.215806916
     0.394155383         0.631730676         0.215806916
     0.727488697         0.631730676         0.215806916
     0.282330602         0.321240246         0.194342479
     0.615663946         0.321240246         0.194342479
     0.948997259         0.321240246         0.194342479
     0.133894160         0.208624378         0.022581507
     0.467227489         0.208624378         0.022581507
     0.800560832         0.208624378         0.022581507
     0.054151397         0.669285595         0.554086924
     0.387484729         0.669285595         0.554086924
     0.720818043         0.669285595         0.554086924
     0.264421105         0.416311055         0.481593966
     0.597754419         0.416311055         0.481593966
     0.931087792         0.416311055         0.481593966
     0.203198671         0.772585273         0.947272122
     0.536531985         0.772585273         0.947272122
     0.869865358         0.772585273         0.947272122
     0.064244494         0.609719872         0.849751234
     0.397577822         0.609719872         0.849751234
     0.730911136         0.609719872         0.849751234
     0.276568025         0.347601056         0.808164060
     0.609901369         0.347601056         0.808164060
     0.943234682         0.347601056         0.808164060
     0.129647002         0.222012401         0.589340925
     0.462980330         0.222012401         0.589340925
     0.796313643         0.222012401         0.589340925
     0.330732197         0.015014227         0.829196692
     0.664065540         0.015014227         0.829196692
     0.997398853         0.015014227         0.829196692
