Ca Mn V  P  O 
 1.0000000000000000
     8.1738800000000005    0.0000000000000000    0.0000000000000000
    -0.3223840000000000    9.7270819999999993    0.0000000000000000
    -0.0929150000000000   -0.8585480000000000    9.9505490000000005
 Ca  Mn  V   P   O  
   3   3   3  12  42
Cartesian
  3.3575471385565527  2.3390034654907397  0.1580509118761818
  7.2701228782542024  6.4536922797645380  9.8911336240440253
  7.5039798324030365  0.4111561538202522  6.3747975325091515
 -0.2445606501022267  8.5899860993241699  3.3256392965542823
  7.9873681625857929  2.4679470673401123  0.2446944729204414
 -0.2140058622016136  5.0577535589096287  6.7314327004500099
  3.9471846808057065  3.7828527646087102  3.2694320133273806
  3.6783887817733247  6.4108843488702441  9.6678412791226460
  3.9715688523904964  0.1547073785821032  6.4575314939728425
  5.8353007571183673  9.7094010120180485  1.0416255194646631
  2.0953336083629375  6.3183334530025475  2.2778505746466240
  5.5486932572337864  4.5887460846875765  0.4308816119837854
  1.1987102689276514  7.8374666786116620  6.1995305092230035
  6.1523981918333668  6.0942561703968101  4.3332903230321458
  5.3600408622251141  7.1986127299445544  7.0161392303281769
  1.3753676884671118  1.7260476041868609  2.9565344415549788
  2.0665664190993307  2.7210057009528694  5.6518161889467491
  5.4354811371312630  0.9466246637623202  3.6880805086986781
  1.3659341209794964  4.3047404065397927  9.5752089102344726
  6.0775871855441501  2.6311634848534822  7.7412372116136909
  2.0244339674553276 -0.8645179885132498  8.8758979930952524
  5.1672865766178280  8.7294158083319271  0.1002412198230757
  7.1818357384224365  9.0877495283407548  1.4853361325819516
  3.2907953469977831  7.0100662815205634  1.6408851021371205
  1.0759381838342512  5.9050520876666113  1.0233115154125003
  1.2108506187982822  7.1402819310230958  3.1551165869820212
  6.5060837530136384  7.2697644766037621  3.4056834853249418
  0.0521346695692120  8.3905480677880551  5.3294248900349350
  6.9430360353498779  4.2437476961902023  0.8423208661504265
  2.5816844804209529  8.2922045544678475  5.8359162624307288
  4.4027243938705691  4.0339690725331270  1.2891304722583092
  5.3343439793313605  8.7422842632550637  6.8234584655148796
  2.4929209923628299  4.9827569911835399  2.9529114043539950
  5.2214935395930562  5.1689772691962341  3.5551155306820683
  0.7492844417927854  8.6875556410985073  7.5814320516401539
  5.2190121245740597  6.6057358578902541  5.5304319895065870
  6.3178621800125034  1.3614075128041052  0.3936920874412969
  7.3664667974623379  5.3785927215406391  4.9057322304031539
  1.1714205374533087  6.3568668737388121  6.5067810402216644
  0.2275966354485792  2.2528872536075464  2.1086786511889128
  2.7564103338852308  2.2602138316681359  2.4767625320995430
  6.7013592294585393  6.7717298295303676  7.6199324585361650
  4.1460454376565155  6.6760066573762638  7.7555780429042356
  5.3345860327582439  2.4554941813457041  3.3695323984719892
  3.3121867756933319  3.4074955588642291  5.0500265231190378
  1.8889450105764360  7.4757492184888790  9.4722016887860718
  1.0791684289564598  2.3468583785902561  4.4028419566639583
  5.1779380221432199  0.1665561003396155  2.2814377006753128
  1.2108558905490383  3.5679248340775356  6.5375161258248360
  1.4388685823509597  0.2066700574580418  3.0975032898552075
  6.3934786225478506  3.9464285547013076  7.0615552053634207
  0.2175924609982212  4.8382207737351495  8.7091775075747417
  6.8302333090784595  0.5654163176301237  4.1776966301553697
  2.7572082778700948  4.6973220590687745  9.1443183799986603
  4.2978456843076547  0.4429505306880391  4.5366555981461971
  5.3384192425015131  5.2153172369227523 10.0494004091959805
  2.3808578621775722  1.3934083371381218  6.3540410045039302
  5.3535326135426340  1.6722820625946138  6.8195656226867403
  5.0841494458699490  2.8884154078031665  8.9905223727848913
  7.3420298093304526  1.8936680995807229  8.2764702328023940
  1.3427979615729058  2.7852267640126480  9.8157203708298333
  3.3482576253081664 -0.1822210456934055  8.4384684836847139
  1.2841132892177094  0.1029179776085300  9.7875985680569606
