Trisodium tetramanganese dodecaoxotellur
   1.00000000000000     
     9.3541609999999995    0.0000000000000000    0.0000000000000000
     0.0000000000000000    9.6163319999999999    0.0000000000000000
     0.0000000000000000    0.0000000000000000   11.2118099999999998
   Ca   Mn   Te   O 
    11    16     8    48
Direct
  0.2884200703050334  0.2365304661937743  0.3175682224781810
  0.0789205601208891  0.7440435767768555  0.6396153104738803
  0.4234206780863901  0.7363738087946683  0.6382806665495492
  0.7540071943138272  0.2871802468810060  0.8445014537816261
  0.9185533925682301  0.7648030455963968  0.1506275597652255
  0.4255142625433401  0.2356194447485084  0.8449149000151907
  0.0819605563996639  0.2341490709452917  0.8495456399787451
  0.2477288655624186  0.7152709305245464  0.1519864822558598
  0.5774061810845562  0.7587561102174716  0.1576092772734016
  0.7532316613320336  0.7697459360670383  0.6876751878251631
  0.9121784472602202  0.2529171994356468  0.3628820583852562
  0.9090198988680507  0.6050332973547621  0.3840876981708046
  0.9198725256446679  0.0978211182667453  0.1335423949691853
  0.0825608502063891  0.4194912902489797  0.0992951986127381
  0.4177839855171687  0.4016728824830961  0.6071520775819474
  0.5951542986275993  0.0920330002369480  0.6119650645700512
  0.5953981892601984  0.1034551916099484  0.1499946830278246
  0.9117584086146245  0.0742632621555966  0.6203210137110470
  0.0876482741541598  0.3952456414506620  0.6134744999856867
  0.5843181297656889  0.5836639605464872  0.8990417153592332
  0.4139728108022727  0.9040953836228235  0.8661644448661372
  0.0848689423642500  0.9245240087160108  0.3868347882278199
  0.9219955541463368  0.5822587776972502  0.9050780901619508
  0.0943464088847921  0.9020440755995591  0.8706042186354865
  0.3991286916125266  0.9085773684314099  0.3865159242826702
  0.5793569487257583  0.5679828299005851  0.3824035486448732
  0.4226227132610624  0.4206263979269574  0.0902536839745927
  0.7559169033362405  0.4502386880257935  0.5993946984418513
  0.2505641754932039  0.5640926440065503  0.8711693758513233
  0.7387843138506223  0.9305166821915266  0.4032771386058845
  0.2526968529281607  0.0417327850771027  0.0902889840335400
  0.7522739040826216  0.9658259961973570  0.9169547141476672
  0.2533645530410960  0.0627956061006293  0.6085134375090957
  0.7512002052388861  0.4326023332361237  0.1243578953364175
  0.2395945779857353  0.5483595761968897  0.3954250159562794
  0.0687335957141957  0.6100348551970350  0.0369865472969151
  0.2428149091130637  0.8553729235360820  0.4934568855586522
  0.7605180536087069  0.0316302127916637  0.7336476895159392
  0.1106049065476188  0.3872504676258359  0.4281088171162035
  0.6047823227132672  0.1029691166816105  0.9432941777899114
  0.3872220787967932  0.1033052462686498  0.4761648721737558
  0.9028990243840764  0.5961541549706645  0.5733717156122624
  0.9370384567769858  0.3918995567213048  0.9647795572194928
  0.7587862591086320  0.4359553300673447  0.4261144721789725
  0.7547996715068481  0.5403693282754526  0.8026175064283485
  0.9104890282987644  0.4942018112568782  0.2263242931635587
  0.4087599418255232  0.5118848205387373  0.7670934903977457
  0.2504378605162166  0.9857246678519600  0.2659990438634471
  0.4531219812953566  0.0221410047950985  0.7159345060232564
  0.7600433289618875  0.2212650154177994  0.2055650644652551
  0.5962997851454630  0.8936282890419625  0.5341306463073412
  0.8986689332070608  0.1071344666273492  0.9478400254265331
  0.5521756704657679  0.9694798734080643  0.2885177583059922
  0.2466856461307167  0.5728381934423544  0.5692479824460726
  0.5740205953991916  0.2762529770985780  0.6780631335406563
  0.4365765708391776  0.2358952164790563  0.1512118595805936
  0.4316567486745832  0.6112882160393377  0.0277026713849253
  0.2540359077398592  0.3728316526753553  0.9467143331046248
  0.8951278652922272  0.8874448435306224  0.5397343223645193
  0.0904159989680185  0.5046698003511688  0.7696676073211504
  0.2555042563544191  0.2598867862916474  0.6725879396642025
  0.4040723348628804  0.4242879794857142  0.4203210593398912
  0.4233353131487460  0.7185696354575521  0.3293060440552533
  0.5887140346264438  0.5040490393792454  0.2145724716904376
  0.6020078386934071  0.5869084167914056  0.5740200374451234
  0.0468015758842626  0.0026061179129188  0.7255101427164607
  0.2547727685872141  0.4635488713604250  0.1923010162548506
  0.9478659044169304  0.0059486571421781  0.2862994713915327
  0.0999240752365377  0.9009901828717672  0.0578523519535961
  0.7403694500122135  0.7355254271057375  0.3329740709986451
  0.7527881656110187  0.6333597401334178  0.0437956864844806
  0.9473243325523634  0.7628114290939652  0.8323539551896568
  0.0760703232159065  0.0998796092221267  0.4948833300233866
  0.0675809426698905  0.2378491864892298  0.1684914706091822
  0.3951926823797888  0.8957405466264287  0.0591769061843343
  0.2536801819474655  0.7905040110504840  0.7774463909856234
  0.7534183093265210  0.9464370179859246  0.1009797529756980
  0.2490844742984592  0.0536053702995995  0.8979664377223062
  0.0564883600218902  0.7419348916549845  0.3181171832692217
  0.7610686755419470  0.1378663251942375  0.5129752510313232
  0.9394570773871299  0.2589892392682183  0.6817561478823473
  0.5627609327419774  0.7634898562830963  0.8234801274605489
  0.5695012837649297  0.3941224331847520  0.9577331522382747
 
             NaN             NaN             NaN
             NaN             NaN             NaN
             NaN             NaN             NaN
             NaN             NaN             NaN
             NaN             NaN             NaN
             NaN             NaN             NaN
             NaN             NaN             NaN
             NaN             NaN             NaN
             NaN             NaN             NaN
             NaN             NaN             NaN
             NaN             NaN             NaN
             NaN             NaN             NaN
             NaN             NaN             NaN
             NaN             NaN             NaN
             NaN             NaN             NaN
             NaN             NaN             NaN
             NaN             NaN             NaN
             NaN             NaN             NaN
             NaN             NaN             NaN
             NaN             NaN             NaN
             NaN             NaN             NaN
             NaN             NaN             NaN
             NaN             NaN             NaN
             NaN             NaN             NaN
             NaN             NaN             NaN
             NaN             NaN             NaN
             NaN             NaN             NaN
             NaN             NaN             NaN
             NaN             NaN             NaN
             NaN             NaN             NaN
             NaN             NaN             NaN
             NaN             NaN             NaN
             NaN             NaN             NaN
             NaN             NaN             NaN
             NaN             NaN             NaN
             NaN             NaN             NaN
             NaN             NaN             NaN
             NaN             NaN             NaN
             NaN             NaN             NaN
             NaN             NaN             NaN
             NaN             NaN             NaN
             NaN             NaN             NaN
             NaN             NaN             NaN
             NaN             NaN             NaN
             NaN             NaN             NaN
             NaN             NaN             NaN
             NaN             NaN             NaN
             NaN             NaN             NaN
             NaN             NaN             NaN
             NaN             NaN             NaN
             NaN             NaN             NaN
             NaN             NaN             NaN
             NaN             NaN             NaN
             NaN             NaN             NaN
             NaN             NaN             NaN
             NaN             NaN             NaN
             NaN             NaN             NaN
             NaN             NaN             NaN
             NaN             NaN             NaN
             NaN             NaN             NaN
             NaN             NaN             NaN
             NaN             NaN             NaN
             NaN             NaN             NaN
             NaN             NaN             NaN
             NaN             NaN             NaN
             NaN             NaN             NaN
             NaN             NaN             NaN
             NaN             NaN             NaN
             NaN             NaN             NaN
             NaN             NaN             NaN
             NaN             NaN             NaN
             NaN             NaN             NaN
             NaN             NaN             NaN
             NaN             NaN             NaN
             NaN             NaN             NaN
             NaN             NaN             NaN
             NaN             NaN             NaN
             NaN             NaN             NaN
             NaN             NaN             NaN
             NaN             NaN             NaN
             NaN             NaN             NaN
             NaN             NaN             NaN
             NaN             NaN             NaN
