Ca Mn V  P  O 
 1.0000000000000000
     7.0321899999999999    0.0000000000000000    0.0000000000000000
    -0.2906680000000000    8.1542790000000007    0.0000000000000000
    -0.8333469999999999   -0.1133990000000000   18.3736320000000006
 Ca  Mn  V   P   O  
   4   4   4  16  56
Cartesian
  2.2424193634160980  7.4950407719515981 12.8724208053552900
  0.6936008146101856  7.5516415500057450  8.2456085006458135
  6.1912344672141320  7.6010521166607168  3.6080460517696689
  2.0032472887894057  3.4589560262821784  0.9600389993284345
 -0.2371178114855077 -0.0321429661109491 14.9031685386924746
  5.2670561427089231 -0.0255056290350062 10.2762782840872173
  3.7341206556688191  0.0008221471420478  5.6545143591085942
  1.9428693508428647  8.0575427358534846  0.9464374596793518
  3.8138141335792435  4.0138149903371749 17.2356035631433286
  2.2528651005299518  3.9480704281630823 12.7360889998697360
  0.7019288582376750  3.9543046547635430  8.1913880107835748
  6.1740038346686452  3.9951669376168346  3.6547459149852028
  2.0100136977822913  1.3834867765348793 16.5835431831451494
 -0.6295569212317950  6.1241017529672943 17.3857185199779281
  4.1393879645362821  2.1169138125296811 14.7023671301067473
  1.5563020533915608  5.4528184685734526 15.5446087028993389
  4.9173198789901598  6.1802259490093601 12.8766246679512602
  0.3782883364094700  1.4980483310867116 12.0087739247294945
  2.5748777895927439  2.1133424625229069 10.1407242653644563
  0.0404046522623880  5.5434533872164780 10.9725932901745686
  5.8471122077006994  1.5289921636526465  7.3937528101149237
  3.3580278181885621  6.2046959761588774  8.2747078436929353
  5.5393573736182713  5.5815040450533653  6.3902419865592259
  1.0328496937726530  2.1414006630557707  5.5452383346732033
  4.2925876972563373  1.5892805525239340  2.7663561270725712
  1.8269488264302780  6.2287295351947938  3.6218302890155303
  6.4367250644082397  2.2278219313373371  0.8917383161056474
  4.0505964214227239  5.6973192732671816  1.7838002337812617
  4.7272383370535067  2.4745790605782925 18.0774849865612701
  5.2047726123740761  5.2409434022916512 17.7055596397951263
  6.0603731312527129  7.4231832832041444 16.6882570388389624
  2.0889102520912330  0.2545702889792494 17.5952179374560522
  2.1696215571496262  2.7933525178143572 17.2419964737820415
  2.7423235663592389  5.3935366870648602 16.5601963803448200
  4.4003954924611710  3.4085721487296543 15.5280547922188479
  3.3065749843655299  1.1232300003915943 15.6876295049291627
  0.2547670864341882  5.1626529643731409 16.4473585176393193
  5.3727171797335931  1.3487802621096443 14.3606432920215390
  0.7724776095246217  1.4043467181203932 15.6979386555065030
  5.6777364456490762  6.5338889427365334 14.1487639568857357
  1.4547305893462279  6.8463544211574616 14.9407455715496376
  1.5701239927624859  4.3046785696446532 14.5739684273608621
  3.2474801084680758  2.3398126980830063 13.4841999207616343
  3.6555185856248111  5.3994646209072563 13.1968353834670520
  5.7950625443652362  5.2688013856525080 11.9247285085716044
  4.4661200382609794  7.4523729844045112 12.0990570203160459
  6.2038058760506534  1.4115882993946660 11.0832514857618829
  0.4923898118194795  0.3683557050408960 13.0583199956486080
  0.5452870776648806  2.8983390043014192 12.5313465163496325
  1.2733321339317794  5.5950540809442950 11.9072820074555441
  2.8592077729338823  3.3900704895129250 10.9230379191467364
  1.7279804754977137  1.0934688980408169 11.1534486196779454
  3.7531892002108829  1.2593002054926230  9.7713782772098305
  4.1008399909790656  6.5558395584722344  9.5616674098593606
  5.9563752763708813  0.3771515557966689  8.4145331786208768
 -0.1436493455031343  6.9202579714862260 10.3167171599227636
  6.0187750937686593  2.9156154103248664  7.9472021072976213
  0.0164584758939700  4.3849997180554139 10.0115133852429548
  1.6511303234678933  2.3098585752781986  8.9283203526355059
  2.1019778337983519  5.4176867687111070  8.5891878969231925
  4.2610008226781675  5.3060503187868235  7.3373152184891994
  2.9100486251931050  7.4654442120331028  7.4815083108290281
  4.6402767766569637  1.4517638076566228  6.4668829873232294
  5.3619230729260696  6.9437902951886388  5.6998726739417584
  5.4982520555163479  4.4013816457366053  5.4493881644573570
 -0.2613125430164429  5.6258556480427773  7.3169002060661565
  1.3169071054774988  3.4038972058687622  6.3387415988509828
  0.1620678078620549  1.1247261614105797  6.5311213661323082
  2.1917126629882118  1.2646658805703401  5.1606892874998174
  2.6427527067239036  6.5708726165197033  4.8556253154415279
  4.4288770319635411  0.4453048013028590  3.7710767984996658
  4.4413656434329836  2.9817367464847631  3.3123687646253885
  5.2371934879985202  5.6377638170856184  2.7509494051668000
  0.1270806788179626  2.3552442278837966  4.3099299647075551
  0.5745703803013186  5.4588557901180650  3.9732771330775685
  5.6239984009242807  1.2190424124264889  1.8637546829677736
  2.6885586523273810  5.2657177089859273  2.6486881178506883
  1.3874791998161011  7.4810797466636947  2.8083828470839807
  3.0585767602950455  1.5375609439802949  1.8563842464774487
  3.8415594605618706  7.0668996531394619  1.2329949086478789
  4.0027836355144455  4.5367172150286663  0.7764642763053766
 -0.2059479638153347  3.4752842608062804  1.7317564150052012
  0.6793677083411339  1.4896430140867678  0.5378591623926838
  1.0043965943862567  6.4229548541809676  0.3174045828526705
