Ca4 Mn4 V4 P16 O56
1.0
   7.0321899999999999    0.0000000000000000    0.0000000000000000
  -0.2906680000000000    8.1542790000000007    0.0000000000000000
  -0.8333469999999999   -0.1133990000000000   18.3736320000000006
Ca Mn V P O
4 4 4 16 56
direct
   0.3803490000000000    0.8633879999999990    0.7080419999999999 Ca
   0.1299160000000000    0.8631749999999990    0.4579109999999990 Ca
   0.8789700000000000    0.8633139999999990    0.2073600000000000 Ca
   0.3721470000000000    0.3580009999999990    0.0432969999999990 Ca
   0.0710610000000000    0.0069000000000000    0.8044070000000000 Mn
   0.8208130000000000    0.0066279999999990    0.5544289999999999 Mn
   0.5701400000000001    0.0070919999999990    0.3043940000000000 Mn
   0.3296870000000000    0.9930800000000001    0.0515290000000000 Mn
   0.6702200000000000    0.5060110000000000    0.9449810000000000 V
   0.4183469999999990    0.4938390000000000    0.6989210000000000 V
   0.1682620000000000    0.4939579999999991    0.4491890000000000 V
   0.9184600000000001    0.4955630000000000    0.1992030000000000 V
   0.4181320000000000    0.1748050000000000    0.8998220000000000 P
   0.0351330000000000    0.7810690000000000    0.9449489999999990 P
   0.7176330000000000    0.2860660000000000    0.8039069999999990 P
   0.3332380000000000    0.6786380000000000    0.8488530000000000 P
   0.7873930000000000    0.7815409999999990    0.6954400000000001 P
   0.1695070000000000    0.1763670000000000    0.6489110000000000 P
   0.4685500000000000    0.2872369999999990    0.5537430000000000 P
   0.0837040000000000    0.6791300000000000    0.5993720000000000 P
   0.9194080000000000    0.1763970000000000    0.3988770000000000 P
   0.5370860000000000    0.7814840000000000    0.4454630000000000 P
   0.8337479999999990    0.6793060000000000    0.3494420000000000 P
   0.2183949999999990    0.2875320000000000    0.3037940000000000 P
   0.6711110000000000    0.1770189999999990    0.1484240000000000 P
   0.2874310000000000    0.7817800000000000    0.1951020000000000 P
   0.9621500000000001    0.2907210000000000    0.0527240000000000 P
   0.5839630000000000    0.6819609999999990    0.1003120000000000 P
   0.8283320000000000    0.3392320000000000    0.9887530000000000 O
   0.8595539999999990    0.6792920000000000    0.9660059999999990 O
   0.9901369999999990    0.9321309999999990    0.9001560000000000 O
   0.4260779999999990    0.0382090000000000    0.9556720000000000 O
   0.4506330000000000    0.3447980000000000    0.9375690000000000 O
   0.5084800000000000    0.6626090000000000    0.9023770000000000 O
   0.7600169999999991    0.4400949999999990    0.8522470000000000 O
   0.5988220000000000    0.1518940000000000    0.8504530000000000 O
   0.1516000000000000    0.6523289999999990    0.8979330000000000 O
   0.8866529999999990    0.2001409999999990    0.7792209999999991 O
   0.2401420000000000    0.1746619999999990    0.8496760000000000 O
   0.9090950000000000    0.8255450000000000    0.7638619999999990 O
   0.3248720000000000    0.8441730000000000    0.8126100000000001 O
   0.3215770000000000    0.5352040000000000    0.7944930000000000 O
   0.5831130000000000    0.3356420000000000    0.7390730000000000 O
   0.6034370000000000    0.6870440000000000    0.7148629999999990 O
   0.8989020000000000    0.6524960000000000    0.6475679999999990 O
   0.7356640000000000    0.9323870000000000    0.6504840000000000 O
   0.9889900000000000    0.1727790000000000    0.6004480000000000 O
   0.1873749999999990    0.0386680000000000    0.7048489999999999 O
   0.2000160000000000    0.3477760000000000    0.6836610000000000 O
   0.2591330000000000    0.6718390000000000    0.6531570000000000 O
   0.5053240000000000    0.4395280000000000    0.6033950000000000 O
   0.3493310000000000    0.1499370000000000    0.5987290000000000 O
   0.6383590000000000    0.2022340000000000    0.5291400000000001 O
   0.6579750000000000    0.8258670000000000    0.5140979999999991 O
   0.9373790000000000    0.0387010000000000    0.4547630000000000 O
   0.0718890000000000    0.8442120000000000    0.5622950000000000 O
   0.9500600000000001    0.3476920000000000    0.4336939999999990 O
   0.0735909999999990    0.5352870000000000    0.5453359999999990 O
   0.3337270000000000    0.3365170000000000    0.4888909999999990 O
   0.3533420000000000    0.6870160000000000    0.4650200000000000 O
   0.6492490000000000    0.6526060000000000    0.3978509999999990 O
   0.4853739999999990    0.9322959999999991    0.4005519999999990 O
   0.7388340000000000    0.1727020000000000    0.3503360000000000 O
   0.8213060000000000    0.8443140000000000    0.3122240000000000 O
   0.8234330000000000    0.5353740000000000    0.2954810000000000 O
   0.0092090000000000    0.6719390000000000    0.4032020000000000 O
   0.2553680000000000    0.4394770000000000    0.3535049999999990 O
   0.0990320000000000    0.1499710000000000    0.3485400000000000 O
   0.3880800000000000    0.2022979999999990    0.2789270000000000 O
   0.4069390000000000    0.8276890000000000    0.2639130000000000 O
   0.6854540000000000    0.0388690000000000    0.2037700000000000 O
   0.7007479999999990    0.3478600000000000    0.1835119999999990 O
   0.7604010000000000    0.6696040000000000    0.1535310000000000 O
   0.0843970000000000    0.3376730000000000    0.2388320000000000 O
   0.1023690000000000    0.6898810000000000    0.2150810000000000 O
   0.8503010000000000    0.1504000000000000    0.0981340000000000 O
   0.3989100000000000    0.6488769999999990    0.1495040000000000 O
   0.2402530000000000    0.9313309999999990    0.1483920000000000 O
   0.4893059999999990    0.1764619999999990    0.0993810000000000 O
   0.5733340000000000    0.8482300000000000    0.0670740000000000 O
   0.5653000000000000    0.5372300000000001    0.0461380000000000 O
   0.0051300000000000    0.4413490000000000    0.1032879999999990 O
   0.1423849999999990    0.2141100000000000    0.0306600000000000 O
   0.1535880000000000    0.8220440000000000    0.0148840000000000 O
