V  O  F 
 1.0000000000000000
     3.9535960000000001    0.0000000000000000    0.0000000000000000
     1.8194889999999999    8.0936640000000004    0.0000000000000000
     0.3744790000000000    1.3052030000000001    8.4664560000000009
 V   O   F  
   4   1  12
Cartesian
  1.9119115047448187  7.2039864489675169  3.0714619351472843
  3.9364258387758544  1.4880770984209928  0.1883664849877611
  1.8225083803915088  6.3967101064981780 -0.0298454675355304
  4.2224197172589566  2.3445099646191414  5.3099206278438675
  1.8411677162871127  8.1198871931827750  1.1718014155034091
  4.1345487554547402  0.8257458393072105  4.0516354379714503
  3.8869482575006180  7.3139686885265007  2.9890976993564169
  1.8711571212982752  5.6622132785757975  1.7723453637554758
  3.9251484880035568  2.9800589578691485  1.1150133547191878
  1.9576637341584409  1.5490602785041656  0.0511656845015177
  1.9146229310417775  6.1734065343898550  4.5013705572331402
  4.2059783942182412  3.6206104987811907  4.0855969425071201
  4.1751810573275652  7.8086459594290751  8.4453753404751684
  2.2054549615619701  6.2646948482226126  7.4166804607160692
  4.2712399658078315  3.5939982118113911  6.9055521073297284
  2.2438377015644995  2.2217902108009602  5.4392413509514874
  4.2860907998132127  1.1119905318914907  7.0697394419923230
