V4 O1 F12
1.0
   3.9535960000000001    0.0000000000000000    0.0000000000000000
   1.8194889999999999    8.0936640000000004    0.0000000000000000
   0.3744790000000000    1.3052030000000001    8.4664560000000009
V O F
4 1 12
direct
   0.0732690000000000    0.8302210000000000    0.3563700000000000 V
   0.8838009999999999    0.1846710000000000    0.0143469999999990 V
   0.0988179999999990    0.8002210000000000    0.0041570000000000 V
   0.9279050000000000    0.1861310000000000    0.6266800000000000 V
   0.0060980000000000    0.9687880000000000    0.1450140000000000 O
   0.9932559999999990    0.0233130000000000    0.4815720000000000 F
   0.5711959999999990    0.8277270000000000    0.3583170000000000 F
   0.1632660000000000    0.6417520000000000    0.2142780000000000 F
   0.7932279999999990    0.3389419999999990    0.1621739999999990 F
   0.3815040000000000    0.2026109999999990    0.0047840000000000 F
   0.1203559999999990    0.6680189999999990    0.5436690000000000 F
   0.8896430000000000    0.3764160000000000    0.4701920000000000 F
   0.5984140000000000    0.8002570000000000    0.9890819999999991 F
   0.1803500000000000    0.6273580000000000    0.8729650000000000 F
   0.8530209999999990    0.3396329999999990    0.7967040000000000 F
   0.4323410000000000    0.1805860000000000    0.6332770000000000 F
   0.9913440000000000    0.0197090000000000    0.8330440000000000 F
