Ca V  F 
1.0
        7.3345699310         0.0000000000         0.0000000000
        0.0000076132         9.5290164947         0.0000000000
        0.0000224008         8.9164997178        10.8178909311
   Ca    V    F
    7    8   40
Direct
     0.721098781         0.310818434         0.864821553
     0.221083418         0.689163566         0.635186255
     0.243889526         0.255042970         0.023081493
     0.756098866         0.744967222         0.976916194
     0.778912306         0.310796201         0.364814401
     0.256101936         0.255061179         0.523093164
     0.278904349         0.689180017         0.135158911
     0.205167815         0.204582244         0.809952736
     0.239554167         0.805418253         0.324913174
     0.739639103         0.194760546         0.175151333
     0.705150485         0.795726895         0.689937592
     0.294850528         0.204350621         0.309883773
     0.260437638         0.805158377         0.824929237
     0.760400057         0.194610447         0.675189435
     0.794858038         0.795607209         0.189975515
     0.234754860         0.429788113         0.645032644
     0.756298721         0.433909982         0.639439642
     0.788899720         0.016917566         0.020435885
     0.404640645         0.287969619         0.861717820
     0.031825837         0.866654813         0.212893471
     0.375642568         0.898284495         0.177997783
     0.051184371         0.329280853         0.853876531
     0.438270688         0.742928803         0.434631050
     0.061983410         0.741923094         0.452760994
     0.713293433         0.923587978         0.255965084
     0.551163256         0.670701623         0.646096349
     0.213321686         0.076377049         0.244076937
     0.561975956         0.258073002         0.047222652
     0.938239872         0.257060468         0.065375678
     0.904648840         0.711996317         0.638270855
     0.256315112         0.566162944         0.860551596
     0.875582755         0.101769418         0.321924567
     0.734767675         0.570105791         0.855045319
     0.531829178         0.133339137         0.287107289
     0.288895726         0.983075559         0.479577571
     0.711100459         0.016860578         0.520478964
     0.468145430         0.866675854         0.712892652
     0.265248060         0.429820061         0.145023778
     0.124383017         0.898274004         0.678021669
     0.743687868         0.433859736         0.139444172
     0.095329039         0.288020104         0.361747086
     0.061734211         0.742939293         0.934635282
     0.438006133         0.741939604         0.952753127
     0.786700428         0.923622489         0.755943120
     0.448858440         0.329324037         0.353925318
     0.286710411         0.076410778         0.744019926
     0.938064158         0.258091748         0.547199488
     0.561692059         0.257078737         0.565345764
     0.948837221         0.670702100         0.146115184
     0.624392807         0.101738282         0.821953893
     0.968146741         0.133331403         0.787097633
     0.595325112         0.712018728         0.138279349
     0.211107358         0.983017564         0.979618669
     0.243707418         0.566036344         0.360565037
     0.765238404         0.570142090         0.355010837
