Ca Mn P  O 
1.0
        8.5813884735         0.0000000000         0.0000000000
        0.0000000000         9.9934930801         0.0000000000
        0.0000000000         2.5139694854         6.9417625678
   Ca   Mn    P    O
    3    4    8   28
Direct
     0.336031646         0.622717261         0.761584282
     0.836031616         0.377282679         0.238415733
     0.836031616         0.877282679         0.238415733
     0.751364708         0.111049958         0.761488974
     0.751364708         0.611049950         0.761488974
     0.251364708         0.388950080         0.238511026
     0.251364708         0.888950109         0.238511026
     0.973540187         0.397811472         0.601985991
     0.973540187         0.897811472         0.601985991
     0.548381269         0.307187796         0.997900486
     0.548381269         0.807187796         0.997900486
     0.048381250         0.192812189         0.002099514
     0.048381250         0.692812204         0.002099514
     0.473540157         0.102188498         0.398013979
     0.473540157         0.602188468         0.398013979
     0.547434151         0.205172375         0.883983314
     0.547434151         0.705172360         0.883983314
     0.565643191         0.081028715         0.583149850
     0.565643191         0.581028700         0.583149850
     0.579665244         0.215661019         0.228027657
     0.579665244         0.715661049         0.228027657
     0.692259610         0.403153658         0.964159429
     0.692259610         0.903153658         0.964159429
     0.954118609         0.030192714         0.655569077
     0.954118609         0.530192733         0.655569077
     0.454118550         0.469807297         0.344430923
     0.454118550         0.969807267         0.344430923
     0.393307596         0.387384951         0.978690624
     0.393307596         0.887384951         0.978690624
     0.192259610         0.096846312         0.035840541
     0.192259610         0.596846342         0.035840541
     0.047434140         0.294827640         0.116016701
     0.047434140         0.794827640         0.116016701
     0.893307567         0.112615056         0.021309357
     0.893307567         0.612615049         0.021309357
     0.819352925         0.323510081         0.582622468
     0.819352925         0.823510051         0.582622468
     0.319352895         0.176489919         0.417377591
     0.319352895         0.676489949         0.417377591
     0.079665199         0.284338981         0.771972358
     0.079665199         0.784338951         0.771972358
     0.065643199         0.418971270         0.416850209
     0.065643199         0.918971300         0.416850209
