Ca V  O                                 
   1.00000000000000     
    10.9655885695999995    0.0000000000000000    0.0000000000000000
    -1.8643554801000000   14.2891268287000006    0.0000000000000000
    -1.8525292359000001    0.1709672118000000    8.2915385771000008
   Ca   V    O 
    19    28    56
Direct
  0.7102031668510286  0.3066997928169857  0.6559453879670580
  0.0326561560799433  0.3259309242075005  0.6501742612594041
  0.0322714536811176  0.8276556571526031  0.6540516095030086
  0.5346476673872984  0.8244929118419542  0.6494961570111639
  0.2676888338714599  0.2560413963002141  0.5146495459041049
  0.2482236436116889  0.7523085339392944  0.4975425536277115
  0.7466744404677699  0.7479773705354764  0.4936371278242432
  0.4853626335955934  0.1772210576247290  0.3640043638786047
  0.4601899899140580  0.6728947821424318  0.3383644050829209
  0.9545044657448594  0.1794339653216494  0.3676690109962583
  0.9637260514758670  0.6752314399632238  0.3430633684338497
  0.3971098727548540  0.0313600136168838  0.0777712830353152
  0.3903087997339701  0.5305074388734700  0.0580217874196419
  0.9005729599435084  0.0348494404691975  0.0882139179953440
  0.8785441353012660  0.5326454204694651  0.0601332023526282
  0.1027100624212084  0.4706240723826473  0.9307165171749351
  0.1090228282241216  0.9688568350443411  0.9354568507465478
  0.5886266948971922  0.4527671191932978  0.8927186911271309
  0.6119629994876197  0.9622992585492945  0.9323934603470390
  0.4268500223790268  0.1014945008165273  0.7174808831095637
  0.4144803267029250  0.6030230911763809  0.7017897264893130
  0.9244984003548467  0.1063029997060512  0.7261663623244704
  0.9167584825673047  0.6028165204042879  0.7050774383161920
  0.0769679659929574  0.3997113100740791  0.2888710096932609
  0.0812765724427648  0.8985938523122114  0.2938499274410411
  0.5688663938214399  0.3896270630187065  0.2662782345250203
  0.5789899865984568  0.8943057565871523  0.2840885836766549
  0.2779752496035737  0.3140851826124265  0.1354247932333784
  0.2846652324642944  0.8153577033449640  0.1328091853419397
  0.7817139635191593  0.3168347477732439  0.1405357585100417
  0.7913936950136724  0.8173807292467541  0.1394470389794546
  0.1514151543872003  0.0399231283456137  0.5797281201768376
  0.1477699610462881  0.5390475937352615  0.5669478747013718
  0.6562684402755898  0.0358477337114334  0.5769108123716897
  0.6356838534499218  0.5358710025824323  0.5532098669683763
  0.0066168699741677  0.2519832921149344  0.0135929271742964
  0.9901078089704896  0.7519097974165333  0.9995646341012744
  0.4934876647849296  0.2493450309421611  0.9923336272732428
  0.5053729361691227  0.7452546656271475  0.9929202803402478
  0.3507998449309167  0.4613827041424295  0.4175836270842047
  0.3550085461711697  0.9641580188501745  0.4310361546008746
  0.8564314035974655  0.4656630601258463  0.4252669304596514
  0.8510817482051787  0.9645986199987641  0.4397362858605832
  0.2197773999124197  0.1838278248585539  0.8719751816177823
  0.2111238816960531  0.6853026051610952  0.8615455631598731
  0.7162337314264864  0.1718125874487479  0.8895391642443837
  0.7039563179310705  0.6785591276530683  0.8526576296291760
  0.3766677310688308  0.2263134122681985  0.7750045172395001
  0.3746351311701973  0.7344081018171691  0.7598252904334085
  0.8812413026507199  0.2380259753684258  0.7867491077634146
  0.8665008224949171  0.7300758437117555  0.7595810704155573
  0.0942533184115697  0.1757521835193672  0.6301033770748815
  0.0861862566321623  0.6734057116737060  0.6181254411097503
  0.5960539697760165  0.1603847561830528  0.6380831946015273
  0.5816377842900131  0.6715658689957631  0.6085419802831320
  0.4040012868617163  0.3282251730914438  0.3553903988867427
  0.4114550289921459  0.8274055614660165  0.3757338867770769
  0.9140821668467310  0.3374506424803963  0.3764903542179563
  0.9125838248697214  0.8304781915264000  0.3847757274396417
  0.3142784939151376  0.0970634237735924  0.4911090656783171
  0.3026680823223872  0.5967434084156182  0.4743044849132284
  0.8140486260702244  0.0920779516702202  0.5000915231833112
  0.8056087910686089  0.5984091273762416  0.4768157661050546
  0.1226184706868034  0.2688054498492984  0.2454256500489262
  0.1211159918546960  0.7676561729774520  0.2339376814198697
  0.6177321120762841  0.2660745852021125  0.2199105426357424
  0.6269617988227438  0.7635182690423958  0.2291880412128390
  0.4784880305587022  0.4853647611020457  0.6342919984102174
  0.4945762690291703  0.9778322759296019  0.6589940170122380
  0.9871297255703662  0.4798093590345708  0.6559896179316063
  0.9920074428774572  0.9822753254848137  0.6673931181489543
  0.4420121504103985  0.3790315919271361  0.0433681920648875
  0.4594652914121668  0.8785268422890530  0.0616259295067173
  0.9543071483403093  0.3845649215742168  0.0664745640098514
  0.9565154778724431  0.8846679128097633  0.0695687334543101
  0.1934729552113866  0.4063103720155153  0.5151799566672235
  0.1933676565161244  0.9066951237228796  0.5214814139926719
  0.6885678252030848  0.4195684933494593  0.4769472694749006
  0.6910506429532690  0.9010088209998515  0.5158109671488225
  0.0110097419242687  0.0234970355325028  0.3579912096204417
  0.0147042050371830  0.5252558433707706  0.3377346171723131
  0.5162890227946372  0.0193696990844380  0.3474106470500339
  0.5032563725307295  0.5190937982215861  0.3222878604835613
  0.3467003069947582  0.1889940328367717  0.0934581582553270
  0.3456588861141786  0.6892856172689803  0.0761252647653611
  0.8506224595574253  0.1906349138840956  0.1007304583185875
  0.8359235134053328  0.6874870674130373  0.0806608411912244
  0.1538458978014585  0.3114870822824160  0.9136048678582063
  0.1492719769669165  0.8099206293850425  0.9163332904630209
  0.6575107908941616  0.3029714295304986  0.9107343562263167
  0.6609830488937796  0.8082704039439883  0.9114178753157181
  0.0502743212156011  0.1201901142730978  0.9465517322673251
  0.0361696189814221  0.6193501370676249  0.9295013741839867
  0.5465856213812397  0.1126056216818807  0.9450232020415049
  0.5399450879744843  0.6117048632366056  0.9212914110409466
  0.2337376570980387  0.4450550918345677  0.1840084385595363
  0.2399659673792280  0.9443033143956633  0.1949483067528932
  0.7323778015492702  0.4433893471500577  0.1775491994485104
  0.7400826574230981  0.9443575664408407  0.1968146137765309
  0.2641256474841727  0.0547196428586459  0.8158655177995472
  0.2572438700822007  0.5563788024393969  0.8019699268829374
  0.7717720981939794  0.0522821436233895  0.8236880734253590
  0.7506928644662556  0.5481768598629452  0.7922054601226699
 
             NaN             NaN             NaN
             NaN             NaN             NaN
             NaN             NaN             NaN
             NaN             NaN             NaN
             NaN             NaN             NaN
             NaN             NaN             NaN
             NaN             NaN             NaN
             NaN             NaN             NaN
             NaN             NaN             NaN
             NaN             NaN             NaN
             NaN             NaN             NaN
             NaN             NaN             NaN
             NaN             NaN             NaN
             NaN             NaN             NaN
             NaN             NaN             NaN
             NaN             NaN             NaN
             NaN             NaN             NaN
             NaN             NaN             NaN
             NaN             NaN             NaN
             NaN             NaN             NaN
             NaN             NaN             NaN
             NaN             NaN             NaN
             NaN             NaN             NaN
             NaN             NaN             NaN
             NaN             NaN             NaN
             NaN             NaN             NaN
             NaN             NaN             NaN
             NaN             NaN             NaN
             NaN             NaN             NaN
             NaN             NaN             NaN
             NaN             NaN             NaN
             NaN             NaN             NaN
             NaN             NaN             NaN
             NaN             NaN             NaN
             NaN             NaN             NaN
             NaN             NaN             NaN
             NaN             NaN             NaN
             NaN             NaN             NaN
             NaN             NaN             NaN
             NaN             NaN             NaN
             NaN             NaN             NaN
             NaN             NaN             NaN
             NaN             NaN             NaN
             NaN             NaN             NaN
             NaN             NaN             NaN
             NaN             NaN             NaN
             NaN             NaN             NaN
             NaN             NaN             NaN
             NaN             NaN             NaN
             NaN             NaN             NaN
             NaN             NaN             NaN
             NaN             NaN             NaN
             NaN             NaN             NaN
             NaN             NaN             NaN
             NaN             NaN             NaN
             NaN             NaN             NaN
             NaN             NaN             NaN
             NaN             NaN             NaN
             NaN             NaN             NaN
             NaN             NaN             NaN
             NaN             NaN             NaN
             NaN             NaN             NaN
             NaN             NaN             NaN
             NaN             NaN             NaN
             NaN             NaN             NaN
             NaN             NaN             NaN
             NaN             NaN             NaN
             NaN             NaN             NaN
             NaN             NaN             NaN
             NaN             NaN             NaN
             NaN             NaN             NaN
             NaN             NaN             NaN
             NaN             NaN             NaN
             NaN             NaN             NaN
             NaN             NaN             NaN
             NaN             NaN             NaN
             NaN             NaN             NaN
             NaN             NaN             NaN
             NaN             NaN             NaN
             NaN             NaN             NaN
             NaN             NaN             NaN
             NaN             NaN             NaN
             NaN             NaN             NaN
             NaN             NaN             NaN
             NaN             NaN             NaN
             NaN             NaN             NaN
             NaN             NaN             NaN
             NaN             NaN             NaN
             NaN             NaN             NaN
             NaN             NaN             NaN
             NaN             NaN             NaN
             NaN             NaN             NaN
             NaN             NaN             NaN
             NaN             NaN             NaN
             NaN             NaN             NaN
             NaN             NaN             NaN
             NaN             NaN             NaN
             NaN             NaN             NaN
             NaN             NaN             NaN
             NaN             NaN             NaN
             NaN             NaN             NaN
             NaN             NaN             NaN
             NaN             NaN             NaN
