Ca V  O 
 1.0000000000000000
    10.9655885695999995    0.0000000000000000    0.0000000000000000
    -1.8643554801000000   14.2891268287000006    0.0000000000000000
    -1.8525292359000001    0.1709672118000000    8.2915385771000008
 Ca  V   O  
  19  28  56
Cartesian
  6.1867744141550531  4.3146655273520649  5.1481692966281312
 -1.4016757103345905  4.7680498760396590  5.4094788993449709
 -2.3346466154708172 11.9406693357101972  5.4172323460849503
  3.1535357951505909 11.9253950606074834  5.4106136708564287
  1.5092679952914678  3.7586921723844147  4.2670818251218590
  0.4011055365529146 10.8249064298947797  4.1328076282285213
  5.9055668096924183 10.8214537439939900  4.1196543126088159
  4.2284746331527803  2.6193912137048372  2.9661760425968713
  3.1309479015960191  9.6798604012466267  2.8256235060010710
  9.4096101405406305  2.5799851545220234  3.0136313979376386
  8.6709465130298700  9.6874674299320063  2.8312147755740802
  4.0685318758694784  0.5237353926961060  0.6192484455617598
  3.2288402679045634  7.6226572669001724  0.4657789517972225
  9.6010431005002808  0.4847193927380122  0.6625977179638203
  8.5505952010400517  7.6172880213786671  0.4696424248493207
 -1.4170453367745550  6.8302068673856615  7.7402552667548585
 -2.3352039983087791 13.9520208714128877  7.7533145531294361
  4.0430558768115512  6.5591975060443017  7.3809026321619111
  3.1300744087574555 13.9184132508465588  7.7908436149653477
  3.1680249653231782  1.6328018548344003  5.9598628508356395
  2.2244288806171548  8.7869269737156568  5.8618502631693472
  8.6352271629776833  1.6180719829316810  5.9723443669877270
  7.7048558909117117  8.7697561072520553  5.8843923650196901
 -0.4773149917320816  5.6773658742933613  2.3764224938944274
 -1.4067550225604724 12.8454102314613330  2.3869404787716251
  5.0048709186755902  5.7048633770992927  2.2632368180851374
  4.0690460788396674 12.8357363112674641  2.3831208155235144
  2.2729519908619387  4.5709168439109762  1.1697496401242413
  1.3309358451022653 11.7212455517923289  1.1697140147612319
  7.7025097423445938  4.5628678274576000  1.2107592372660128
  6.8178909312811715 11.7061171667957353  1.1695873611502532
  0.4753609636587288  0.6579788353986307  4.7407902649508653
 -0.4672342499846656  7.7653043497095577  4.6989842866757874
  5.9621759880913894  0.6188233477105984  4.7739760097576891
  4.9778879006472199  7.8216067797052302  4.6235755185544036
 -0.4782525712260395  3.5639838431695900  0.0668973068080946
 -1.4088121419027670 10.7037057924697727 -0.0134767434540461
  5.0182217170905581  3.5397083097414552 -0.0475632404819229
  4.0843195691102094 10.7005703379854680 -0.0136252923603976
  2.2437842064104947  6.7065601213567598  3.5118452757428367
  1.2888701703329062 13.8733654786717278  3.5920445557398852
  7.7209437276905399  6.7282066412490131  3.4861827769875138
  6.7750626284938900 13.8342251928234319  3.6088609617705871
  0.4163321225696783  2.7218939298606384  7.1642922534627171
 -0.5212678889848220  9.8763669939375287  7.0992442285805915
  5.8854279710600856  2.6024488177650751  7.2555975626913929
  4.9616913066128143  9.8570358479107618  7.0893206262712845
  2.2774474109842799  3.3973070496214595  6.3934424733548587
  1.3876332861043310 10.6328224139455241  6.2796820615050795
  7.8140854871660732  3.4797083869355783  6.4184297779840840
  6.8596009141175376 10.6379534680525172  6.2771808055538711
 -0.5040023677017418  2.6107949772999159  5.1383121074699716
 -1.4424041085197254  9.7465145732054346  5.0775264731334921
  5.0248689182922828  2.4239725876666931  5.1824051599191767
  4.0593435947585750  9.7529146803404405  5.0422180123029792
  3.2121763249004296  4.7781729318753454  3.0648269921101736
  2.2541353202391541 11.8814146592428305  3.1987999538523186
  8.5975804561992177  4.8147613600372772  3.2103845765334791
  7.7573140000189200 11.8662984885557421  3.2014822832370022
  2.3572584256498401  1.5405109950663793  4.1194892234314260
  1.3740758244304636  8.6764949469178116  4.0214865469542618
  7.7636790227810240  1.4172124377302053  4.2034201761210799
  6.8794133585916351  8.6694415116389543  4.0047658770689631
  0.3483787288051376  3.8601414645505177  2.0394542260408843
 -0.5486505766943870 10.9518185268106851  1.9877687179617978
  5.8582662202462013  3.8967612908792182  1.9375386740744176
  4.9149228295757004 10.9488147722302340  1.9824365237371151
  3.1966493946769075  7.0779609817727085  5.3635767174250883
  2.3262525665162359 14.0773459390099109  5.5291634004507237
  8.6419200803891236  6.9103524410273423  5.4772582922459980
  7.7696353384803816 14.1010572371708598  5.5689900159029637
  4.1541209651940187  5.4993275450550980  0.4125783187714368
  3.2147331532825083 12.6467676616536373  0.5241863978600305
  9.6049298198135133  5.4849163899107536  0.5413979544025249
  8.7062504096983133 12.6504862560400824  0.5276348130686790
  0.3777512506250967  5.8175320216132569  4.1913162812715798
 -0.5598700415347621 12.9830004743138723  4.2380962312585373
  5.8890094574747600  6.1076891031829605  4.0466364236929628
  4.9004345001920013 12.9742709275778179  4.2589077502399997
 -0.5477436469502289  0.4167853739266412  2.8228021305903104
 -1.4910294109247431  7.4942039773869249  2.7246013604455039
  4.9730341315733693  0.3994235368975775  2.8292097554335114
  4.0060066811077801  7.5543687221077489  2.6806710470674595
  3.2881852574363855  2.7289418801778318  0.7919359686181087
  2.3601299089049750  9.8528204984219201  0.6914411378688076
  8.7353497574440233  2.7132799305643687  0.8373329396664980
  7.8315813087050357  9.8339741199490600  0.7061283988155230
 -0.6213213629294203  4.5893977835470006  7.5908759632241569
 -1.5273942227504200 11.7366612151996410  7.5545724562319903
  5.0254011604496958  4.4971753105431258  7.5229479677853428
  3.9427820110658658 11.7195483557237985  7.5537681985368970
 -1.4701133690096204  1.7907103590371427  7.8089752650880779
 -2.4196742530955380  8.9353623472591579  7.7534340151331813
  4.0034786020513371  1.7412466726121223  7.8384652889248505
  3.0921055365386438  8.9163687871801489  7.6896377539501763
  1.3838321635523028  6.4658461556329740  1.5495933726905811
  0.4331937007552651 13.6225039291016703  1.6026666192844103
  6.8683546471530104  6.4226762083469602  1.4627312380530830
  5.9242478027757484 13.6093101510032639  1.6019372505867633
  1.3116489615536335  0.8227244813118177  6.7447888789061423
  0.3651556934835976  7.9859966798702278  6.6854338195132526
  6.7938008780268717  0.7965237204142298  6.7863180512583519
  5.8306427994755339  7.9483064256918086  6.6127501219757123
