Ca Ni P  W  O 
1.0
       13.2344312668         0.0000000000         0.0000000000
       -0.0437570990        15.3484044993         0.0000000000
       -0.0017712552        -0.0026638686        14.4585872926
   Ca   Ni    P    W    O
   15   16   32   16  144
Direct
     0.625109076         0.543222189         0.216491953
     0.375068814         0.456730902         0.783529639
     0.375068814         0.956730902         0.783529639
     0.875068784         0.456730902         0.783529639
     0.875068784         0.956730902         0.783529639
     0.374926716         0.793250322         0.283513755
     0.874926686         0.293250293         0.283513755
     0.874926686         0.793250322         0.283513755
     0.125109106         0.043222219         0.216491953
     0.125109106         0.543222189         0.216491953
     0.625109076         0.043222219         0.216491953
     0.124697417         0.206772313         0.716435909
     0.124697417         0.706772327         0.716435909
     0.624697447         0.206772313         0.716435909
     0.624697447         0.706772327         0.716435909
     0.250001341         0.000009387         0.000022008
     0.250001341         0.500009358         0.000022008
     0.750001311         0.000009387         0.000022008
     0.750001311         0.500009358         0.000022008
     0.249957725         0.249968156         0.500024557
     0.249957725         0.749968171         0.500024557
     0.749957740         0.249968156         0.500024557
     0.749957740         0.749968171         0.500024557
     0.999939203         0.250006944         0.499987096
     0.999939203         0.750006914         0.499987096
     0.499939203         0.250006944         0.499987096
     0.499939203         0.750006914         0.499987096
     0.500051081         0.500002265         0.000000000
     0.500051081         0.000002265         0.000000000
     0.000051081         0.500002265         0.000000000
     0.000051081         0.000002265         0.000000000
     0.125005499         0.174559698         0.933040380
     0.125005499         0.674559712         0.933040380
     0.625005484         0.174559698         0.933040380
     0.625005484         0.674559712         0.933040380
     0.374877959         0.325430989         0.066946343
     0.374877959         0.825430989         0.066946343
     0.874877930         0.325430989         0.066946343
     0.874877930         0.825430989         0.066946343
     0.375114888         0.424550772         0.566889822
     0.375114888         0.924550772         0.566889822
     0.875114918         0.424550772         0.566889822
     0.875114918         0.924550772         0.566889822
     0.125053734         0.075428724         0.433119535
     0.125053734         0.575428724         0.433119535
     0.625053763         0.075428724         0.433119535
     0.625053763         0.575428724         0.433119535
     0.374766082         0.196248725         0.688797593
     0.374766082         0.696248710         0.688797593
     0.874766111         0.196248725         0.688797593
     0.874766111         0.696248710         0.688797593
     0.124903008         0.303724825         0.311237782
     0.124903008         0.803724825         0.311237782
     0.624903023         0.303724825         0.311237782
     0.624903023         0.803724825         0.311237782
     0.125126719         0.446247160         0.811261535
     0.125126719         0.946247160         0.811261535
     0.625126719         0.446247160         0.811261535
     0.625126719         0.946247160         0.811261535
     0.375180781         0.053749330         0.188698933
     0.375180781         0.553749323         0.188698933
     0.875180781         0.053749330         0.188698933
     0.875180781         0.553749323         0.188698933
     0.374912411         0.175580129         0.881397426
     0.374912411         0.675580144         0.881397426
     0.874912381         0.175580129         0.881397426
     0.874912381         0.675580144         0.881397426
     0.124828309         0.324455827         0.118603006
     0.124828309         0.824455857         0.118603006
     0.624828339         0.324455827         0.118603006
     0.624828339         0.824455857         0.118603006
     0.125190184         0.425559014         0.618617713
     0.125190184         0.925559044         0.618617713
     0.625190198         0.425559014         0.618617713
     0.625190198         0.925559044         0.618617713
     0.375085533         0.074435987         0.381360114
     0.375085533         0.574436009         0.381360114
     0.875085533         0.074435987         0.381360114
     0.875085533         0.574436009         0.381360114
     0.027183002         0.300004423         0.368256956
     0.027183002         0.800004423         0.368256956
     0.527182996         0.300004423         0.368256956
     0.527182996         0.800004423         0.368256956
     0.276931494         0.200365454         0.631959379
     0.276931494         0.700365424         0.631959379
     0.776931524         0.200365454         0.631959379
     0.776931524         0.700365424         0.631959379
     0.472923964         0.049931116         0.131749585
     0.472923964         0.549931109         0.131749585
     0.972923994         0.049931116         0.131749585
     0.972923994         0.549931109         0.131749585
     0.222851366         0.450054914         0.868303835
     0.222851366         0.950054884         0.868303835
     0.722851396         0.450054914         0.868303835
     0.722851396         0.950054884         0.868303835
     0.472503036         0.200091586         0.631678998
     0.472503036         0.700091600         0.631678998
     0.972503066         0.200091586         0.631678998
     0.972503066         0.700091600         0.631678998
     0.222711921         0.299509853         0.368104070
     0.222711921         0.799509883         0.368104070
     0.722711921         0.299509853         0.368104070
     0.722711921         0.799509883         0.368104070
     0.027294593         0.450343013         0.868108451
     0.027294593         0.950343013         0.868108451
     0.527294576         0.450343013         0.868108451
     0.527294576         0.950343013         0.868108451
     0.277382195         0.049749091         0.131820053
     0.277382195         0.549749076         0.131820053
     0.777382195         0.049749091         0.131820053
     0.777382195         0.549749076         0.131820053
     0.124843121         0.164466307         0.481379479
     0.124843121         0.664466321         0.481379479
     0.624843121         0.164466307         0.481379479
     0.624843121         0.664466321         0.481379479
     0.375096351         0.335495055         0.518663526
     0.375096351         0.835495055         0.518663526
     0.875096321         0.335495055         0.518663526
     0.875096321         0.835495055         0.518663526
     0.374930650         0.414489657         0.018657321
     0.374930650         0.914489627         0.018657321
     0.874930620         0.414489657         0.018657321
     0.874930620         0.914489627         0.018657321
     0.125210479         0.085540049         0.981333077
     0.125210479         0.585540056         0.981333077
     0.625210464         0.085540049         0.981333077
     0.625210464         0.585540056         0.981333077
     0.375031382         0.065112218         0.942241728
     0.375031382         0.565112233         0.942241728
     0.875031352         0.065112218         0.942241728
     0.875031352         0.565112233         0.942241728
     0.124938093         0.434882492         0.057765763
     0.124938093         0.934882522         0.057765763
     0.624938071         0.434882492         0.057765763
     0.624938071         0.934882522         0.057765763
     0.125006631         0.315134883         0.557784677
     0.125006631         0.815134883         0.557784677
     0.625006616         0.315134883         0.557784677
     0.625006616         0.815134883         0.557784677
     0.374884456         0.184828937         0.442253709
     0.374884456         0.684828937         0.442253709
     0.874884486         0.184828937         0.442253709
     0.874884486         0.684828937         0.442253709
     0.374549866         0.110727154         0.749809027
     0.374549866         0.610727131         0.749809027
     0.874549866         0.110727154         0.749809027
     0.874549866         0.610727131         0.749809027
     0.125373766         0.389281690         0.250216872
     0.125373766         0.889281690         0.250216872
     0.625373781         0.389281690         0.250216872
     0.625373781         0.889281690         0.250216872
     0.124832697         0.360686839         0.750205338
     0.124832697         0.860686839         0.750205338
     0.624832690         0.360686839         0.750205338
     0.624832690         0.860686839         0.750205338
     0.375343740         0.139340609         0.249808088
     0.375343740         0.639340639         0.249808088
     0.875343740         0.139340609         0.249808088
     0.875343740         0.639340639         0.249808088
     0.215564445         0.065918133         0.365302324
     0.215564445         0.565918148         0.365302324
     0.715564430         0.065918133         0.365302324
     0.715564430         0.565918148         0.365302324
     0.465772569         0.434592754         0.634578824
     0.465772569         0.934592724         0.634578824
     0.965772569         0.434592754         0.634578824
     0.965772569         0.934592724         0.634578824
     0.284326673         0.315474898         0.134613231
     0.284326673         0.815474868         0.134613231
     0.784326673         0.315474898         0.134613231
     0.784326673         0.815474868         0.134613231
     0.034469515         0.183950633         0.865263700
     0.034469515         0.683950663         0.865263700
     0.534469485         0.183950633         0.865263700
     0.534469485         0.683950663         0.865263700
     0.284666985         0.434144497         0.634750009
     0.284666985         0.934144497         0.634750009
     0.784667015         0.434144497         0.634750009
     0.784667015         0.934144497         0.634750009
     0.034460954         0.065363444         0.365357786
     0.034460954         0.565363467         0.365357786
     0.534460962         0.065363444         0.365357786
     0.534460962         0.565363467         0.365357786
     0.215530440         0.184698299         0.865342736
     0.215530440         0.684698284         0.865342736
     0.715530455         0.184698299         0.865342736
     0.715530455         0.684698284         0.865342736
     0.465326905         0.315919489         0.134769052
     0.465326905         0.815919518         0.134769052
     0.965326905         0.315919489         0.134769052
     0.965326905         0.815919518         0.134769052
     0.375084996         0.481689125         0.267478466
     0.375084996         0.981689095         0.267478466
     0.875084996         0.481689125         0.267478466
     0.875084996         0.981689095         0.267478466
     0.125576690         0.018309677         0.732472956
     0.125576690         0.518309653         0.732472956
     0.625576675         0.018309677         0.732472956
     0.625576675         0.518309653         0.732472956
     0.124375127         0.231662676         0.232413724
     0.124375127         0.731662691         0.232413724
     0.624375105         0.231662676         0.232413724
     0.624375105         0.731662691         0.232413724
     0.375327677         0.268354684         0.767612815
     0.375327677         0.768354654         0.767612815
     0.875327706         0.268354684         0.767612815
     0.875327706         0.768354654         0.767612815
     0.374887377         0.496852130         0.494481921
     0.374887377         0.996852160         0.494481921
     0.874887347         0.496852130         0.494481921
     0.874887347         0.996852160         0.494481921
     0.125267938         0.003092157         0.505484581
     0.125267938         0.503092170         0.505484581
     0.625267923         0.003092157         0.505484581
     0.625267923         0.503092170         0.505484581
     0.124689743         0.246975228         0.005435815
     0.124689743         0.746975243         0.005435815
     0.624689758         0.246975228         0.005435815
     0.624689758         0.746975243         0.005435815
     0.375053555         0.253035188         0.994566977
     0.375053555         0.753035188         0.994566977
     0.875053525         0.253035188         0.994566977
     0.875053525         0.753035188         0.994566977
