Ca Cr P  O 
 1.0000000000000000
     8.7485284804999992    0.0000000000000000    0.0000000000000000
     0.0000065873000000    9.8939285278000000    0.0000000000000000
    -0.0000058994000000    2.4026902022000001    6.9821501365999996
 Ca  Cr  P   O  
   3   4   8  28
Selective dynamics
Cartesian
  3.1273126915278664  4.5325715664063946  4.8482418565133587   T   T   T
  7.5132513569464665  4.3853110641641040  1.6134021129944500   T   T   T
  7.4582922247643175  9.1170722673460354  1.6366932644461953   T   T   T
  6.5783849613149190  2.8890305295508760  5.3733359123714486   T   T   T
  6.5108582403181314  7.9417334730546960  5.3991538722456296   T   T   T
  2.3277999016656667  4.5096344730954581  1.5288071734159809   T   T   T
  2.3146311826162211  9.3900478528889497  1.5683697980274205   T   T   T
  0.4720677192976678  1.8134395616512753 -0.0064662135402901   T   T   T
  0.5082374292322455  6.8013955523278442 -0.0903511006678117   T   T   T
  4.9652225153363450  5.4570288030247047  7.0401041376759048   T   T   T
  4.8935714912686965 10.3965868277118290  7.0250466377186829   T   T   T
  8.4474498153905042  5.3304528849117530  4.2809197967374875   T   T   T
  8.4917804769212779 10.2274879241293117  4.2159479492664707   T   T   T
  4.2505827045758791  2.1490471228768389  2.8193956271260596   T   T   T
  4.2633258017166149  7.1463510153914331  2.8640142439328211   T   T   T
  0.7289861543863785  4.7378659394927416  5.4194802179529571   T   T   T
  0.7286904414032437  9.6557770364086171  5.3514976732559463   T   T   T
  5.2912604138912345  2.7191498236445293  1.6161757168139970   T   T   T
  5.2874946330504002  7.5950430516665088  1.6239262577844176   T   T   T
  0.4294697657420410  3.0453079653287682  0.8863833814415349   T   T   T
  0.5321395625937082  8.0522774162556896  0.8055548300147395   T   T   T
  5.1451079918685556  4.2225649655249349  6.1175715203749093   T   T   T
  5.1038016053929018  9.1566781816784815  6.1765612195729087   T   T   T
  3.0617122921974862  3.1357420557869822  2.9297693237875437   T   T   T
  3.0466297440801533  8.0599243761562729  2.8553513758897804   T   T   T
  7.2680301950947390  4.3194356282632560  4.1145915612687167   T   T   T
  7.2563767116156876  9.2688297836676927  4.0789136153103716   T   T   T
  5.1112618967096299  2.3109691868027293  4.0766030854472461   T   T   T
  5.1609232094155688  7.2433773672362110  4.0987637298359729   T   T   T
  0.5249716350241731  5.2732354252238052  2.9997206104292244   T   T   T
  0.4915386242625495 10.1302828253499619  2.8821031915256907   T   T   T
  3.8429859488331330  5.6760069796796424  2.6821769431755720   T   T   T
  3.8632741567516145 10.6592157179838640  2.3848650365320121   T   T   T
  8.0434292225015120  1.7373467128193478  4.6115718450893057   T   T   T
  7.9907371598544836  6.7004398740843589  4.7261472789286527   T   T   T
  3.5222234832956842  5.9074220295172513  6.8862282062798279   T   T   T
  3.5100332485339920 10.9936796267209225  7.0255360599032421   T   T   T
  7.8474389998163998  1.0848898631265200 -0.0540094550253090   T   T   T
  7.8223808508350503  6.1497603010956432 -0.0523317876704212   T   T   T
  6.0448984574611817  6.5329156259314765  6.8008131243363650   T   T   T
  6.0287586870657375 11.4496207825775063  6.7825047850457247   T   T   T
  1.6883125594784270  0.9199248267450725  0.1632418657462439   T   T   T
  1.6024361085730243  5.8122761526083044  0.1963356781209989   T   T   T
