Ca Co C  O 
1.0
       10.2450523376         0.0000000000         0.0000000000
       -5.4561590113        11.5402254884         0.0000000000
        0.0711648225         0.0352533720        17.2632145394
   Ca   Co    C    O
   15   16   32   96
Direct
     0.305556417         0.430817097         0.784173250
     0.194937780         0.319266438         0.033455342
     0.194937780         0.819266438         0.033455342
     0.694937766         0.319266438         0.033455342
     0.694937766         0.819266438         0.033455342
     0.196150213         0.819822550         0.533351660
     0.696150184         0.319822520         0.533351660
     0.696150184         0.819822550         0.533351660
     0.306003153         0.431241333         0.284267724
     0.306003153         0.931241333         0.284267724
     0.806003153         0.431241333         0.284267724
     0.806003153         0.931241333         0.284267724
     0.305556417         0.930817127         0.784173250
     0.805556417         0.430817097         0.784173250
     0.805556417         0.930817127         0.784173250
     0.020726727         0.014582270         0.000869036
     0.020726727         0.514582276         0.000869036
     0.520726740         0.014582270         0.000869036
     0.520726740         0.514582276         0.000869036
     0.479627967         0.235749841         0.750393629
     0.479627967         0.735749841         0.750393629
     0.979627967         0.235749841         0.750393629
     0.979627967         0.735749841         0.750393629
     0.021917867         0.014314193         0.500190020
     0.021917867         0.514314175         0.500190020
     0.521917880         0.014314193         0.500190020
     0.521917880         0.514314175         0.500190020
     0.479075968         0.235700950         0.250522077
     0.479075968         0.735700965         0.250522077
     0.979075968         0.235700950         0.250522077
     0.979075968         0.735700965         0.250522077
     0.433620930         0.079150930         0.116218098
     0.433620930         0.579150915         0.116218098
     0.933620930         0.079150930         0.116218098
     0.933620930         0.579150915         0.116218098
     0.435913205         0.079234309         0.615729809
     0.435913205         0.579234302         0.615729809
     0.935913205         0.079234309         0.615729809
     0.935913205         0.579234302         0.615729809
     0.066053972         0.171093166         0.365829080
     0.066053972         0.671093166         0.365829080
     0.566053987         0.171093166         0.365829080
     0.566053987         0.671093166         0.365829080
     0.064919226         0.170851305         0.866094589
     0.064919226         0.670851290         0.866094589
     0.564919233         0.170851305         0.866094589
     0.564919233         0.670851290         0.866094589
     0.466480762         0.341574222         0.135342702
     0.466480762         0.841574192         0.135342702
     0.966480732         0.341574222         0.135342702
     0.966480732         0.841574192         0.135342702
     0.467375875         0.342085809         0.635073245
     0.467375875         0.842085838         0.635073245
     0.967375875         0.342085809         0.635073245
     0.967375875         0.842085838         0.635073245
     0.033137705         0.407664031         0.384887308
     0.033137705         0.907664061         0.384887308
     0.533137679         0.407664031         0.384887308
     0.533137679         0.907664061         0.384887308
     0.031402405         0.407891244         0.885629475
     0.031402405         0.907891273         0.885629475
     0.531402409         0.407891244         0.885629475
     0.531402409         0.907891273         0.885629475
     0.342445254         0.017468393         0.063978635
     0.342445254         0.517468393         0.063978635
     0.842445254         0.017468393         0.063978635
     0.842445254         0.517468393         0.063978635
     0.344532967         0.018114123         0.563310027
     0.344532967         0.518114150         0.563310027
     0.844532967         0.018114123         0.563310027
     0.844532967         0.518114150         0.563310027
     0.157391444         0.232796535         0.313204229
     0.157391444         0.732796550         0.313204229
     0.657391429         0.232796535         0.313204229
     0.657391429         0.732796550         0.313204229
     0.156674013         0.232979596         0.813683629
     0.156674013         0.732979596         0.813683629
     0.656674027         0.232979596         0.813683629
     0.656674027         0.732979596         0.813683629
     0.392031580         0.089062206         0.185856000
     0.392031580         0.589062214         0.185856000
     0.892031550         0.089062206         0.185856000
     0.892031550         0.589062214         0.185856000
     0.394496441         0.089042366         0.685372770
     0.394496441         0.589042366         0.685372770
     0.894496441         0.089042366         0.685372770
     0.894496441         0.589042366         0.685372770
     0.107254609         0.160794735         0.435298115
     0.107254609         0.660794735         0.435298115
     0.607254624         0.160794735         0.435298115
     0.607254624         0.660794735         0.435298115
     0.105828963         0.161090076         0.935707331
     0.105828963         0.661090076         0.935707331
     0.605828941         0.161090076         0.935707331
     0.605828941         0.661090076         0.935707331
     0.430447221         0.122918569         0.345850021
     0.430447221         0.622918546         0.345850021
     0.930447221         0.122918569         0.345850021
     0.930447221         0.622918546         0.345850021
     0.429604739         0.121959157         0.845713019
     0.429604739         0.621959150         0.845713019
     0.929604769         0.121959157         0.845713019
     0.929604769         0.621959150         0.845713019
     0.069281213         0.127488151         0.095663302
     0.069281213         0.627488136         0.095663302
     0.569281220         0.127488151         0.095663302
     0.569281220         0.627488136         0.095663302
     0.071612351         0.127159134         0.595265448
     0.071612351         0.627159119         0.595265448
     0.571612358         0.127159134         0.595265448
     0.571612358         0.627159119         0.595265448
     0.367030889         0.322089970         0.186852261
     0.367030889         0.822089970         0.186852261
     0.867030859         0.322089970         0.186852261
     0.867030859         0.822089970         0.186852261
     0.367643744         0.322657436         0.686395824
     0.367643744         0.822657466         0.686395824
     0.867643714         0.322657436         0.686395824
     0.867643714         0.822657466         0.686395824
     0.132838622         0.426580191         0.435675591
     0.132838622         0.926580191         0.435675591
     0.632838607         0.426580191         0.435675591
     0.632838607         0.926580191         0.435675591
     0.131368205         0.428249568         0.936554790
     0.131368205         0.928249598         0.936554790
     0.631368220         0.428249568         0.936554790
     0.631368220         0.928249598         0.936554790
     0.444064051         0.352649748         0.062396824
     0.444064051         0.852649748         0.062396824
     0.944064021         0.352649748         0.062396824
     0.944064021         0.852649748         0.062396824
     0.445439607         0.352718085         0.561937690
     0.445439607         0.852718115         0.561937690
     0.945439577         0.352718085         0.561937690
     0.945439577         0.852718115         0.561937690
     0.055030704         0.397491097         0.311618567
     0.055030704         0.897491097         0.311618567
     0.555030704         0.397491097         0.311618567
     0.555030704         0.897491097         0.311618567
     0.053870339         0.397123456         0.812523961
     0.053870339         0.897123456         0.812523961
     0.553870320         0.397123456         0.812523961
     0.553870320         0.897123456         0.812523961
     0.411591113         0.408398896         0.406478018
     0.411591113         0.908398867         0.406478018
     0.911591113         0.408398896         0.406478018
     0.911591113         0.908398867         0.406478018
     0.409281999         0.407631546         0.907127440
     0.409281999         0.907631516         0.907127440
     0.909281969         0.407631546         0.907127440
     0.909281969         0.907631516         0.907127440
     0.088206790         0.340783834         0.155915216
     0.088206790         0.840783834         0.155915216
     0.588206768         0.340783834         0.155915216
     0.588206768         0.840783834         0.155915216
     0.089134470         0.341712981         0.655906260
     0.089134470         0.841712952         0.655906260
     0.589134455         0.341712981         0.655906260
     0.589134455         0.841712952         0.655906260
