Ca V  Cr P  O 
1.0
        8.5128574371         0.0000000000         0.0000000000
        0.0000009786         7.3488421440         0.0000000000
       -0.0000053450         3.2759817360         9.4853126568
   Ca    V   Cr    P    O
    3    2    2    8   28
Direct
     0.400672019         0.263852030         0.623665929
     0.908493817         0.743839681         0.884473622
     0.900660813         0.736154199         0.376334339
     0.988837123         0.272072792         0.606770873
     0.488861829         0.727931261         0.393222630
     0.493730783         0.735642731         0.887902975
     0.993731320         0.264343560         0.112109557
     0.188392773         0.490125388         0.810654819
     0.775597095         0.114201196         0.895763934
     0.266256392         0.889583945         0.614567697
     0.690500319         0.505537808         0.694681466
     0.190511897         0.494472384         0.305300981
     0.766229928         0.110372245         0.385440320
     0.275585860         0.885863185         0.104217649
     0.688351393         0.509840667         0.189414367
     0.299176633         0.818538785         0.977587223
     0.685825408         0.925386310         0.929264843
     0.047191598         0.457015187         0.910833478
     0.346371889         0.455607116         0.886229694
     0.690906286         0.622835994         0.796429336
     0.419731915         0.914949179         0.691395104
     0.160510048         0.723058701         0.730064988
     0.661433697         0.276405782         0.785073459
     0.925999939         0.091537111         0.816870570
     0.181888238         0.389351815         0.699552178
     0.845584393         0.524551988         0.613802195
     0.545388937         0.537990868         0.600699902
     0.290351808         0.827515066         0.486802995
     0.672696710         0.924883962         0.412350088
     0.172733158         0.075070746         0.587648928
     0.790370166         0.172525898         0.513249993
     0.045377821         0.462007642         0.399306923
     0.345586717         0.475447387         0.386200130
     0.681878567         0.610680878         0.300485641
     0.426007897         0.908457339         0.183137372
     0.161422297         0.723563135         0.214943826
     0.660491645         0.276953995         0.269918203
     0.919798136         0.085062288         0.308557600
     0.190903664         0.377166331         0.203572705
     0.846485794         0.544409573         0.113709517
     0.547125459         0.542998850         0.089116111
     0.185836777         0.074586466         0.070742942
     0.799171209         0.181452379         0.022405282
