Ca Mn V  P  O 
 1.0000000000000000
     7.3615770339999997    0.0000000000000000    0.0000000000000000
     0.1764880905000000    8.2527450794000003    0.0000000000000000
     0.4044067635000000    0.4538283880000000   18.2490875539999990
 Ca  Mn  V   P   O  
   3   4   4  16  56
Selective dynamics
Cartesian
  6.3444196768821728  7.7060140969520754  7.4788379009791308   T   T   T
  1.2367406535211420  7.6115904852018685  2.1794335271418519   T   T   T
  6.8235446454835778  3.8397923805267267 16.0022442806997809   T   T   T
  4.5644013026212207  0.0934144218009055  2.3325557529847787   T   T   T
  2.7039596606250607  0.1865601425753099  6.9409888470482981   T   T   T
  1.0068671234668951  0.3527539054533558 11.5052597069318079   T   T   T
  6.7694909078225107  8.5282164456967617 15.9971971606394998   T   T   T
  1.2547000180889782  4.0751205236265555  2.2678746710524389   T   T   T
  6.9153808548126614  4.2269552391541803  6.7762703586967312   T   T   T
  5.1281602644322062  4.4846128033819381 11.3704151342916706   T   T   T
  3.3759359019303816  4.5702385341885128 15.9023966012138853   T   T   T
  6.4371708623056616  6.1880938413275421  0.5124836760430426   T   T   T
  3.5525556068424327  5.6170624560493154  0.5324893947481658   T   T   T
  6.6783546584372173  2.3001214463881543  4.0687526005916137   T   T   T
  2.1777438480093032  1.6479333463650312  4.1125051528170058   T   T   T
  4.7385146700018428  6.4645211755145739  5.0903145944402839   T   T   T
  1.8409144837369589  5.8131715566719944  5.0536584368955202   T   T   T
  4.9347865858629643  2.5339199900772682  8.6313635474899950   T   T   T
  7.5307147306232487  5.9018360372856682  9.6107789605702258   T   T   T
  0.4841518215682231  1.8341309212568000  8.6840617043125388   T   T   T
  3.0229018774080019  6.6322056018647988  9.7173491364000828   T   T   T
  6.0621420476471730  1.9630072030901460 13.1643341412037316   T   T   T
  3.2182607957412626  2.6305390182306438 13.1689503131257695   T   T   T
  5.7538582063854280  6.1402301573200999 14.1046239618069578   T   T   T
  1.2755170155080982  6.7318706127259542 14.2278032388136584   T   T   T
  4.3653457802909257  1.9154932989775479 17.7058270014918016   T   T   T
  1.5122187041143114  2.5996200544627435 17.7828990943624525   T   T   T
  5.1223895776921236  5.3156277225522564  0.8308420074219617   T   T   T
  6.3616097236674722  7.5314695260255311  1.2980903756825830   T   T   T
  4.3003977388694121  1.4756997707196851  0.9451762022181579   T   T   T
  3.2320235399131656  7.0009266246456017  1.0918471045230298   T   T   T
  2.8498382937471001  4.4951656546567031  1.3233488743722013   T   T   T
  7.0533067008185082  3.5332034589488259  3.1891181871031140   T   T   T
  1.0028251740901526  2.4326766137336038  1.0337951161571048   T   T   T
  0.2682294968596675  5.4269791484987726  1.1190537559760338   T   T   T
  5.5077391772237210  1.5168987932421167  3.5729209383675475   T   T   T
  4.9857571672185212  6.8377826403960835  3.6356446507865554   T   T   T
  2.7680884399847789  0.5275879785383879  3.2270235478051998   T   T   T
  2.3561168352457367  3.0463037959767121  3.5498478460013851   T   T   T
  1.5074842478356356  5.7259264073596743  3.5330613607631882   T   T   T
  6.6184127289840609  2.6836537633638482  5.5480221666388552   T   T   T
  5.8983082462688339  5.6836046991817106  5.7087942339598268   T   T   T
  0.5860597610559818  1.2576466101741255  3.9105583569956694   T   T   T
  3.4357614932947755  5.5262570975496121  5.1966130974808378   T   T   T
  4.5317880542821900  7.7197992655903205  5.9963987330803237   T   T   T
  2.5478055784396503  1.5832035097830528  5.5816706385687587   T   T   T
  1.5498623786024328  7.1868296446982738  5.6175031862058749   T   T   T
  1.1665026698975480  4.6699192648348014  5.8191431121449479   T   T   T
  7.1581384243282269  5.7123943011558325  8.0908754076800875   T   T   T
  5.3227429202240550  3.6978123410550756  7.6727653384275136   T   T   T
  6.2338287176645766  1.5091945082932492  8.5980131820988053   T   T   T
  3.8416260328530281  1.6360821033361395  8.1420008165983919   T   T   T
  3.3359510778852810  7.0432433650723700  8.2556958156934090   T   T   T
  0.9587933479197986  0.6572261683720975  7.7824176841699213   T   T   T
  7.2405378090159100  7.3506930267209549  9.9324553954998649   T   T   T
  0.6734173544668512  3.1989060204614628  8.0469098344914975   T   T   T
  6.8350719550951338  4.8551409825569856 10.4637049251393002   T   T   T
  4.8297412874107186  3.0209775840608870 10.0677494012262585   T   T   T
  4.1742121199588382  5.7712646516309096 10.2061207649072561   T   T   T
  1.7494176736606701  5.6155429818188907  9.7152952442105693   T   T   T
  2.7152902183344305  7.8439029132316493 10.5876811859856588   T   T   T
  0.9167077752004549  1.7719472439872375 10.1272260938196919   T   T   T
  6.7062251138801479  0.8506434624255089 12.3514333745433404   T   T   T
  6.2235480797523124  3.3709744408872289 12.5682174700019562   T   T   T
  5.4136333648493951  5.9682957177540343 12.6316240164337259   T   T   T
  3.6175603208133729  3.8621984762042558 12.2673710618897935   T   T   T
  4.4855642918650460  1.6286924637171249 13.1216949771870972   T   T   T
  7.3362597669550951  5.7081623358386713 14.3463994589161636   T   T   T
  2.0410005534825570  1.8664848025157159 12.6777232857453832   T   T   T
  6.4892728352328080  1.9972401012336047 14.6462941139361433   T   T   T
  1.4020580773122695  7.0968424468241400 12.7556827453559549   T   T   T
  5.5925987579007792  7.5411682141010106 14.6235263126190986   T   T   T
  5.1205015600715305  5.0321178129183624 14.9901280983523826   T   T   T
  3.0744880189080521  3.1246875839621611 14.6195771198516375   T   T   T
  2.4061743218750591  5.8769468300062586 14.7403264178169788   T   T   T
  7.6471245522515305  1.8902186361555193 17.2149676824954874   T   T   T
  6.9602402087154767  6.7986539372021344 17.2584497560415855   T   T   T
  1.0012153038283538  7.9487385252343925 15.1340099451404022   T   T   T
  4.9896639262435256  0.7571480718365035 16.9362621501136736   T   T   T
  4.6382778485685598  3.2876300143247175 17.0504655567190326   T   T   T
  3.7143715801644994  5.9411508423806492 17.2837875980383977   T   T   T
  1.7195485100599062  3.8922602504274866 16.9323969941239660   T   T   T
  2.7687392908779387  1.6194923880858305 17.5671604725599266   T   T   T
