Ca Mn V  P  O 
 1.0000000000000000
     4.8571119999999999    0.0208110000000000    0.0286000000000000
     0.1640390000000000    8.1473809999999993    0.0085250000000000
     0.3946810000000000   -0.3569800000000000   13.3682569999999998
 Ca  Mn  V   P   O  
   2   2   2   8  28
Cartesian
  4.3831396016076667  7.4634353355564329  4.9931968165284388
  2.1520970813127134  7.2747034334520482 11.6630553202773442
  0.9317860536743635 -0.1845131019659961  8.4151366401688072
  3.1629376851919604  0.0043948942096549  1.7453428921858751
  2.1461583050929143  3.7126399496690254 11.5527286398266966
  4.3772244107998324  3.9014768324212761  4.8828887998906243
  0.8504311740877757  1.4908042085465452  3.2579460410123819
  3.4763958408990083  1.3227937303507995  9.9563160044195183
  0.8714290257818232  6.2376260765941840  0.7683124959832680
  3.4973107486550434  6.0695186903272296  7.4667874199517748
  1.8974538570826369  2.0374349868629165  5.9651979428847044
  4.5235125312514937  1.8694186974796487 12.6636264206072688
  1.9595490701167051  5.5212745583807701  3.4080709246259886
  4.5855632111950602  5.3532444159226964 10.1065325091223457
  3.3402039904360112  2.2600793524575571  5.4931639505584515
  1.1091862590046535  2.0712361137037085 12.1630630039166565
  3.5780761743865006  5.3390276075586680  6.1387365800437239
  1.3470017522513742  5.1501636957330534 12.8085328608698283
  4.6925436260688063  0.3779157272640197  3.0215947935567806
  2.4613799909947560  0.1890670531928248  9.6914786355312472
  0.2799806200775615  2.8828833907348437  3.2732754223186098
  2.9059872948687597  2.7148974044076377  9.9715741111118419
  0.6637831936451487  5.5395129495203728  4.2518278552294211
  3.2898119435019120  5.3714695754660999 10.9503126800562125
  1.0393577014475499  3.2964385155157121  6.0139211652566997
  3.6654877103396446  3.1284734201287852 12.7122675117665693
  1.2274636267694072  1.0483453894135939  4.7983170105619379
  3.8535511222061065  0.8803615514849620 11.4966877474364519
  1.4878350137558292  5.2880945907664909  1.8740179061636557
  4.1138432913852387  5.1200589893748729  8.5724673907919549
  1.7532994143801970  7.5113153130273655  0.6391230136834886
  4.3790889267591577  7.3432402882598842  7.3374883511522508
  2.1114588606097935  1.4331915305014009  2.4073978635063811
  4.7373516531652164  1.2651340527917829  9.1056561344174387
  2.6417724766529194  6.8951056004998179  3.5056771359294712
  5.2677370233299134  6.7270984090390922 10.2041959664454058
  2.8675445803670527  4.3501211892329525  3.6735325471604781
  0.6365031847176256  4.1613049343115245 10.3433028715237061
  4.0985737307938166  1.3227405706834945  0.4946202759185345
  1.8673602202906738  1.1337924368749241  7.1644675707760550
  4.2727649449271539  6.5952755452005167  1.1234929701816632
  2.0415496528041461  6.4063219882276741  7.7935128363215425
