Ca   V    O                             
   1.00000000000000     
     8.7648772540388507   -0.0073673194193622   -0.0011585348416174
     2.9203639183020700   14.0978795655538995    0.3533225103718960
     2.9386839791321600   -0.3658864222833010   14.0499322420727992
   Ca   V    O 
    11    48    96
Direct
  0.2126118255634233  0.5523989525331501  0.5084401011383179
  0.1967198852043348  0.0139097442313234  0.4469823375638148
  0.2311834947057465  0.9357327334482892  0.9863440184652114
  0.1978365176070208  0.5095801694116818  0.9471815877266702
  0.5293227047965958  0.0134802614770807  0.4474016307270764
  0.4873755897613139  0.0806617833124756  0.0113532993199647
  0.5365554132119782  0.5005241367937528  0.9415433801350437
  0.8628324687990941  0.0126616523758184  0.4487019481826362
  0.8550359307789022  0.9348383424803024  0.9873771043246543
  0.7824332248523772  0.5521008658525651  0.5100520723188402
  0.8616994171019559  0.5160510755698158  0.9480090737404250
  0.2421008046115079  0.0920642937268986  0.2392502070403638
  0.2194292098928683  0.0899767145318826  0.7983787986605657
  0.2191222336942690  0.5971659572529406  0.2832398927251573
  0.2423784215236242  0.5863791908875007  0.7364173189752852
  0.5735363869870937  0.0918860584416909  0.2388327677853670
  0.5515977598732185  0.0936592346328666  0.7887686164407842
  0.5591512427463307  0.5963713671937516  0.2891329108935043
  0.5756001545669456  0.5879175970308856  0.7381073021178974
  0.9040063847330821  0.0893308677811259  0.2387046606000127
  0.8971978316035707  0.0913527650743658  0.7960211056309344
  0.8913310054909918  0.5994507719227420  0.2831814889251419
  0.9079447679616728  0.5878198003865729  0.7382507183367096
  0.0625792611325487  0.2600569717326959  0.0989232304716950
  0.0877136723584700  0.2025371462020443  0.5984791520674000
  0.0871064098432631  0.7155535427062077  0.0916878274840574
  0.0594254944482587  0.7630442038975506  0.5904900629682908
  0.3887539972730653  0.2768278834075761  0.0975782028003879
  0.4127868750734015  0.2026450152514838  0.5970050527237346
  0.4156211265737302  0.7097434743389597  0.0945906238782266
  0.4020207860711936  0.7553841150348121  0.5892300059331740
  0.7333538402999629  0.2636825710450044  0.0967357383464741
  0.7430804942915864  0.2044927031424031  0.6010529567960259
  0.7441440395044372  0.7135110300679934  0.0936537139186097
  0.7403051733683366  0.7630235536661433  0.5898660695260080
  0.2985941476320964  0.2473123841597304  0.4075282179153152
  0.2795595889048255  0.2867285142470714  0.9078277436586096
  0.2876439228676294  0.7873322883279553  0.4055176721493930
  0.3013418691855384  0.7350229646558326  0.9063382534855026
  0.6329876693487375  0.2449704753008343  0.4099320111477056
  0.6265278323137982  0.2823642543633438  0.9075437482415509
  0.6156438153677294  0.7875087695456566  0.4060863863074039
  0.6292865320228721  0.7410086344390771  0.9095599781392035
  0.9637046675461616  0.2403307993475042  0.4131376142175464
  0.9563817152196877  0.2882162406041803  0.9098474996705610
  0.9550359479430227  0.7852098842674862  0.4049420971623202
  0.9731000725481501  0.7350900330255045  0.9067500334666894
  0.1129563929935929  0.4151376801198157  0.2666288190258815
  0.1438258083611255  0.3985499992321438  0.7131986322070399
  0.1470832824518177  0.9066820689660587  0.2166189663281080
  0.1304273899349328  0.9060392240487662  0.7558946947853074
  0.4620451644407538  0.4169733822083140  0.2623866720071241
  0.4793453887612394  0.3994522253855872  0.7127119646042488
  0.4781472690942314  0.9055930468749004  0.2095777452318161
  0.4666249129384294  0.9041302355548190  0.7547493795758184
  0.7959166535426510  0.4124485905508856  0.2647612492932181
  0.8153368033985064  0.3962182963625567  0.7130926045030139
  0.8075424961817859  0.9037121778227102  0.2165973818455724
  0.7897466437606968  0.9097091882399786  0.7628244419126540
  0.2916208093598558  0.3477075158477952  0.3300323813955829
  0.2993695689407753  0.3563415766247142  0.7954847968214029
  0.3000654732177412  0.8600686791152126  0.2945058305386754
  0.2946209183576926  0.8464052234728086  0.8292831723773662
  0.6198508927919270  0.3470165373626694  0.3306697855830393
  0.6314733456809354  0.3556258490201037  0.7967549663796664
  0.6323932427436958  0.8587531155014441  0.2936365358901497
  0.6264370039670182  0.8419512631305285  0.8251480199231348
  0.9579034286201811  0.3453044663549025  0.3331422921756916
  0.9654495968294697  0.3557193469178176  0.7956535637710080
  0.9667039578605775  0.8589364625702228  0.2931747024859664
  0.9588592099707296  0.8451600547415469  0.8295887078640996
  0.1797351961416279  0.1707646301757271  0.3501942381294555
  0.1604774815499430  0.2046886936967375  0.8643175382457710
  0.1622810305610149  0.7075533517653733  0.3583753454851983
  0.1784805078269559  0.6700528198966081  0.8430094734316081
  0.5079612518358194  0.1708547080872820  0.3509454893949747
  0.4914092057529939  0.2033423083943392  0.8683575458506526
  0.4948924680002527  0.7085390730744752  0.3593684396243417
  0.5140696398434325  0.6716806657487440  0.8442031657490205
  0.8416429898848383  0.1706161005627016  0.3495458021810495
  0.8300726810141429  0.2047779121066320  0.8654049164643599
  0.8268451368017373  0.7091442037452415  0.3583365307231439
  0.8435329367048234  0.6715359055800687  0.8466285143600938
  0.1822456420121543  0.3295307418174322  0.1634897034036366
  0.2060638072853501  0.2864956350729606  0.6443567788759930
  0.2082947300319953  0.7968373968197913  0.1387517851196400
  0.1932969488243234  0.8209885268867716  0.6570519528415500
  0.5224934550200740  0.3306966051134758  0.1590993099979431
  0.5392683468885614  0.2860025037213604  0.6445596965228431
  0.5380891453675722  0.7932356993105654  0.1391467344056126
  0.5233558006821762  0.8207975656637818  0.6553652030751503
  0.8534960187659386  0.3268822555336953  0.1638913469122447
  0.8745277013685646  0.2841639106919939  0.6440993040822303
  0.8722693912851527  0.7948108566443367  0.1362660987898151
  0.8556417697313552  0.8246847195280261  0.6599406746822873
  0.0704222093055032  0.1555265471832244  0.1800781017744257
  0.0679122000125974  0.1358697193994190  0.7133987899830373
  0.0703604204472236  0.6440195759890029  0.2019110905897510
  0.0773424377681733  0.6494378135171858  0.6703305722257552
  0.4059684694961705  0.1584195995977539  0.1744770825499747
  0.4000240579612863  0.1373842033812616  0.7132192037973730
  0.4008304608152088  0.6402290793137627  0.2060515177218866
  0.4092991595250579  0.6496780011483864  0.6739597350534334
  0.7383497083339327  0.1580208133698661  0.1788875784781142
  0.7351606588902183  0.1356867977766958  0.7169538099539963
  0.7322527128500959  0.6432427906978422  0.2046022390932086
  0.7438305045753703  0.6494001111644302  0.6700731770504376
  0.0750482524666635  0.0185753273181033  0.3090149234579079
  0.0570557268136789  0.0167672771613406  0.8694149291065216
  0.0500246283807596  0.5318680381934114  0.3608561729568024
  0.0740620808778750  0.5156451604835673  0.8088641581757338
  0.4099154837982700  0.0173501160630062  0.3061148089378625
  0.3869581107584310  0.0244487471780418  0.8702850319707889
  0.3845049119545824  0.5318658674367472  0.3566468185395382
  0.4089813908205318  0.5152706784813303  0.8081406056005247
  0.7390788625651892  0.0171741391210846  0.3091433673442300
  0.7197549083178099  0.0226557582656054  0.8692564137733179
  0.7260741344674730  0.5307738804374055  0.3577199312785391
  0.7433855844417540  0.5153099234294420  0.8087407910177028
  0.2736659081991036  0.2085002052945524  0.0242287725861301
  0.2995577996343597  0.1274509527392191  0.5255144816604921
  0.2983418874985256  0.6372726635508331  0.0176803980058869
  0.2741773702945436  0.7008396116192246  0.5182015101237395
  0.6024772163447956  0.2091460763140542  0.0250333960189872
  0.6295832412711188  0.1298160936213625  0.5255669913013494
  0.6293141615448251  0.6372230511213129  0.0194814196709457
  0.6141617338059562  0.7007787596381376  0.5180405438381070
  0.9395216676402846  0.2117425771106977  0.0233030813728043
  0.9656755871662037  0.1304961735468503  0.5236503118998992
  0.9672062324303574  0.6392073354492769  0.0177011000095185
  0.9470135275450955  0.6946518292176448  0.5164885236999983
  0.2847176905828257  0.4790927256521754  0.2101483535297851
  0.3052202789321358  0.4725999321800689  0.6487151701160526
  0.3128030733035202  0.9792718870383712  0.1389494027142009
  0.2882085475493450  0.9790807534522752  0.7109095463214277
  0.6222058714766716  0.4830362648280379  0.2080471312412819
  0.6480267913195401  0.4723547951218679  0.6502171668179606
  0.6439961350651198  0.9781987085492583  0.1396841127479412
  0.6189390000458898  0.9806300745580441  0.7082528463616263
  0.9528027338046502  0.4852178222687319  0.2045809797712679
  0.9752087080702333  0.4728116572832125  0.6481326582315162
  0.9769820599453494  0.9735658905022513  0.1454627331728532
  0.9551337289579070  0.9790553949895873  0.7115576620714582
  0.0953291790151055  0.2864562767759438  0.4859145490859544
  0.0704847613023134  0.3690231761931763  0.9721557848348308
  0.0701348157240888  0.8635723192190378  0.4734890427000280
  0.0897855015476959  0.8058000054478640  0.9799211463668204
  0.4242230897163412  0.2873201766444757  0.4853665401922234
  0.4014079347423296  0.3663949717938840  0.9743272895876485
  0.4039684445268091  0.8646437577388116  0.4726983250894193
  0.4213737049456845  0.7968834490837422  0.9812627036381627
  0.7579156074922380  0.2871446733566472  0.4873474339610638
  0.7397099591761206  0.3663219584982964  0.9721545763762899
  0.7397952769356365  0.8632795419042368  0.4734100538303686
  0.7588774871632488  0.7969460558192145  0.9787770324993594
 
             NaN             NaN             NaN
             NaN             NaN             NaN
             NaN             NaN             NaN
             NaN             NaN             NaN
             NaN             NaN             NaN
             NaN             NaN             NaN
             NaN             NaN             NaN
             NaN             NaN             NaN
             NaN             NaN             NaN
             NaN             NaN             NaN
             NaN             NaN             NaN
             NaN             NaN             NaN
             NaN             NaN             NaN
             NaN             NaN             NaN
             NaN             NaN             NaN
             NaN             NaN             NaN
             NaN             NaN             NaN
             NaN             NaN             NaN
             NaN             NaN             NaN
             NaN             NaN             NaN
             NaN             NaN             NaN
             NaN             NaN             NaN
             NaN             NaN             NaN
             NaN             NaN             NaN
             NaN             NaN             NaN
             NaN             NaN             NaN
             NaN             NaN             NaN
             NaN             NaN             NaN
             NaN             NaN             NaN
             NaN             NaN             NaN
             NaN             NaN             NaN
             NaN             NaN             NaN
             NaN             NaN             NaN
             NaN             NaN             NaN
             NaN             NaN             NaN
             NaN             NaN             NaN
             NaN             NaN             NaN
             NaN             NaN             NaN
             NaN             NaN             NaN
             NaN             NaN             NaN
             NaN             NaN             NaN
             NaN             NaN             NaN
             NaN             NaN             NaN
             NaN             NaN             NaN
             NaN             NaN             NaN
             NaN             NaN             NaN
             NaN             NaN             NaN
             NaN             NaN             NaN
             NaN             NaN             NaN
             NaN             NaN             NaN
             NaN             NaN             NaN
             NaN             NaN             NaN
             NaN             NaN             NaN
             NaN             NaN             NaN
             NaN             NaN             NaN
             NaN             NaN             NaN
             NaN             NaN             NaN
             NaN             NaN             NaN
             NaN             NaN             NaN
             NaN             NaN             NaN
             NaN             NaN             NaN
             NaN             NaN             NaN
             NaN             NaN             NaN
             NaN             NaN             NaN
             NaN             NaN             NaN
             NaN             NaN             NaN
             NaN             NaN             NaN
             NaN             NaN             NaN
             NaN             NaN             NaN
             NaN             NaN             NaN
             NaN             NaN             NaN
             NaN             NaN             NaN
             NaN             NaN             NaN
             NaN             NaN             NaN
             NaN             NaN             NaN
             NaN             NaN             NaN
             NaN             NaN             NaN
             NaN             NaN             NaN
             NaN             NaN             NaN
             NaN             NaN             NaN
             NaN             NaN             NaN
             NaN             NaN             NaN
             NaN             NaN             NaN
             NaN             NaN             NaN
             NaN             NaN             NaN
             NaN             NaN             NaN
             NaN             NaN             NaN
             NaN             NaN             NaN
             NaN             NaN             NaN
             NaN             NaN             NaN
             NaN             NaN             NaN
             NaN             NaN             NaN
             NaN             NaN             NaN
             NaN             NaN             NaN
             NaN             NaN             NaN
             NaN             NaN             NaN
             NaN             NaN             NaN
             NaN             NaN             NaN
             NaN             NaN             NaN
             NaN             NaN             NaN
             NaN             NaN             NaN
             NaN             NaN             NaN
             NaN             NaN             NaN
             NaN             NaN             NaN
             NaN             NaN             NaN
             NaN             NaN             NaN
             NaN             NaN             NaN
             NaN             NaN             NaN
             NaN             NaN             NaN
             NaN             NaN             NaN
             NaN             NaN             NaN
             NaN             NaN             NaN
             NaN             NaN             NaN
             NaN             NaN             NaN
             NaN             NaN             NaN
             NaN             NaN             NaN
             NaN             NaN             NaN
             NaN             NaN             NaN
             NaN             NaN             NaN
             NaN             NaN             NaN
             NaN             NaN             NaN
             NaN             NaN             NaN
             NaN             NaN             NaN
             NaN             NaN             NaN
             NaN             NaN             NaN
             NaN             NaN             NaN
             NaN             NaN             NaN
             NaN             NaN             NaN
             NaN             NaN             NaN
             NaN             NaN             NaN
             NaN             NaN             NaN
             NaN             NaN             NaN
             NaN             NaN             NaN
             NaN             NaN             NaN
             NaN             NaN             NaN
             NaN             NaN             NaN
             NaN             NaN             NaN
             NaN             NaN             NaN
             NaN             NaN             NaN
             NaN             NaN             NaN
             NaN             NaN             NaN
             NaN             NaN             NaN
             NaN             NaN             NaN
             NaN             NaN             NaN
             NaN             NaN             NaN
             NaN             NaN             NaN
             NaN             NaN             NaN
             NaN             NaN             NaN
             NaN             NaN             NaN
             NaN             NaN             NaN
             NaN             NaN             NaN
             NaN             NaN             NaN
             NaN             NaN             NaN
             NaN             NaN             NaN
             NaN             NaN             NaN
