Ca   V    O                             
   1.00000000000000     
     8.7648772540388507   -0.0073673194193622   -0.0011585348416174
     2.9203639183020700   14.0978795655538995    0.3533225103718960
     2.9386839791321600   -0.3658864222833010   14.0499322420727992
   Ca   V    O 
    11    48    96
Direct
  0.2126135798655397  0.5523985047846054  0.5084408197654611
  0.1967174997035741  0.0139251807586476  0.4469851061625079
  0.2311972034691934  0.9357379890579196  0.9863397378847338
  0.1978184298370849  0.5095987320438766  0.9472120574117184
  0.5293146045513879  0.0134845200119713  0.4474158079275483
  0.4873674514647064  0.0806628931294284  0.0113651313028882
  0.5365855684776761  0.5004493932189078  0.9414906180004081
  0.8628268104116756  0.0126733146991853  0.4487063598149490
  0.8550371910872130  0.9347874344317901  0.9873616655524700
  0.7823835079412191  0.5520874873884765  0.5100426274747960
  0.8617028638767152  0.5160659418633244  0.9480182701254520
  0.2421184772147669  0.0920792094214562  0.2392466274842064
  0.2194530965613950  0.0899691277103543  0.7983632499966049
  0.2191074112740878  0.5971667496689719  0.2832344688100719
  0.2424130005134728  0.5863770015139309  0.7364094801138279
  0.5735421781989771  0.0919015207921774  0.2388328378014606
  0.5516120032742649  0.0936618356562704  0.7887642392624912
  0.5591469523992387  0.5963801598493532  0.2891411822841405
  0.5755913188271720  0.5879183575537112  0.7380883939052438
  0.9039772466332678  0.0893511599203123  0.2387069342165375
  0.8971953678806699  0.0913711506590857  0.7960063121301886
  0.8913359553011588  0.5994518854867081  0.2831784771881516
  0.9079348087888306  0.5878237904546566  0.7382448191104416
  0.0625825908689848  0.2600499948616886  0.0989265731602060
  0.0877117866333919  0.2025339261913928  0.5984864663819778
  0.0871096759509697  0.7155648546816167  0.0916980932281533
  0.0594406614898588  0.7630444005599060  0.5904779061642458
  0.3887399460882719  0.2768276032433761  0.0975747697789657
  0.4128007954582245  0.2026458732463752  0.5969969638825106
  0.4156082909593337  0.7097558223119123  0.0946055242911896
  0.4020206517589529  0.7553784413676468  0.5892190549522098
  0.7333691029224525  0.2636892238703084  0.0967267806433014
  0.7430872772928794  0.2044813051322052  0.6010700781100127
  0.7441208619275983  0.7135242445782666  0.0936684608304432
  0.7403178309668164  0.7630165570561047  0.5898499138934596
  0.2986248017787645  0.2472994592937070  0.4075265580244007
  0.2795418472730731  0.2867303438034767  0.9078381572879266
  0.2876469136452116  0.7873331363595923  0.4055147166136095
  0.3013494629172584  0.7350243263938410  0.9063392392320040
  0.6329715904429349  0.2449868494729017  0.4099189600092714
  0.6265207660718062  0.2823536284240191  0.9075299395305834
  0.6156313497046497  0.7875012109214339  0.4060886493402549
  0.6292805590741821  0.7410113721475966  0.9095507259572813
  0.9636948368744314  0.2403293504793211  0.4131267261526688
  0.9564120395875406  0.2881979633618315  0.9098528184010419
  0.9550333212829969  0.7852117438578716  0.4049486950815790
  0.9730991258813617  0.7350942529826696  0.9067482361672958
  0.1129381008874546  0.4151295035136044  0.2666426859424647
  0.1438600972843531  0.3985416306497029  0.7131760472837598
  0.1471029392789163  0.9066820790435912  0.2166112726024565
  0.1304522630177374  0.9060264027276403  0.7558971123247602
  0.4620336385043871  0.4169653697307893  0.2623941127386686
  0.4793363795226568  0.3994587106479415  0.7127056643921605
  0.4781337971119370  0.9055947485870064  0.2095779603033066
  0.4666211643766047  0.9041289915043151  0.7547555540110054
  0.7959318375176920  0.4124272641692954  0.2647798794116625
  0.8153305290206134  0.3962127633765249  0.7130921260960292
  0.8075310359720547  0.9037111424451822  0.2165993867131846
  0.7897335997017052  0.9097030291439978  0.7628316659616559
  0.2916205053531655  0.3477286660573355  0.3300338908546365
  0.2993735565083000  0.3563431301011803  0.7954848828482142
  0.3000484690799823  0.8601101458737119  0.2944926756957287
  0.2946472456930778  0.8464097702872593  0.8292631632663543
  0.6198449836933904  0.3470151196327365  0.3306844004055662
  0.6314592316639605  0.3556336214350964  0.7967577239795460
  0.6323810660377305  0.8587787854500206  0.2936351731225102
  0.6264375227589767  0.8419468077383954  0.8251288785703323
  0.9578789964262668  0.3453080422609460  0.3331511054232834
  0.9654146453886057  0.3557278466321776  0.7956500397479260
  0.9666971780375064  0.8589585819213852  0.2931790790859878
  0.9588473042728509  0.8451633529278411  0.8295801303052599
  0.1797312025889681  0.1707781111574391  0.3501898466888349
  0.1604934198208383  0.2046868083732321  0.8643111662481431
  0.1622752866250750  0.7075402833022721  0.3583826441667810
  0.1784828231452309  0.6700292031037023  0.8430058248134529
  0.5079541420720020  0.1708773861367376  0.3509472712769437
  0.4913979479172141  0.2033207084030124  0.8683393792495977
  0.4948906318027966  0.7085234594496796  0.3593816732054123
  0.5140631392587167  0.6716817265285684  0.8442044844292838
  0.8416367670589011  0.1706303869674102  0.3495444338028406
  0.8300976643759199  0.2047874708765463  0.8654191744564912
  0.8268496458002161  0.7091338644511964  0.3583422764178152
  0.8435622457768943  0.6715110078525015  0.8466109512820736
  0.1822537932630439  0.3295280798277460  0.1634988292901838
  0.2060690180021751  0.2864947040482519  0.6443540147522526
  0.2082657519654489  0.7968393985551856  0.1387641077917934
  0.1932883964339496  0.8209831237134892  0.6570562080261055
  0.5224824801856300  0.3306981995068980  0.1590866914947924
  0.5392903946081660  0.2859946835372327  0.6445647258835265
  0.5380734353681191  0.7932444268545780  0.1391581491548735
  0.5233642500134081  0.8207811363308224  0.6553596103808985
  0.8534872233414745  0.3268875249197478  0.1638827883959095
  0.8745074912828770  0.2841707939007705  0.6440972660316930
  0.8722674658911060  0.7948211920113835  0.1362613264374275
  0.8556416451414250  0.8246802422878616  0.6599401562736560
  0.0703971348461749  0.1555380420248227  0.1800846988678657
  0.0679222870699050  0.1358664982271875  0.7133879853845926
  0.0703666231752038  0.6440253002153540  0.2019140393518910
  0.0773331754782518  0.6494200358686939  0.6703253584309934
  0.4059580659559359  0.1584216786581152  0.1744940851830705
  0.4000340814587275  0.1373867662336252  0.7132052459650637
  0.4008250432711264  0.6402278631792342  0.2060436767705554
  0.4092969431176599  0.6496445094007512  0.6739782020300851
  0.7383334363871228  0.1580296220059054  0.1788964945922302
  0.7351238919422300  0.1357068505689014  0.7169231757307415
  0.7322389412573855  0.6432358041887838  0.2046019722192511
  0.7438318788135803  0.6493701287658951  0.6700839379295829
  0.0750107025172895  0.0185842332944901  0.3090271797641009
  0.0570623459087685  0.0167555162808952  0.8694166331997479
  0.0500229349143808  0.5318681468071702  0.3608625060409949
  0.0740380355439214  0.5156337444139893  0.8089068404121988
  0.4099167369199392  0.0173557119767906  0.3061255229886939
  0.3869558480329189  0.0244536552665906  0.8702826618780861
  0.3844865560195743  0.5318635799166884  0.3566534553900595
  0.4089747311622318  0.5152439366782318  0.8081457641423881
  0.7390673941990897  0.0171739038469525  0.3091583180525461
  0.7197645430148754  0.0226484453449274  0.8692657017312584
  0.7260552197938352  0.5307694594519674  0.3577167582789826
  0.7434088492000370  0.5152738230813014  0.8087528719114658
  0.2736664030686455  0.2084928596619591  0.0242275892159540
  0.2995634224881343  0.1274705297352412  0.5255173038972458
  0.2983570762847876  0.6372787089714365  0.0176815498887279
  0.2741817251709975  0.7008163490839081  0.5181953190320954
  0.6024726098806639  0.2091386070743653  0.0250370895782552
  0.6295774018038927  0.1298369398027717  0.5255815014364842
  0.6292904657517724  0.6372063973428581  0.0194779179299616
  0.6141345772214777  0.7007725190455574  0.5180333532422523
  0.9395138312504230  0.2117432624613187  0.0232964528872301
  0.9656551597879854  0.1305174194734064  0.5236523581324732
  0.9671950414156996  0.6392068416203713  0.0177008240279761
  0.9470240564840466  0.6946220337392859  0.5164846129784948
  0.2847164051903732  0.4791023600983166  0.2101486042392509
  0.3052157639765696  0.4725906593236289  0.6487148747224083
  0.3127791565144733  0.9792831884597248  0.1389658905521287
  0.2881989848118138  0.9791139843953331  0.7108866298166063
  0.6222073659789800  0.4830360785253518  0.2080421528789458
  0.6480263184271209  0.4723496943127614  0.6502302765384158
  0.6439883992549511  0.9782033817666402  0.1397047264879490
  0.6189396001846745  0.9806500745634423  0.7082214551909090
  0.9528003846319706  0.4852291783389902  0.2045717352738876
  0.9751988584764817  0.4728092583974473  0.6481265250463721
  0.9769830052551853  0.9735767311233161  0.1454676383402145
  0.9551246489104486  0.9790651272714612  0.7115110540745704
  0.0952925331450274  0.2864881549425604  0.4859280908611154
  0.0704615069029870  0.3690519687409193  0.9721663161566312
  0.0701180320297041  0.8635744853075948  0.4734962268668923
  0.0897753211647725  0.8057871034367281  0.9799319013392065
  0.4242264949825554  0.2873239428030487  0.4853619387697705
  0.4013843891328150  0.3663913639667911  0.9743230496884934
  0.4039682959828426  0.8646415062235846  0.4727085064005294
  0.4213837217231529  0.7968863679358549  0.9812524342167563
  0.7578894098019688  0.2871489480570446  0.4873715361318744
  0.7397439477491545  0.3663051766415393  0.9721542263246619
  0.7397951150508604  0.8632740445557872  0.4734145957282081
  0.7588867973402600  0.7969511934954951  0.9787865649851852
 
             NaN             NaN             NaN
             NaN             NaN             NaN
             NaN             NaN             NaN
             NaN             NaN             NaN
             NaN             NaN             NaN
             NaN             NaN             NaN
             NaN             NaN             NaN
             NaN             NaN             NaN
             NaN             NaN             NaN
             NaN             NaN             NaN
             NaN             NaN             NaN
             NaN             NaN             NaN
             NaN             NaN             NaN
             NaN             NaN             NaN
             NaN             NaN             NaN
             NaN             NaN             NaN
             NaN             NaN             NaN
             NaN             NaN             NaN
             NaN             NaN             NaN
             NaN             NaN             NaN
             NaN             NaN             NaN
             NaN             NaN             NaN
             NaN             NaN             NaN
             NaN             NaN             NaN
             NaN             NaN             NaN
             NaN             NaN             NaN
             NaN             NaN             NaN
             NaN             NaN             NaN
             NaN             NaN             NaN
             NaN             NaN             NaN
             NaN             NaN             NaN
             NaN             NaN             NaN
             NaN             NaN             NaN
             NaN             NaN             NaN
             NaN             NaN             NaN
             NaN             NaN             NaN
             NaN             NaN             NaN
             NaN             NaN             NaN
             NaN             NaN             NaN
             NaN             NaN             NaN
             NaN             NaN             NaN
             NaN             NaN             NaN
             NaN             NaN             NaN
             NaN             NaN             NaN
             NaN             NaN             NaN
             NaN             NaN             NaN
             NaN             NaN             NaN
             NaN             NaN             NaN
             NaN             NaN             NaN
             NaN             NaN             NaN
             NaN             NaN             NaN
             NaN             NaN             NaN
             NaN             NaN             NaN
             NaN             NaN             NaN
             NaN             NaN             NaN
             NaN             NaN             NaN
             NaN             NaN             NaN
             NaN             NaN             NaN
             NaN             NaN             NaN
             NaN             NaN             NaN
             NaN             NaN             NaN
             NaN             NaN             NaN
             NaN             NaN             NaN
             NaN             NaN             NaN
             NaN             NaN             NaN
             NaN             NaN             NaN
             NaN             NaN             NaN
             NaN             NaN             NaN
             NaN             NaN             NaN
             NaN             NaN             NaN
             NaN             NaN             NaN
             NaN             NaN             NaN
             NaN             NaN             NaN
             NaN             NaN             NaN
             NaN             NaN             NaN
             NaN             NaN             NaN
             NaN             NaN             NaN
             NaN             NaN             NaN
             NaN             NaN             NaN
             NaN             NaN             NaN
             NaN             NaN             NaN
             NaN             NaN             NaN
             NaN             NaN             NaN
             NaN             NaN             NaN
             NaN             NaN             NaN
             NaN             NaN             NaN
             NaN             NaN             NaN
             NaN             NaN             NaN
             NaN             NaN             NaN
             NaN             NaN             NaN
             NaN             NaN             NaN
             NaN             NaN             NaN
             NaN             NaN             NaN
             NaN             NaN             NaN
             NaN             NaN             NaN
             NaN             NaN             NaN
             NaN             NaN             NaN
             NaN             NaN             NaN
             NaN             NaN             NaN
             NaN             NaN             NaN
             NaN             NaN             NaN
             NaN             NaN             NaN
             NaN             NaN             NaN
             NaN             NaN             NaN
             NaN             NaN             NaN
             NaN             NaN             NaN
             NaN             NaN             NaN
             NaN             NaN             NaN
             NaN             NaN             NaN
             NaN             NaN             NaN
             NaN             NaN             NaN
             NaN             NaN             NaN
             NaN             NaN             NaN
             NaN             NaN             NaN
             NaN             NaN             NaN
             NaN             NaN             NaN
             NaN             NaN             NaN
             NaN             NaN             NaN
             NaN             NaN             NaN
             NaN             NaN             NaN
             NaN             NaN             NaN
             NaN             NaN             NaN
             NaN             NaN             NaN
             NaN             NaN             NaN
             NaN             NaN             NaN
             NaN             NaN             NaN
             NaN             NaN             NaN
             NaN             NaN             NaN
             NaN             NaN             NaN
             NaN             NaN             NaN
             NaN             NaN             NaN
             NaN             NaN             NaN
             NaN             NaN             NaN
             NaN             NaN             NaN
             NaN             NaN             NaN
             NaN             NaN             NaN
             NaN             NaN             NaN
             NaN             NaN             NaN
             NaN             NaN             NaN
             NaN             NaN             NaN
             NaN             NaN             NaN
             NaN             NaN             NaN
             NaN             NaN             NaN
             NaN             NaN             NaN
             NaN             NaN             NaN
             NaN             NaN             NaN
             NaN             NaN             NaN
             NaN             NaN             NaN
             NaN             NaN             NaN
             NaN             NaN             NaN
             NaN             NaN             NaN
             NaN             NaN             NaN
             NaN             NaN             NaN
             NaN             NaN             NaN
             NaN             NaN             NaN
