Ca Mn P  O 
1.0
        8.2609643936         0.0000000000         0.0000000000
       -0.0000278030        14.9140815735         0.0000000000
        0.0000039651         3.7418235779         9.1934133205
   Ca   Mn    P    O
    7    8   16   56
Direct
     0.749659657         0.257320136         0.492483377
     0.749936700         0.007058704         0.994805992
     0.749936700         0.507058680         0.994805992
     0.749659657         0.757320166         0.492483377
     0.250100911         0.007045896         0.494820118
     0.250344485         0.257328987         0.992478311
     0.250344485         0.757328987         0.992478311
     0.749765992         0.257053316         0.993695080
     0.749765992         0.757053316         0.993695080
     0.749856949         0.007636031         0.492980331
     0.749856949         0.507636011         0.492980331
     0.250146568         0.007642967         0.992970228
     0.250146568         0.507642984         0.992970228
     0.250241637         0.257054716         0.493707836
     0.250241637         0.757054687         0.493707836
     0.997461915         0.165935442         0.784892797
     0.997461915         0.665935457         0.784892797
     0.498101592         0.348454446         0.701417565
     0.498101592         0.848454475         0.701417565
     0.011912369         0.454038858         0.283553630
     0.011912369         0.954038858         0.283553630
     0.510564327         0.060605142         0.203826457
     0.510564327         0.560605168         0.203826457
     0.988041461         0.454050601         0.783572972
     0.988041461         0.954050601         0.783572972
     0.489424169         0.060610134         0.703839362
     0.489424169         0.560610116         0.703839362
     0.002526429         0.165942565         0.284924060
     0.002526429         0.665942550         0.284924060
     0.501899481         0.348454922         0.201417282
     0.501899481         0.848454952         0.201417282
     0.155417398         0.157397240         0.869987607
     0.155417398         0.657397270         0.869987607
     0.008473342         0.226802200         0.622645736
     0.008473342         0.726802230         0.622645736
     0.347201079         0.330839485         0.625103295
     0.347201079         0.830839515         0.625103295
     0.847983658         0.185167208         0.860957086
     0.847983658         0.685167193         0.860957086
     0.544486403         0.458138883         0.187479749
     0.544486403         0.958138883         0.187479749
     0.509200871         0.285878152         0.863084972
     0.509200871         0.785878181         0.863084972
     0.160079986         0.398389548         0.365655184
     0.160079986         0.898389578         0.365655184
     0.009907178         0.474085867         0.120483682
     0.009907178         0.974085867         0.120483682
     0.654855847         0.357283711         0.614750743
     0.654855847         0.857283711         0.614750743
     0.849523067         0.418538123         0.359646916
     0.849523067         0.918538094         0.359646916
     0.348762006         0.096360832         0.126594648
     0.348762006         0.596360803         0.126594648
     0.455536366         0.458156496         0.687419474
     0.455536366         0.958156466         0.687419474
     0.508711874         0.041886099         0.366398454
     0.508711874         0.541886091         0.366398454
     0.659239531         0.115469992         0.121102281
     0.659239531         0.615469992         0.121102281
     0.839913130         0.398438156         0.865648985
     0.839913130         0.898438156         0.865648985
     0.990081429         0.474074513         0.620519519
     0.990081429         0.974074483         0.620519519
     0.046857253         0.055613212         0.302481502
     0.046857253         0.555613220         0.302481502
     0.150485873         0.418554306         0.859642923
     0.150485873         0.918554306         0.859642923
     0.651238620         0.096345440         0.626614451
     0.651238620         0.596345425         0.626614451
     0.844587147         0.157427192         0.370007306
     0.844587147         0.657427192         0.370007306
     0.491301537         0.041923147         0.866410375
     0.491301537         0.541923165         0.866410375
     0.340743333         0.115466826         0.621113241
     0.340743333         0.615466833         0.621113241
     0.991508186         0.226808399         0.122614823
     0.991508186         0.726808429         0.122614823
     0.953183770         0.055627443         0.802462935
     0.953183770         0.555627465         0.802462935
     0.652791977         0.330835879         0.125130430
     0.652791977         0.830835879         0.125130430
     0.152024552         0.185168743         0.360976398
     0.152024552         0.685168743         0.360976398
     0.490767479         0.285914451         0.363054276
     0.490767479         0.785914421         0.363054276
     0.345152587         0.357264817         0.114787370
     0.345152587         0.857264817         0.114787370
