Ca Mn O 
 1.0000000000000000
     1.5493049999999999   -2.6834759999999989    0.0000000000000000
     1.5493049999999999    2.6834759999999989    0.0000000000000000
     0.0000000000000000    0.0000000000000000   10.8981320000000004
 Ca  Mn  O  
   2   2   4
Cartesian
  1.5493049999999999 -0.8944926296911693  2.7245329999999996
  1.5493049999999999  0.8944926296911693  8.1735989999999994
  0.0000000000000000  0.0000000000000000  5.4490660000000002
  0.0000000000000000  0.0000000000000000 -0.0000000000000030
  1.5493049999999999  0.8944929160524765  4.1744960803506324
  1.5493049999999999 -0.8944929160524764  6.7236359196493627
  1.5493049999999999 -0.8944929160524764  9.6235620803506325
  1.5493049999999999  0.8944929160524764  1.2745699196493652
