Ca2 Mn2 O4
1.0
   1.5493049999999999   -2.6834759999999989    0.0000000000000000
   1.5493049999999999    2.6834759999999989    0.0000000000000000
   0.0000000000000000    0.0000000000000000   10.8981320000000004
Ca Mn O
2 2 4
direct
   0.6666670000000000    0.3333330000000000    0.2500000000000000 Ca
   0.3333330000000000    0.6666670000000000    0.7500000000000000 Ca
   0.0000000000000000    0.0000000000000000    0.5000000000000000 Mn
   0.0000000000000000    0.0000000000000000    0.0000000000000000 Mn
   0.3333330000000000    0.6666670000000000    0.4016960000000000 O
   0.6666670000000000    0.3333330000000000    0.5983039999999999 O
   0.6666670000000000    0.3333330000000000    0.9016959999999991 O
   0.3333330000000000    0.6666670000000000    0.0983040000000000 O
