Ca V  S  O  F                           
   1.00000000000000     
     7.1725635528999998    0.0000000000000000    0.0000000000000000
     0.3049279942000000    7.8739067344000002    0.0000000000000000
     0.3193050896000000    0.2618833392000000   10.7378266451000002
   Ca   V    S    O    F 
     3     4     4    16    12
Selective dynamics
Direct
  0.8035715042062257  0.8031855018425663  0.7248205984188163   T   T   T
  0.1399788041514288  0.1503741550649623  0.2570658900180222   T   T   T
  0.6810611629935138  0.8199121571211104  0.2785998644147824   T   T   T
  0.0374995601623263  0.5035836340772742  0.4964828259751842   T   T   T
  0.9695591171494178  0.9812182405774369  0.9889119442166826   T   T   T
  0.5305245591881325  0.5204689217481381  0.5050145611844469   T   T   T
  0.4698404029739952  0.9743564905728279  0.9906256913984648   T   T   T
  0.2297801096004803  0.3149194495522886  0.9982351478430029   T   T   T
  0.2472648224872451  0.8488769077785870  0.5003278591263650   T   T   T
  0.7816044935334435  0.1696557403644128  0.5015429310958431   T   T   T
  0.7431967395993404  0.6397135945670828  0.0332086707039642   T   T   T
  0.0612920530485213  0.1964397034665174  0.0345537899916383   T   T   T
  0.1277311689221685  0.7195248049505667  0.4366802771067597   T   T   T
  0.1726181291676707  0.4432895409559914  0.9100502825383719   T   T   T
  0.1424344221476732  0.9170155817211325  0.6057581766636263   T   T   T
  0.2904020553210915  0.3646459345649390  0.1201874441641961   T   T   T
  0.2982633210831471  0.9750724025166924  0.4022814031776759   T   T   T
  0.3807425104473411  0.1957101342194960  0.9393649751989670   T   T   T
  0.4270469195273526  0.7588607030829455  0.5397381499294160   T   T   T
  0.6111969445376748  0.2862665444062100  0.4776038289327245   T   T   T
  0.5778708812249573  0.7631856604879387  0.0726896269599141   T   T   T
  0.7281559408148834  0.0382678711976487  0.5920714826613400   T   T   T
  0.6845392201835507  0.5074120424431358  0.9565217475667647   T   T   T
  0.8404318419004323  0.0924792225088494  0.3805875340575316   T   T   T
  0.8290546178322319  0.5951916442652890  0.1523119540826406   T   T   T
  0.9318530787363619  0.2753195901063816  0.5497872049953606   T   T   T
  0.8763231071998178  0.7529630560170457  0.9531321725235062   T   T   T
  0.9567006147439946  0.0175778007025645  0.8206007701597389   T   T   T
  0.9914942410247525  0.5854586956912591  0.6546632931322657   T   T   T
  0.2896173536053491  0.4273132143231992  0.5377888686358023   T   T   T
  0.2220685044265541  0.8859430378109704  0.9847752708980261   T   T   T
  0.4249589783680656  0.0225730497338383  0.1648779251314755   T   T   T
  0.4939604404544295  0.5877125352957809  0.3400998359305423   T   T   T
  0.6145242417885214  0.5445542679837149  0.6617403250624201   T   T   T
  0.5374298890604559  0.8915519838875172  0.8346768304781964   T   T   T
  0.7153009289739211  0.0726957463183933  0.0069591932130530   T   T   T
  0.7860401162101305  0.6121232025517593  0.4511892577330861   T   T   T
  0.0703360422058203  0.4053722319738717  0.3417074282800775   T   T   T
  0.9504681765469156  0.9354077412575034  0.1701216542247104   T   T   T
 
             NaN             NaN             NaN
             NaN             NaN             NaN
             NaN             NaN             NaN
             NaN             NaN             NaN
             NaN             NaN             NaN
             NaN             NaN             NaN
             NaN             NaN             NaN
             NaN             NaN             NaN
             NaN             NaN             NaN
             NaN             NaN             NaN
             NaN             NaN             NaN
             NaN             NaN             NaN
             NaN             NaN             NaN
             NaN             NaN             NaN
             NaN             NaN             NaN
             NaN             NaN             NaN
             NaN             NaN             NaN
             NaN             NaN             NaN
             NaN             NaN             NaN
             NaN             NaN             NaN
             NaN             NaN             NaN
             NaN             NaN             NaN
             NaN             NaN             NaN
             NaN             NaN             NaN
             NaN             NaN             NaN
             NaN             NaN             NaN
             NaN             NaN             NaN
             NaN             NaN             NaN
             NaN             NaN             NaN
             NaN             NaN             NaN
             NaN             NaN             NaN
             NaN             NaN             NaN
             NaN             NaN             NaN
             NaN             NaN             NaN
             NaN             NaN             NaN
             NaN             NaN             NaN
             NaN             NaN             NaN
             NaN             NaN             NaN
             NaN             NaN             NaN
