Ca V  S  O  F 
 1.0000000000000000
     7.1725635528999998    0.0000000000000000    0.0000000000000000
     0.3049279942000000    7.8739067344000002    0.0000000000000000
     0.3193050896000000    0.2618833392000000   10.7378266451000002
 Ca  V   S   O   F  
   3   4   4  16  12
Selective dynamics
Cartesian
  6.2713593919049053  6.3674544113284730  7.8683747371201562   T   T   T
  1.2365416634901210  1.2813685374075061  2.8521916362785782   T   T   T
  5.2432982032146622  6.6430997476733422  3.0432123218856266   T   T   T
  0.4877356701674192  4.1073752477519223  5.2659322201490077   T   T   T
  7.3157323306394231  7.7514466578921661 -0.0715328404071344   T   T   T
  4.0631893810444186  4.2841428147745066  5.3839706337982900   T   T   T
  4.0464934281731573  7.9698299141251452 10.6622573296516681   T   T   T
  2.1406388859421339  2.7692374328629086 10.7372925133523420   T   T   T
  2.1097563746518788  6.8100621051853523  5.3799654256300942   T   T   T
  5.6877455996966289  1.4876678734417177  5.2788207471553772   T   T   T
  5.5947481201844766  5.0756233810964764  0.4112135332936865   T   T   T
  0.5939511487592738  1.5744773408284098  0.4251447699312145   T   T   T
  1.2645989322394680  5.8269440211084795  4.5820487358004494   T   T   T
  1.6891255628386084  3.7782911406488711  9.8356122595007953   T   T   T
  1.3261273059605316  7.4084295456126288  6.4426517782562671   T   T   T
  2.3713859620504913  2.9030799412420958  1.2901312184039166   T   T   T
  2.6427810760245420  7.7886171530539121  4.4017132793059623   T   T   T
  3.0771254594130073  1.7963171623443330 10.0134730896755606   T   T   T
  3.2985499404734511  6.0708774723341152  5.9515424124097223   T   T   T
  4.5644180799763578  2.4175284544501823  4.8483241608904573   T   T   T
  4.4521006799221032  6.0474253257970902  0.7902413794628835   T   T   T
  5.2258542670270405  0.5209998986065789  6.2641141032902130   T   T   T
  5.4559999272232167  4.2696936806798522 10.3119674497321565   T   T   T
  6.1353592923704499  0.7929770137789608  4.0256593049213620   T   T   T
  6.2272776602206923  4.7733934724035754  1.6889789402823057   T   T   T
  6.7987897780561486  2.3281858640891939  5.8259531145650385   T   T   T
  6.8698822121670187  6.2054471705352237 10.2754079989393770   T   T   T
  7.1683302100233659  0.3406462552204168  8.8394139807765182   T   T   T
  7.5427176983436652  4.7617103893930404  7.0479566322995497   T   T   T
  2.3056463795831816  3.4338291399153076  5.6668297341968703   T   T   T
  2.2114946351811646  7.1858604972049607 10.5203595182042662   T   T   T
  3.1299310316940385  0.1959518821699057  1.8464445168807728   T   T   T
  3.8145706370497181  4.9029793149671059  3.6155264921304306   T   T   T
  4.7524383187958863  4.3173808217874265  7.1070715033406264   T   T   T
  4.5473385947063347  7.2983123897217617  8.9514828075095192   T   T   T
  5.2410665469997282  0.6355743666177038  0.1655041791919291   T   T   T
  5.9049881752014075  5.0994305915863345  4.8957781619553682   T   T   T
  0.6225144486936893  3.3090779994677657  3.5489461413010348   T   T   T
  7.2737289491570545  7.4332076472558848  1.8494601552692618   T   T   T
