V  O 
 1.0000000000000000
    -0.0000310000000000   -3.6716199999999999    0.0000850000000000
    10.3995920000000002    0.0000920000000000   -0.1801340000000000
    -2.9507740000000000   -1.8360040000000000    7.3098830000000001
 V   O  
   6  15
Cartesian
 -0.8429522748352476 -3.6716585252706939  4.9387517178320666
  8.2917106467639758 -1.8358908164907997  2.1910028249347904
  7.0123717996686530 -1.8358800687373329  5.3811769069628825
  0.4364498135521797 -3.6716404519130541  1.7485908732072679
  4.8375707709400748 -1.8359066539105717  2.9855628976834834
  2.6111908507793151 -3.6716134267588285  4.1443339450490368
 -2.9507043791614969 -1.8360051761559830  7.3098624529030687
 -1.2693803990952734 -1.8359002415865122  4.6237947923686695
  8.7181571208078985 -3.6716389009107293  2.5059592865958673
 -0.1012694452067656 -1.8358782638832987  1.9844221610598154
  7.5500688841592964 -3.6716547645857038  5.1453232844316350
 -0.2352356358093494 -3.6716580268363033  6.4175654580211647
  7.6839860030941729 -1.8358913471079348  0.7122064193543879
  2.9410481196949512 -1.8358336841417058  3.6811886452128495
  4.5077173132921589 -3.6716873580462663  3.4487442573021978
  0.7380489347732333 -3.6716675861173984  3.8818357782190493
  6.7107318192656589 -1.8358657081557057  3.2479536878430961
  4.7627672234108260 -1.8359873434991794  1.3926562015109405
  2.6859025147196118 -3.6715308986791477  5.7372497407481493
  2.0598429050456164 -3.6716922122247637  1.6824557474394064
  5.3889837405134671 -1.8358278549360594  5.4473987472711638
