Ca V  Cr P  O 
 1.0000000000000000
     9.8034191132000004    0.0000000000000000    0.0000000000000000
     0.0310846032000000    8.1394794092999998    0.0000000000000000
    -2.1279917691999999   -0.0524358375000000    6.8508461865000001
 Ca  V   Cr  P   O  
   1   2   2   8  28
Selective dynamics
Cartesian
  1.0891501636974645  7.2310042266741652  5.5817038446218072   T   T   T
 -0.5512052045333913  3.9773351678539730  4.9157354296682874   T   T   T
  4.5048640904856647  4.0518799680871993  4.9953926765141006   T   T   T
  3.2602459866864284  0.0430347498236988  1.8842851073023326   T   T   T
  8.1570778896881997  0.0113679170262307  1.8602472091759124   T   T   T
  0.8418393970133862  1.5601107803378664  3.3257483532727434   T   T   T
  5.7620173629615232  1.4796429285080654  3.4732388967980796   T   T   T
  0.9166693039841326  6.2281924761452006  0.7015107762978160   T   T   T
  5.8545345925308538  6.2672774932262643  0.6989068356958676   T   T   T
  1.8841377880596653  2.2066504294730231  6.0886907670765229   T   T   T
  6.7674086696165157  2.0933658061415552  6.1260395351751562   T   T   T
  2.0147197202477689  5.5001207654671900  3.2881268289164907   T   T   T
  6.8531831299618933  5.6014227335990263  3.3664657143359404   T   T   T
 -1.6334753651667653  2.5640941079882800  5.6822432465461894   T   T   T
  3.2966174213403421  2.6678438522431205  5.7752563677082618   T   T   T
 -1.0819625413689498  5.4218051808384962  6.2247259547914124   T   T   T
  3.7260224321209634  5.3706531333408547  6.2664731013295309   T   T   T
 -0.1710040486084532  0.4294917980308782  3.1982018848527489   T   T   T
  4.6759504433641590  0.4710473772218654  3.1503523295146545   T   T   T
  0.2381733234851675  2.9598673532750817  3.4552804759430154   T   T   T
  5.1753982151627191  2.9142996042766538  3.6206309687040665   T   T   T
  0.7723607083941633  5.4342579254518633  4.2356744573814984   T   T   T
  5.6465199407967805  5.4823449229642547  4.3132452646655874   T   T   T
  0.8757993182174341  3.3629980611912749  6.1395095750460769   T   T   T
  5.8218398523356791  3.3344042981520521  6.1690334801883466   T   T   T
  1.4264543122206372  1.2344851695719921  4.8392084135336582   T   T   T
  6.2280652758537975  1.1028471272060099  4.9806985069373075   T   T   T
  1.5436123256380105  5.1830704137809347  1.7941102380364080   T   T   T
  6.3057448258174187  5.2502454971920693  1.8797271132255575   T   T   T
  1.8781150025852327  7.4485835978998072  0.6005419815719705   T   T   T
  6.7880721051967612  7.4614230414934104  0.6384953689523641   T   T   T
  2.0403789851939140  1.5245144642267963  2.4000434509998581   T   T   T
  6.9622942282962246  1.4704827105069809  2.5522029276498710   T   T   T
  2.4895760441455419  6.9701925481056062  3.3398089599767973   T   T   T
  7.4784247226444549  6.9780623001217865  3.3358494811938986   T   T   T
  3.0628898253667827  4.4824023004445861  3.6696539072897063   T   T   T
  7.8987006256363985  4.5118326023806512  3.6987784730913549   T   T   T
  3.9354161508874523  1.2309644952042507  0.3590495391089406   T   T   T
  8.9367237693008352  1.3510882479772253  0.5460746377635184   T   T   T
  4.3841307814926402  6.7001131958486653  0.9278367220872175   T   T   T
  9.3294403100627736  6.5976578891807813  1.1278150178819941   T   T   T
