Ca Mn V  P  O 
1.0
        8.2793302536         0.0000000000         0.0000000000
       -0.2187335301        20.3259066913         0.0000000000
       -0.3628792922        -4.2560045202        13.1910301583
   Ca   Mn    V    P    O
    7    8    8   32  112
Direct
     0.074875019         0.411664248         0.436242491
     0.074875019         0.911664248         0.436242491
     0.079803452         0.037475783         0.187487766
     0.586487114         0.462782323         0.813093245
     0.586487114         0.962782323         0.813093245
     0.080331556         0.166887596         0.928502083
     0.080331556         0.666887581         0.928502083
     0.990199924         0.339992791         0.061985549
     0.990199924         0.839992762         0.061985549
     0.991876185         0.214271918         0.320854038
     0.991876185         0.714271903         0.320854038
     0.012253423         0.456250697         0.809195399
     0.012253423         0.956250668         0.809195399
     0.992300332         0.088657260         0.566422522
     0.992300332         0.588657260         0.566422522
     0.504631460         0.417408079         0.435697913
     0.504631460         0.917408109         0.435697913
     0.510038674         0.044167072         0.194857284
     0.510038674         0.544167042         0.194857284
     0.497763455         0.285945535         0.686849654
     0.497763455         0.785945535         0.686849654
     0.504489362         0.166899756         0.943176210
     0.504489362         0.666899741         0.943176210
     0.244536400         0.444075435         0.999240100
     0.244536400         0.944075465         0.999240100
     0.732133150         0.431586623         0.250617623
     0.732133150         0.931586623         0.250617623
     0.811680496         0.202553079         0.100325167
     0.811680496         0.702553093         0.100325167
     0.224873826         0.318501621         0.246527687
     0.224873826         0.818501592         0.246527687
     0.311183929         0.171128318         0.149790391
     0.311183929         0.671128333         0.149790391
     0.798208714         0.452611297         0.599412560
     0.798208714         0.952611327         0.599412560
     0.717342436         0.304880410         0.498922855
     0.717342436         0.804880381         0.498922855
     0.301099807         0.421932161         0.645575643
     0.301099807         0.921932161         0.645575643
     0.808589101         0.079390824         0.354830414
     0.808589101         0.579390824         0.354830414
     0.225809872         0.194031164         0.504425526
     0.225809872         0.694031179         0.504425526
     0.309119195         0.047020342         0.400022477
     0.309119195         0.547020316         0.400022477
     0.817818999         0.328135073         0.847877979
     0.817818999         0.828135073         0.847877979
     0.729612112         0.179601789         0.753314614
     0.729612112         0.679601789         0.753314614
     0.324288696         0.297867686         0.900673151
     0.324288696         0.797867656         0.900673151
     0.232888684         0.067699939         0.747996807
     0.232888684         0.567699909         0.747996807
     0.737380505         0.055552747         0.003411055
     0.737380505         0.555552721         0.003411055
     0.086612090         0.429438621         0.048411045
     0.086612090         0.929438591         0.048411045
     0.580960095         0.453540474         0.203681067
     0.580960095         0.953540444         0.203681067
     0.856990576         0.500645995         0.286326081
     0.856990576         0.000645995         0.286326081
     0.835401475         0.378584564         0.180222228
     0.835401475         0.878584564         0.180222228
     0.175895840         0.339432925         0.153249979
     0.175895840         0.839432955         0.153249979
     0.941957891         0.240930930         0.058534786
     0.941957891         0.740930915         0.058534786
     0.640654504         0.213867486         0.070026994
     0.640654504         0.713867486         0.070026994
     0.308463752         0.167271674         0.035797156
     0.308463752         0.667271674         0.035797156
     0.699366450         0.414826512         0.348982155
     0.699366450         0.914826512         0.348982155
     0.319307327         0.376325071         0.324761808
     0.319307327         0.876325071         0.324761808
     0.859490693         0.122632816         0.028296040
     0.859490693         0.622632802         0.028296040
     0.336366534         0.252319992         0.214596793
     0.336366534         0.752319992         0.214596793
     0.075145148         0.302459031         0.302796572
     0.075145148         0.802459002         0.302796572
     0.831924081         0.207758948         0.211025029
     0.831924081         0.707758963         0.211025029
     0.934445322         0.491177469         0.563542485
     0.934445322         0.991177440         0.563542485
     0.628839970         0.466388047         0.568658173
     0.628839970         0.966388047         0.568658173
     0.148036152         0.146943092         0.177278534
     0.148036152         0.646943092         0.177278534
     0.455062509         0.135940030         0.180178568
     0.455062509         0.635940015         0.180178568
     0.311256111         0.418269366         0.533787966
     0.311256111         0.918269396         0.533787966
     0.570516229         0.326540619         0.448065847
     0.570516229         0.826540589         0.448065847
     0.711032331         0.041314341         0.103034347
     0.711032331         0.541314363         0.103034347
     0.843733847         0.373300552         0.535176396
     0.843733847         0.873300552         0.535176396
     0.336185157         0.001153699         0.080179125
     0.336185157         0.501153708         0.080179125
     0.819538474         0.249399155         0.433952749
     0.819538474         0.749399185         0.433952749
     0.808722079         0.460673243         0.713281155
     0.808722079         0.960673213         0.713281155
     0.176400021         0.221177980         0.416363537
     0.176400021         0.721177995         0.416363537
     0.946258307         0.117498860         0.317706704
     0.946258307         0.617498875         0.317706704
     0.132124439         0.408049405         0.671525776
     0.132124439         0.908049405         0.671525776
     0.640306950         0.092836745         0.321555495
     0.640306950         0.592836738         0.321555495
     0.437243372         0.383827269         0.682559252
     0.437243372         0.883827269         0.682559252
     0.310148746         0.043307848         0.286523432
     0.310148746         0.543307841         0.286523432
     0.667688727         0.291255563         0.598569810
     0.667688727         0.791255593         0.598569810
     0.339640945         0.246841267         0.578599274
     0.339640945         0.746841252         0.578599274
     0.823413432         0.498452365         0.924148977
     0.823413432         0.998452365         0.924148977
     0.336907059         0.127353922         0.463643223
     0.336907059         0.627353907         0.463643223
     0.212988019         0.463291109         0.902371287
     0.212988019         0.963291109         0.902371287
     0.079684317         0.174556836         0.555932581
     0.079684317         0.674556851         0.555932581
     0.821513295         0.085653894         0.466509610
     0.821513295         0.585653901         0.466509610
     0.955246866         0.365141302         0.812864006
     0.955246866         0.865141273         0.812864006
     0.650254607         0.345507592         0.809331834
     0.650254607         0.845507622         0.809331834
     0.144742325         0.022127857         0.425741017
     0.144742325         0.522127867         0.425741017
     0.451162696         0.010693897         0.430628508
     0.451162696         0.510693908         0.430628508
     0.339046031         0.297209084         0.789119542
     0.339046031         0.797209084         0.789119542
     0.579599559         0.202040806         0.702398896
     0.579599559         0.702040792         0.702398896
     0.848920405         0.247715712         0.793198764
     0.848920405         0.747715712         0.793198764
     0.356548429         0.377549529         0.970834672
     0.356548429         0.877549529         0.970834672
     0.830774188         0.125647023         0.683951974
     0.830774188         0.625647008         0.683951974
     0.820190072         0.340123594         0.962341547
     0.820190072         0.840123594         0.962341547
     0.184997350         0.083674945         0.651636660
     0.184997350         0.583674967         0.651636660
     0.155369982         0.275985807         0.922125518
     0.155369982         0.775985837         0.922125518
     0.460473895         0.259948701         0.933754146
     0.460473895         0.759948730         0.933754146
     0.687234640         0.159246281         0.847336054
     0.687234640         0.659246266         0.847336054
     0.326188117         0.125988752         0.825965762
     0.326188117         0.625988722         0.825965762
     0.353117734         0.001977103         0.718455255
     0.353117734         0.501977086         0.718455255
     0.084463611         0.050370760         0.803600669
     0.084463611         0.550370753         0.803600669
     0.579316437         0.070537418         0.950902998
     0.579316437         0.570537448         0.950902998
