Ca V  Cr P  O 
1.0
        8.5170001984         0.0000000000         0.0000000000
        0.0000000000         7.4361848831         0.0000000000
        0.0000026761         7.0779153297        18.8092165012
   Ca    V   Cr    P    O
    7    4    4   16   56
Direct
     0.595719814         0.736331761         0.250388891
     0.595719814         0.736331761         0.750388861
     0.095722564         0.263682753         0.249607697
     0.095722564         0.263682753         0.749607682
     0.593588650         0.742276073         0.000172488
     0.093587279         0.257725656         0.499828666
     0.093587279         0.257725656         0.999828696
     0.008164664         0.729901791         0.246967271
     0.008164664         0.729901791         0.746967256
     0.508159637         0.270100057         0.253026932
     0.508159637         0.270100057         0.753026962
     0.010992527         0.735548198         0.494067907
     0.010992527         0.735548198         0.994067907
     0.510999084         0.264442116         0.005933989
     0.510999084         0.264442116         0.505934000
     0.232846349         0.895335257         0.347583264
     0.232846349         0.895335257         0.847583294
     0.308354139         0.499727219         0.347587079
     0.308354139         0.499727219         0.847587109
     0.808415771         0.500308216         0.152396545
     0.808415771         0.500308216         0.652396560
     0.227496251         0.881741405         0.096528687
     0.227496251         0.881741405         0.596528709
     0.732771337         0.104646586         0.152404934
     0.732771337         0.104646586         0.652404904
     0.310548365         0.486600369         0.097195610
     0.310548365         0.486600369         0.597195625
     0.810495615         0.513349712         0.402823269
     0.810495615         0.513349712         0.902823269
     0.727511525         0.118255787         0.403481394
     0.727511525         0.118255787         0.903481364
     0.341603458         0.729450524         0.333030134
     0.341603458         0.729450524         0.833030105
     0.080487825         0.919315934         0.303401500
     0.080487825         0.919315934         0.803401470
     0.813458383         0.617866337         0.322387904
     0.813458383         0.617866337         0.822387934
     0.151341110         0.480463594         0.313241571
     0.151341110         0.480463594         0.813241601
     0.450704783         0.463282764         0.307997465
     0.450704783         0.463282764         0.807997465
     0.705584049         0.182808250         0.324059784
     0.705584049         0.182808250         0.824059784
     0.326776117         0.080507055         0.315671027
     0.326776117         0.080507055         0.815671027
     0.826808989         0.919450879         0.184338704
     0.826808989         0.919450879         0.684338689
     0.205592290         0.817193091         0.175934047
     0.205592290         0.817193091         0.675934076
     0.950701773         0.536698103         0.192004338
     0.950701773         0.536698103         0.692004323
     0.651282966         0.519530177         0.186773717
     0.651282966         0.519530177         0.686773717
     0.313461930         0.382142395         0.177606598
     0.313461930         0.382142395         0.677606583
     0.580497146         0.080694735         0.196600005
     0.580497146         0.080694735         0.696600020
     0.841630757         0.270581186         0.166975498
     0.841630757         0.270581186         0.666975498
     0.337965667         0.718796372         0.080208167
     0.337965667         0.718796372         0.580208182
     0.075187683         0.903763652         0.051565539
     0.075187683         0.903763652         0.551565528
     0.808580816         0.611851096         0.072234705
     0.808580816         0.611851096         0.572234690
     0.154895008         0.456138581         0.065130584
     0.154895008         0.456138581         0.565130591
     0.455218136         0.453355998         0.057402231
     0.455218136         0.453355998         0.557402253
     0.709412754         0.167401716         0.072528273
     0.709412754         0.167401716         0.572528243
     0.315481961         0.070944265         0.063918188
     0.315481961         0.070944265         0.563918173
     0.815481007         0.929057181         0.436080307
     0.815481007         0.929057181         0.936080337
     0.209411725         0.832603037         0.427471578
     0.209411725         0.832603037         0.927471578
     0.955235183         0.546655297         0.442600936
     0.955235183         0.546655297         0.942600965
     0.654935837         0.543860435         0.434858769
     0.654935837         0.543860435         0.934858799
     0.308582872         0.388144165         0.427762628
     0.308582872         0.388144165         0.927762628
     0.575180233         0.096246645         0.448431998
     0.575180233         0.096246645         0.948431969
     0.837966025         0.281223685         0.419789195
     0.837966025         0.281223685         0.919789195
