V  S  O  F 
 1.0000000000000000
     7.1655740000000003    0.0000000000000000    0.0000000000000000
     0.4158380000000000    7.8686100000000003    0.0000000000000000
     0.1948119999999990    0.2373289999999990   10.2569320000000008
 V   S   O   F  
   4   4  16  12
Cartesian
  0.3257675730139237  4.1022817486644003  5.0743137283460742
  7.6970995079266977  7.9928191851098136 10.2364084010581102
  3.9010215465687779  3.9501462576182287  5.0817551005892536
  4.1103709827152137  8.1344981672289283 10.2308969530532821
  1.6911938958947614  2.6545496610629571  0.1061252638935168
  2.1853356403957043  6.7124954989791403  5.2120485106340499
  5.7211908230343749  1.3290971731936896  5.1947489497846071
  5.6324740152719954  5.1455044201963593  0.0772173098893668
  0.6859910089618512  1.6425425512959961  0.6116093202722471
  1.0201187781602328  5.6374317451303950  4.6167991155336647
  1.4658966706673422  3.5968229041192452  9.1917714505739898
  1.5291091740921874  7.3813186701942906  6.2919745595985628
  2.3533411179551931  3.3193143957913254  1.1824098386300834
  2.6077459888208265  7.4079377052651711  4.0398183459050712
  3.0628975789792583  1.8212053864893016  9.7483420152111595
  3.2032624435615524  5.7138426722768934  5.7281847168363065
  4.5252306648244041  2.3944318211550635  4.5966035489083632
  4.6391453739868949  6.1502940537245383  0.6290277986480225
  5.0715211449893847  0.6518800776727853  6.2709638445488602
  5.3867300790065835  4.7275646072051503  9.1453676364783423
  6.1341533914477786  0.6423656303346733  4.0100964854981704
  6.2742892622410746  4.4314202773747740  1.1363846417036989
  6.7196668321860900  2.3425570161875577  5.7009424253362644
  7.0088926209144642  6.4571283904820129  9.7660038626318837
  7.4725824924368363  0.7770474693445399  8.6093467223713542
  7.4836492734692790  4.4861114803148761  6.7924062777192500
  2.0904321249160818  3.3053836037502977  5.2827495573457037
  2.3586002889722222  7.3264673239359182 10.1548845352557304
  3.2886472062031329  0.3589880034483299  1.6903887202247136
  3.5232069963422341  4.5394002930416697  3.4587483956352103
  4.2214773361814952  3.6724485221554404  6.7923092476890004
  4.4309061231272144  7.5256434602659059  8.6058680869096218
  5.3364004987623543  0.6878974848907290  0.0850659336245997
  5.6819461261227859  4.7488979919708045  4.9044940291195855
  0.2577628241550867  3.4055803762339307  3.4574413644668103
  7.4825100696346079  7.3597088552817711  1.6950222509914479
