Ca Ti Mn Si O  F 
 1.0000000000000000
     9.9872684479000000    0.0000000000000000    0.0000000000000000
     0.0000000000000000   10.9652748108000004    0.0000000000000000
     0.0000000000000000   -4.3438069094999996   13.5038650633999993
 Ca  Ti  Mn  Si  O   F  
  11   8  12  16  64   8
Selective dynamics
Cartesian
  1.3413848009955704  1.5073046388182667  6.5166688937269210   T   T   T
  6.0087027933262664 -2.1630645817380789 13.3081128970907336   T   T   T
  3.9865867638138726  8.7650039534593560  0.2553079578132031   T   T   T
  8.9714362445797846  5.4746051535559790  6.6127985714441619   T   T   T
  3.6711990409079589  0.6958375139837101 12.3685425078587325   T   T   T
  6.3401665800938263  5.8590531489346684  1.2163058550319534   T   T   T
  8.7034122978588524 -1.6462180408953762  7.8746747483595039   T   T   T
  1.3376588291230527  8.3161234723085897  5.5566516059869180   T   T   T
  1.2221751912288537  6.0991926466912592 12.2918009624048814   T   T   T
  8.7449374075709621  0.4783454088119250  1.1725784171063260   T   T   T
  6.1286457915399035  3.7466173953187933  7.8344930817655642   T   T   T
  4.0883222096484149  5.2742806780299532 10.1469525319963711   T   T   T
  5.8753765318407609  1.3859595723817715  3.3559325361599588   T   T   T
  9.0251463878191540  4.7229609436433329 10.0971082474146794   T   T   T
  0.9611524845392480  1.9646284047357514  3.3382207943322464   T   T   T
  0.9270864362555853 -0.3204266931027397 10.3035627507770080   T   T   T
  9.0931192627668178  6.9809711055373036  3.2374513526557025   T   T   T
  5.9165669959087133 -0.6660977045166633  9.9250568624285194   T   T   T
  4.0913299160183856  7.2871951042420120  3.5772481514568981   T   T   T
  3.9978572708564379  6.6847960768060410  6.9558169189868844   T   T   T
  5.9623330750575825  0.0075762057137598  6.5063731029242620   T   T   T
  9.0282660056285362  3.1924130763843239 13.3101903720494672   T   T   T
  1.0201458014750298  3.3844918519200275  0.2284765879741571   T   T   T
  3.6125659982739018  1.8025126586849074  9.1974318743658845   T   T   T
  6.2800371315485473  4.6640618755563894  4.4056921343831688   T   T   T
  8.5970543608918959 -2.8344516099990682 11.0639673821162638   T   T   T
  1.4032059869198743  9.5736948852126922  2.4612001114361486   T   T   T
  1.4423486831436052  7.3950123618316796  9.1188836301463194   T   T   T
  8.5970880359746804 -0.6518670653884816  4.3552769966430951   T   T   T
  6.4367672947791181  2.6264447442160828 11.0686115334932147   T   T   T
  3.5570744765628639  3.9376937754301102  2.5022364359565463   T   T   T
  3.3373027692705870 -2.3502036792208112 11.5604552429306864   T   T   T
  6.6900666789350716  8.9323256608997887  1.9134293022634028   T   T   T
  8.3778194084769542  1.3654416497642718  8.6781040801879321   T   T   T
  1.6433579764136310  5.2173335320083707  4.8233733710594935   T   T   T
  6.7300235535387678  6.8070610828880502  8.6446330227246158   T   T   T
  3.3217028936135775 -0.1596046255650690  4.7904825236545010   T   T   T
  1.7384323884923791  3.1559643396641657 11.5994633159285119   T   T   T
  8.2100116314604250  3.4368398203811372  1.9238641501408389   T   T   T
  1.6961623041403995  4.3560158865362268  7.9753954988686742   T   T   T
  8.3514058798484267  2.2882564106658454  5.6089107265764353   T   T   T
  6.6764057085127453  5.6304262573948449 12.3393834629217451   T   T   T
  3.3012914893408669  0.9912991422190098  1.1215488663825490   T   T   T
  3.2870936243227922 -1.1171207348006222  7.8785268664163572   T   T   T
  6.7169205045840030  7.8453757039911816  5.5806350419400319   T   T   T
  8.2670657766801874  0.1413088849290582 12.3400159985836204   T   T   T
  1.7366981878609913  6.4770066789506551  1.1861889948433235   T   T   T
  5.2041231727417747  2.9556871203792681  3.6645400037368452   T   T   T
  4.8081894418038535  3.6899562488087700  9.7556599374427453   T   T   T
  0.1980403602382271  0.3566515199491890  2.9401616408748232   T   T   T
  9.7087865301603138  6.3122920293605969 10.5559365200783937   T   T   T
  2.2333111940317858  1.7904077357474806 10.8938538937272167   T   T   T
  7.7230980866624579  4.7283163341173040  2.7647332936618292   T   T   T
  7.2508557160790836 -2.8208788867566867  9.3934608162734516   T   T   T
  2.8072979193047964  9.4169375396200898  4.1088664937832791   T   T   T
  0.1904863059465881 -1.8829419741842384  9.7760517324794574   T   T   T
  9.8387669949970480  8.5457094728553553  3.6819004525823109   T   T   T
  5.2009764743557536  0.8810575938708273 10.4917616078758815   T   T   T
  4.8110115356441012  5.7301673673459472  3.0639014791559989   T   T   T
  5.1589721208774257  6.3730840287884680  8.7985876719581633   T   T   T
  4.9031527083580571  0.1895218684535571  4.6240322461825647   T   T   T
  0.1850032548479182  3.6641319264714904 11.4715873016042913   T   T   T
  9.7698500844923952  2.9520599308972146  1.9656454656745188   T   T   T
  2.2858373295290404 -1.0844421705132228 11.7199390689966823   T   T   T
  7.7391367403429978  7.6565658381892936  1.7682218148096718   T   T   T
  7.3099174762477164  0.0964121712125661  8.5804323486435337   T   T   T
  2.7349754145046088  6.4712548618095713  4.9419224345204880   T   T   T
  7.3820671705890870 -3.8774819632801187 12.5779413738444052   T   T   T
  2.5853749361874470 10.4976541776021968  0.8940584914392146   T   T   T
  2.3060452943007381  2.8744038636776974  7.9904885370544685   T   T   T
  7.6467255182418938  3.7413781661754539  5.8683879805248225   T   T   T
  7.6407718809931202  5.4421966065872347  8.8414267961473438   T   T   T
  2.3456310350434806  1.1048018220768199  4.4242024354152587   T   T   T
  2.6979057362078489  4.4889180567377922 11.3818778956842515   T   T   T
  7.2756226860336577  2.0740105744917510  2.0487910792332591   T   T   T
  2.7259414470578598  8.3298029604004942  7.5976850227802588   T   T   T
  7.2735598333840530 -1.5996251839466817  5.8422349385338714   T   T   T
  7.7386128483111509  1.6803987402087226 12.5279080602478352   T   T   T
  2.3104013516092712  4.9682749426319166  0.9325188478728024   T   T   T
  3.7061077691127577 -2.7728555170851350 13.1243689292911139   T   T   T
  6.3344721890019740  9.3460683442796402  0.3354203601032613   T   T   T
  8.8021354404915630  1.6794551917324088  7.0958666156118140   T   T   T
  1.3591830221823753  4.7580910540145211  6.3955055346169125   T   T   T
  4.7992267496934984 -1.7790625068735695 11.0895480717616568   T   T   T
  5.2235654096594368  8.3602173655288610  2.3719818719455081   T   T   T
  9.7698073890239030  0.7936766528451168  9.3012461734093872   T   T   T
  0.1899952374583913  5.9409822686856621  4.4835221491888371   T   T   T
  1.9966574667152299  2.9475501189914395 13.2481777447218061   T   T   T
  7.8901867066939841  3.7978933094711427  0.3151554892917671   T   T   T
  7.0236006030830360  7.0448980090921545  7.0128835035676653   T   T   T
  3.0370285675082864 -0.2702606414771635  6.4520545754939862   T   T   T
  9.8694990856372335 -0.0428973611575674 12.0751536443740086   T   T   T
  0.1344085976571016  6.5765679737424749  1.5109614343932536   T   T   T
  4.8916603993939720 -1.0359591416524219  8.2186214734487013   T   T   T
  5.1149387192699676  7.7085407900088407  5.2667812256593782   T   T   T
  2.7120954614715322  7.3162641792981962 10.8224857979865465   T   T   T
  7.3227061840755923 -0.7482315873415267  2.6518371284822302   T   T   T
  7.7463316191123326  2.6903432672417664  9.3666987724928479   T   T   T
  2.0149101637032025  3.9534651236118816  3.9089942542838942   T   T   T
  2.6517196543932080  5.5351890316086161  8.6177100710320058   T   T   T
  7.3615179643103508  1.2006519829379174  4.8743810344315186   T   T   T
  7.6128631364615869  4.5041913819228325 11.5945544330156345   T   T   T
  2.3223224164254619  2.1437096421801107  1.7682429692665691   T   T   T
  5.1740601872585881  5.7110796101848775 11.6890793798406865   T   T   T
  4.7797093484589679  0.9041856908484226  1.8089707644909707   T   T   T
  0.1672241952715877  4.4320378119478425  8.5821727313139498   T   T   T
  9.8172583258209816  2.3606619545609711  4.8768197741523247   T   T   T
  2.4246413725398606 -0.2493924631380524  8.9732160131466721   T   T   T
  7.6147857274804345  6.9435550480919774  4.5423322724424890   T   T   T
  7.3756292136835384 -0.8275483066945343 11.3443263843777284   T   T   T
  2.6384392019972380  7.4265264583647994  2.1842554330339414   T   T   T
  0.1118030020936524 -2.9547135441902350 12.9791208932715083   T   T   T
  9.8666419200431239  9.5296383931563344  0.4898013194807185   T   T   T
  5.1104514993055954  1.7961523639687764  7.4505263162420157   T   T   T
  5.0390208202337128  4.8890989978776016  6.2432867436476371   T   T   T
  9.9926427632810579  7.4361314410149006  7.2848594268405256   T   T   T
  0.0809705486905657 -0.7812233422010390  6.1567773488925051   T   T   T
  4.9920380389963981  2.4833629250822096 13.0343850215897135   T   T   T
  4.9937275570185982  4.0993455330018467  0.5310361203419437   T   T   T
