Ca1 V4 Pb2 O12
1.0
       10.6974754333         0.0000000000         0.0000000000
       -3.5658261669        17.3022952270         0.0000000000
        0.0000000000        -5.2336058531        19.0893879632
   Ca    V   Pb    O
   11   48   24  144
Direct
     0.666666687         0.500000000         0.500000000
     0.000000000         0.000000000         0.000000000
     0.000000000         0.000000000         0.500000000
     0.000000000         0.500000000         0.000000000
     0.000000000         0.500000000         0.500000000
     0.333333343         0.000000000         0.000000000
     0.333333343         0.000000000         0.500000000
     0.333333343         0.500000000         0.000000000
     0.666666687         0.000000000         0.000000000
     0.666666687         0.000000000         0.500000000
     0.666666687         0.500000000         0.000000000
     0.198904335         0.096712999         0.423128486
     0.198904335         0.096712999         0.923128486
     0.198904335         0.596713006         0.423128486
     0.198904335         0.596713006         0.923128486
     0.532237649         0.096712999         0.423128486
     0.532237649         0.096712999         0.923128486
     0.532237649         0.596713006         0.423128486
     0.532237649         0.596713006         0.923128486
     0.865571022         0.096712999         0.423128486
     0.865571022         0.096712999         0.923128486
     0.865571022         0.596713006         0.423128486
     0.865571022         0.596713006         0.923128486
     0.134428993         0.403286994         0.076871499
     0.134428993         0.403286994         0.576871514
     0.134428993         0.903286994         0.076871499
     0.134428993         0.903286994         0.576871514
     0.467762321         0.403286994         0.076871499
     0.467762321         0.403286994         0.576871514
     0.467762321         0.903286994         0.076871499
     0.467762321         0.903286994         0.576871514
     0.801095665         0.403286994         0.076871499
     0.801095665         0.403286994         0.576871514
     0.801095665         0.903286994         0.076871499
     0.801095665         0.903286994         0.576871514
     0.278721005         0.336162508         0.176483497
     0.278721005         0.336162508         0.676483512
     0.278721005         0.836162508         0.176483497
     0.278721005         0.836162508         0.676483512
     0.612054348         0.336162508         0.176483497
     0.612054348         0.336162508         0.676483512
     0.612054348         0.836162508         0.176483497
     0.612054348         0.836162508         0.676483512
     0.945387661         0.336162508         0.176483497
     0.945387661         0.336162508         0.676483512
     0.945387661         0.836162508         0.176483497
     0.945387661         0.836162508         0.676483512
     0.054612335         0.163837507         0.323516011
     0.054612335         0.163837507         0.823516011
     0.054612335         0.663837492         0.323516011
     0.054612335         0.663837492         0.823516011
     0.387945682         0.163837507         0.323516011
     0.387945682         0.163837507         0.823516011
     0.387945682         0.663837492         0.323516011
     0.387945682         0.663837492         0.823516011
     0.721279025         0.163837507         0.323516011
     0.721279025         0.163837507         0.823516011
     0.721279025         0.663837492         0.323516011
     0.721279025         0.663837492         0.823516011
     0.285212338         0.355636507         0.371711999
     0.285212338         0.355636507         0.871711969
     0.285212338         0.855636477         0.371711999
     0.285212338         0.855636477         0.871711969
     0.618545651         0.355636507         0.371711999
     0.618545651         0.355636507         0.871711969
     0.618545651         0.855636477         0.371711999
     0.618545651         0.855636477         0.871711969
     0.951879025         0.355636507         0.371711999
     0.951879025         0.355636507         0.871711969
     0.951879025         0.855636477         0.371711999
     0.951879025         0.855636477         0.871711969
     0.048121002         0.144363493         0.128288001
     0.048121002         0.144363493         0.628288031
     0.048121002         0.644363523         0.128288001
     0.048121002         0.644363523         0.628288031
     0.381454349         0.144363493         0.128288001
     0.381454349         0.144363493         0.628288031
     0.381454349         0.644363523         0.128288001
     0.381454349         0.644363523         0.628288031
     0.714787662         0.144363493         0.128288001
     0.714787662         0.144363493         0.628288031
     0.714787662         0.644363523         0.128288001
     0.714787662         0.644363523         0.628288031
     0.223679662         0.171038494         0.356803000
     0.223679662         0.171038494         0.856803000
     0.223679662         0.671038508         0.356803000
     0.223679662         0.671038508         0.856803000
     0.557012975         0.171038494         0.356803000
     0.557012975         0.171038494         0.856803000
     0.557012975         0.671038508         0.356803000
     0.557012975         0.671038508         0.856803000
     0.890346348         0.171038494         0.356803000
     0.890346348         0.171038494         0.856803000
     0.890346348         0.671038508         0.356803000
     0.890346348         0.671038508         0.856803000
     0.109653674         0.328961492         0.143197998
     0.109653674         0.328961492         0.643198013
     0.109653674         0.828961492         0.143197998
     0.109653674         0.828961492         0.643198013
     0.442986995         0.328961492         0.143197998
     0.442986995         0.328961492         0.643198013
     0.442986995         0.828961492         0.143197998
     0.442986995         0.828961492         0.643198013
     0.776320338         0.328961492         0.143197998
     0.776320338         0.328961492         0.643198013
     0.776320338         0.828961492         0.143197998
     0.776320338         0.828961492         0.643198013
     0.303938001         0.411814511         0.116847001
     0.303938001         0.411814511         0.616846979
     0.303938001         0.911814511         0.116847001
     0.303938001         0.911814511         0.616846979
     0.637271345         0.411814511         0.116847001
     0.637271345         0.411814511         0.616846979
     0.637271345         0.911814511         0.116847001
     0.637271345         0.911814511         0.616846979
     0.970604658         0.411814511         0.116847001
     0.970604658         0.411814511         0.616846979
     0.970604658         0.911814511         0.116847001
     0.970604658         0.911814511         0.616846979
     0.029395334         0.088185497         0.383152992
     0.029395334         0.088185497         0.883152962
     0.029395334         0.588185489         0.383152992
     0.029395334         0.588185489         0.883152962
     0.362728655         0.088185497         0.383152992
     0.362728655         0.088185497         0.883152962
     0.362728655         0.588185489         0.383152992
     0.362728655         0.588185489         0.883152962
     0.696062028         0.088185497         0.383152992
     0.696062028         0.088185497         0.883152962
     0.696062028         0.588185489         0.383152992
     0.696062028         0.588185489         0.883152962
     0.215934679         0.147803500         0.008706500
     0.215934679         0.147803500         0.508706510
     0.215934679         0.647803485         0.008706500
     0.215934679         0.647803485         0.508706510
     0.549268007         0.147803500         0.008706500
     0.549268007         0.147803500         0.508706510
     0.549268007         0.647803485         0.008706500
     0.549268007         0.647803485         0.508706510
     0.882601321         0.147803500         0.008706500
     0.882601321         0.147803500         0.508706510
     0.882601321         0.647803485         0.008706500
     0.882601321         0.647803485         0.508706510
     0.117398672         0.352196515         0.491293490
     0.117398672         0.352196515         0.991293490
     0.117398672         0.852196515         0.491293490
     0.117398672         0.852196515         0.991293490
     0.450731993         0.352196515         0.491293490
     0.450731993         0.352196515         0.991293490
     0.450731993         0.852196515         0.491293490
     0.450731993         0.852196515         0.991293490
     0.784065366         0.352196515         0.491293490
     0.784065366         0.352196515         0.991293490
     0.784065366         0.852196515         0.491293490
     0.784065366         0.852196515         0.991293490
     0.037024666         0.111074001         0.239822507
     0.037024666         0.111074001         0.739822507
     0.037024666         0.611073971         0.239822507
     0.037024666         0.611073971         0.739822507
     0.370357990         0.111074001         0.239822507
     0.370357990         0.111074001         0.739822507
     0.370357990         0.611073971         0.239822507
     0.370357990         0.611073971         0.739822507
     0.703691304         0.111074001         0.239822507
     0.703691304         0.111074001         0.739822507
     0.703691304         0.611073971         0.239822507
     0.703691304         0.611073971         0.739822507
     0.296308666         0.388925999         0.260178000
     0.296308666         0.388925999         0.760177970
     0.296308666         0.888926029         0.260178000
     0.296308666         0.888926029         0.760177970
     0.629642010         0.388925999         0.260178000
     0.629642010         0.388925999         0.760177970
     0.629642010         0.888926029         0.260178000
     0.629642010         0.888926029         0.760177970
     0.962975323         0.388925999         0.260178000
     0.962975323         0.388925999         0.760177970
     0.962975323         0.888926029         0.260178000
     0.962975323         0.888926029         0.760177970
     0.163007334         0.489021510         0.430993497
     0.163007334         0.489021510         0.930993497
     0.163007334         0.989021540         0.430993497
     0.163007334         0.989021540         0.930993497
     0.496340662         0.489021510         0.430993497
     0.496340662         0.489021510         0.930993497
     0.496340662         0.989021540         0.430993497
     0.496340662         0.989021540         0.930993497
     0.829674006         0.489021510         0.430993497
     0.829674006         0.489021510         0.930993497
     0.829674006         0.989021540         0.430993497
     0.829674006         0.989021540         0.930993497
     0.244469002         0.233406499         0.175862506
     0.244469002         0.233406499         0.675862491
     0.244469002         0.733406484         0.175862506
     0.244469002         0.733406484         0.675862491
     0.577802360         0.233406499         0.175862506
     0.577802360         0.233406499         0.675862491
     0.577802360         0.733406484         0.175862506
     0.577802360         0.733406484         0.675862491
     0.911135674         0.233406499         0.175862506
     0.911135674         0.233406499         0.675862491
     0.911135674         0.733406484         0.175862506
     0.911135674         0.733406484         0.675862491
     0.088864334         0.266593009         0.324137509
     0.088864334         0.266593009         0.824137509
     0.088864334         0.766592979         0.324137509
     0.088864334         0.766592979         0.824137509
     0.422197670         0.266593009         0.324137509
     0.422197670         0.266593009         0.824137509
     0.422197670         0.766592979         0.324137509
     0.422197670         0.766592979         0.824137509
     0.755531013         0.266593009         0.324137509
     0.755531013         0.266593009         0.824137509
     0.755531013         0.766592979         0.324137509
     0.755531013         0.766592979         0.824137509
     0.170325994         0.010978500         0.069006003
     0.170325994         0.010978500         0.569006026
     0.170325994         0.510978520         0.069006003
     0.170325994         0.510978520         0.569006026
     0.503659308         0.010978500         0.069006003
     0.503659308         0.010978500         0.569006026
     0.503659308         0.510978520         0.069006003
     0.503659308         0.510978520         0.569006026
     0.836992681         0.010978500         0.069006003
     0.836992681         0.010978500         0.569006026
     0.836992681         0.510978520         0.069006003
     0.836992681         0.510978520         0.569006026
