Mn Fe O 
 1.0000000000000000
     4.2260960000000001    4.2299470000000001    0.0000000000000000
    -4.2260960000000001    4.2299470000000001    0.0000000000000000
     0.0000000000000000    4.1744909999999997   13.0431670000000004
 Mn  Fe  O  
  10   4  24
Cartesian
 -0.0376085408918201  4.2359084450508702  0.0828797101759036
 -2.0835212132186869  8.3723882429684924 10.8646981841034602
  0.0300720742312378 10.4943750822230299 10.8538706437497954
  0.0306976542397789  4.2251175515980242  8.6564960818214285
 -2.0418594217455630  6.2861987046292862  8.6560337744109308
  0.0376085408918227  6.3231539450508638  6.6044632101758971
 -0.0300720742312430  8.4071295822230372  4.3322871437497987
  2.0835212132186824  6.2851427429684898  4.3431146841034591
  2.0418594217455657  4.1989532046292828  2.1344502744109262
 -0.0306976542397778  2.1378720515980225  2.1349125818214305
  2.0321209534067108  2.1642976812336228 -0.0649863586173509
 -1.0359448009811185  9.4804042227172172  7.6086690726974693
 -2.0321209534067126  4.2515431812336226  6.4565971413826517
  1.0359448009811252  7.3931587227172093  1.0870855726974724
 -0.1039174836691902  6.2422016602458816  0.0868982205937902
 -2.0382525344890690  4.2977973760228609  0.0681390981047815
  2.2993608776537231  6.0914664361158453 11.0457659471359744
 -0.1196473138001657  8.5305324755539758 11.2097124290492705
  0.1734416143998168  4.0033416210158714 10.5670236866950873
 -2.2407969304282913  6.4212289837452996 10.5734464012039044
 -2.1602578259651462  8.3219302797269510  8.6437465408497562
  0.1535087972207456 10.6417651554309671  8.5755610776698283
 -0.0933788454223469  6.1698089195837520  8.5769187103455380
  2.3421449999062105  8.6032591252773827  8.5681179798182381
 -0.0304854282711748  4.4163972153200231  6.7134829963666585
 -1.8688460666295745  6.2486290362754477  6.7176542258484719
  0.1039174836691920  8.3294471602458824  6.6084817205937929
  2.0382525344890721  6.3850428760228617  6.5897225981047747
 -2.2993608776537302  4.0042209361158418  4.5241824471359786
  0.1196473138001746  6.4432869755539679  4.6881289290492738
  2.2407969304282895  4.3339834837453015  4.0518629012039042
 -0.1734416143998206  1.9160961210158685  4.0454401866950871
  2.1602578259651426  6.2346847797269493  2.1221630408497605
 -0.1535087972207527  8.5545196554309637  2.0539775776698344
  0.0933788454223562  4.0825634195837619  2.0553352103455391
 -2.3421449999062052  6.5160136252773908  2.0465344798182423
  1.8688460666295827  4.1613835362754470  0.1960707258484741
  0.0304854282711721  2.3291517153200263  0.1918994963666615
