Ca V  P  O 
 1.0000000000000000
     5.3650510000000002   -0.0304650000000000   -0.6303420000000000
     1.0574610000000000    5.2599000000000000    0.6303529999999991
     0.0559459999999990   -0.0687010000000000    4.9191019999999996
 Ca  V   P   O  
   1   1   2   7
Cartesian
  4.6799624540515508  3.8105802967398938 -0.0000035331156906
  0.7235012505289131  0.5891013252669561  0.0000031701911286
  3.7457912496388741  1.1279272503761448  1.7995906524319045
  1.9195975728309518  3.3707768050327358  3.1195228201000522
  4.3021032828980186  0.3269999784427401  2.9849619473553823
  2.6551215473972212  4.3167569561450483  4.0890438515612768
  0.9861031242241877  2.4553161268450525  3.9154883684019213
  1.2480308658964145  4.0778562155323552  1.9341489461203176
  3.1577027849511197  2.5139828253750847  2.4595608204152062
  2.6601422867747067  0.3993396692596276  1.0036215646531621
  4.8212021009520285  1.6564809448293536  0.8300728826423118
