Ca Mn P  O  F 
1.0
       11.2097597122         0.0000000000         0.0000000000
       -3.1774797230        10.5927846543         0.0000000000
       -3.1593124338        -4.6188760237        14.0088604192
   Ca   Mn    P    O    F
   15   16   16   64   16
Direct
     0.335797787         0.181273058         0.596006453
     0.335797787         0.181273058         0.096006468
     0.335797787         0.681273043         0.096006468
     0.835797787         0.181273058         0.096006468
     0.835797787         0.181273058         0.596006453
     0.835797787         0.681273043         0.096006468
     0.835797787         0.681273043         0.596006453
     0.164129451         0.318607450         0.404017270
     0.164129451         0.318607450         0.904017270
     0.164129451         0.818607450         0.404017270
     0.164129451         0.818607450         0.904017270
     0.664129436         0.318607450         0.404017270
     0.664129436         0.318607450         0.904017270
     0.664129436         0.818607450         0.404017270
     0.664129436         0.818607450         0.904017270
     0.999977827         0.999982476         0.999974728
     0.999977827         0.999982476         0.499974728
     0.999977827         0.499982476         0.999974728
     0.999977827         0.499982476         0.499974728
     0.499977827         0.999982476         0.999974728
     0.499977827         0.999982476         0.499974728
     0.499977827         0.499982476         0.999974728
     0.499977827         0.499982476         0.499974728
     0.999985635         0.999966502         0.249996990
     0.999985635         0.999966502         0.749997020
     0.999985635         0.499966502         0.249996990
     0.999985635         0.499966502         0.749997020
     0.499985635         0.999966502         0.249996990
     0.499985635         0.999966502         0.749997020
     0.499985635         0.499966502         0.249996990
     0.499985635         0.499966502         0.749997020
     0.337536693         0.152647838         0.382092327
     0.337536693         0.152647838         0.882092357
     0.337536693         0.652647853         0.382092327
     0.337536693         0.652647853         0.882092357
     0.837536693         0.152647838         0.382092327
     0.837536693         0.152647838         0.882092357
     0.837536693         0.652647853         0.382092327
     0.837536693         0.652647853         0.882092357
     0.162442669         0.347364187         0.117913097
     0.162442669         0.347364187         0.617913127
     0.162442669         0.847364187         0.117913097
     0.162442669         0.847364187         0.617913127
     0.662442684         0.347364187         0.117913097
     0.662442684         0.347364187         0.617913127
     0.662442684         0.847364187         0.117913097
     0.662442684         0.847364187         0.617913127
     0.371283203         0.286740839         0.464340150
     0.371283203         0.286740839         0.964340150
     0.371283203         0.786740839         0.464340150
     0.371283203         0.786740839         0.964340150
     0.871283174         0.286740839         0.464340150
     0.871283174         0.286740839         0.964340150
     0.871283174         0.786740839         0.464340150
     0.871283174         0.786740839         0.964340150
     0.128838211         0.213288575         0.035680808
     0.128838211         0.213288575         0.535680830
     0.128838211         0.713288546         0.035680808
     0.128838211         0.713288546         0.535680830
     0.628838181         0.213288575         0.035680808
     0.628838181         0.213288575         0.535680830
     0.628838181         0.713288546         0.035680808
     0.628838181         0.713288546         0.535680830
     0.294069767         0.365987867         0.187663749
     0.294069767         0.365987867         0.687663734
     0.294069767         0.865987897         0.187663749
     0.294069767         0.865987897         0.687663734
     0.794069767         0.365987867         0.187663749
     0.794069767         0.365987867         0.687663734
     0.794069767         0.865987897         0.187663749
     0.794069767         0.865987897         0.687663734
     0.053880189         0.342520088         0.166929960
     0.053880189         0.342520088         0.666929960
     0.053880189         0.842520118         0.166929960
     0.053880189         0.842520118         0.666929960
     0.553880215         0.342520088         0.166929960
     0.553880215         0.342520088         0.666929960
     0.553880215         0.842520118         0.166929960
     0.553880215         0.842520118         0.666929960
     0.205901742         0.134163380         0.312419206
     0.205901742         0.134163380         0.812419176
     0.205901742         0.634163380         0.312419206
     0.205901742         0.634163380         0.812419176
     0.705901742         0.134163380         0.312419206
     0.705901742         0.134163380         0.812419176
     0.705901742         0.634163380         0.312419206
     0.705901742         0.634163380         0.812419176
     0.446047038         0.157468736         0.332996309
     0.446047038         0.157468736         0.832996309
     0.446047038         0.657468736         0.332996309
     0.446047038         0.657468736         0.832996309
     0.946047068         0.157468736         0.332996309
     0.946047068         0.157468736         0.832996309
     0.946047068         0.657468736         0.332996309
     0.946047068         0.657468736         0.832996309
     0.324928224         0.042676453         0.433485359
     0.324928224         0.042676453         0.933485389
     0.324928224         0.542676449         0.433485359
     0.324928224         0.542676449         0.933485389
     0.824928224         0.042676453         0.433485359
     0.824928224         0.042676453         0.933485389
     0.824928224         0.542676449         0.433485359
     0.824928224         0.542676449         0.933485389
     0.175069436         0.457347453         0.066493943
     0.175069436         0.457347453         0.566493928
     0.175069436         0.957347453         0.066493943
     0.175069436         0.957347453         0.566493928
     0.675069451         0.457347453         0.066493943
     0.675069451         0.457347453         0.566493928
     0.675069451         0.957347453         0.066493943
     0.675069451         0.957347453         0.566493928
     0.463106066         0.064019680         0.130220726
     0.463106066         0.064019680         0.630220711
     0.463106066         0.564019680         0.130220726
     0.463106066         0.564019680         0.630220711
     0.963106036         0.064019680         0.130220726
     0.963106036         0.064019680         0.630220711
     0.963106036         0.564019680         0.130220726
     0.963106036         0.564019680         0.630220711
     0.037006106         0.435945421         0.369768918
     0.037006106         0.435945421         0.869768918
     0.037006106         0.935945392         0.369768918
     0.037006106         0.935945392         0.869768918
     0.537006080         0.435945421         0.369768918
     0.537006080         0.435945421         0.869768918
     0.537006080         0.935945392         0.369768918
     0.537006080         0.935945392         0.869768918
