Mn Te S  O  Ca
1.0
        9.0458211899         0.0000000000         0.0000000000
       -0.0001289725        18.6262836452         0.0000000000
       -0.0001177208         0.0000311208        10.1617031090
   Ca   Mn   Te    S    O 
   7    16    8    8   64    
Direct
     0.966177285         0.249979079         0.750005603
     0.034065962         0.999950111         0.249993712
     0.034065962         0.499950111         0.249993712
     0.034057379         0.250024587         0.250047415
     0.034057379         0.750024557         0.250047415
     0.966106594         0.000037936         0.750045538
     0.966177285         0.749979079         0.750005603
     0.382973462         0.032542765         0.102338187
     0.382973462         0.532542765         0.102338187
     0.616994798         0.282556802         0.897690594
     0.616994798         0.782556772         0.897690594
     0.382941216         0.467456430         0.397653669
     0.382941216         0.967456460         0.397653669
     0.617064059         0.217476785         0.602346480
     0.617064059         0.717476785         0.602346480
     0.617018461         0.467445105         0.897672117
     0.617018461         0.967445135         0.897672117
     0.382942617         0.217454821         0.102345169
     0.382942617         0.717454791         0.102345169
     0.617114842         0.032530908         0.602352619
     0.617114842         0.532530904         0.602352619
     0.382924676         0.282543093         0.397649348
     0.382924676         0.782543063         0.397649348
     0.642165124         0.124990150         0.305081040
     0.642165124         0.624990165         0.305081040
     0.357845157         0.374973506         0.694885314
     0.357845157         0.874973536         0.694885314
     0.642094314         0.374972761         0.194935128
     0.642094314         0.874972761         0.194935128
     0.357854784         0.124989636         0.805083930
     0.357854784         0.624989629         0.805083930
     0.009076953         0.125009298         0.010571599
     0.009076953         0.625009298         0.010571599
     0.990910649         0.375006974         0.989468277
     0.990910649         0.875006974         0.989468277
     0.008969069         0.375003308         0.489433765
     0.008969069         0.875003338         0.489433765
     0.991003931         0.124985062         0.510554790
     0.991003931         0.624985039         0.510554790
     0.172102973         0.124994583         0.042303618
     0.172102973         0.624994576         0.042303618
     0.827919662         0.374998599         0.957718074
     0.827919662         0.874998569         0.957718074
     0.171988830         0.375004262         0.457636744
     0.171988830         0.875004292         0.457636744
     0.828020334         0.125000998         0.542413950
     0.828020334         0.625001013         0.542413950
     0.497739196         0.124997996         0.170209780
     0.497739196         0.624997973         0.170209780
     0.502374053         0.374999315         0.829705596
     0.502374053         0.874999285         0.829705596
     0.497699291         0.375001192         0.329754800
     0.497699291         0.875001192         0.329754800
     0.502354085         0.125001878         0.670231581
     0.502354085         0.625001907         0.670231581
     0.991732478         0.125016406         0.863362968
     0.991732478         0.625016391         0.863362968
     0.008156527         0.374987125         0.136703864
     0.008156527         0.874987125         0.136703864
     0.991793334         0.375006378         0.636652768
     0.991793334         0.875006378         0.636652768
     0.008185307         0.124987498         0.363335311
     0.008185307         0.624987483         0.363335311
     0.265297949         0.999989152         0.249956131
     0.265297949         0.499989152         0.249956131
     0.734608948         0.249988377         0.749962330
     0.734608948         0.749988377         0.749962330
     0.734628141         0.000021207         0.749974787
     0.734628141         0.500021219         0.749974787
     0.265343964         0.249996632         0.249966636
     0.265343964         0.749996662         0.249966636
     0.569132030         0.045611069         0.404313624
     0.569132030         0.545611084         0.404313624
     0.430777818         0.295615673         0.595668554
     0.430777818         0.795615673         0.595668554
     0.569102645         0.454410315         0.095600039
     0.569102645         0.954410315         0.095600039
     0.430869281         0.204394042         0.904314339
     0.430869281         0.704394042         0.904314339
     0.430834442         0.454414815         0.595630109
     0.430834442         0.954414845         0.595630109
     0.569120526         0.204402953         0.404338092
     0.569120526         0.704402924         0.404338092
     0.430854857         0.045610577         0.904317141
     0.430854857         0.545610547         0.904317141
     0.569128394         0.295607209         0.095616020
     0.569128394         0.795607209         0.095616020
     0.061877422         0.440034837         0.933059037
     0.061877422         0.940034866         0.933059037
     0.938121259         0.190012470         0.067034177
     0.938121259         0.690012455         0.067034177
     0.062064007         0.059976209         0.567010403
     0.062064007         0.559976220         0.567010403
     0.937952399         0.309989065         0.433046341
     0.937952399         0.809989095         0.433046341
     0.938093901         0.060009371         0.067050099
     0.938093901         0.560009360         0.067050099
     0.061857142         0.309977472         0.933012009
     0.061857142         0.809977472         0.933012009
     0.937944233         0.440006465         0.432975680
     0.937944233         0.940006495         0.432975680
     0.062023271         0.190006718         0.566970706
     0.062023271         0.690006733         0.566970706
