Ca4 V4 F20
1.0
   8.9422519999999999    0.0000000000000000    0.0000000000000000
   0.0000000000000000    5.2655459999999996    0.0000000000000000
   0.0000000000000000    4.9748299999999999    8.0883450000000003
Ca V F
4 4 20
direct
   0.5928249999999990    0.1695610000000000    0.7108150000000000 Ca
   0.0928249999999990    0.8304389999999990    0.7891849999999990 Ca
   0.9071750000000000    0.1695610000000000    0.2108150000000000 Ca
   0.4071750000000000    0.8304389999999990    0.2891849999999990 Ca
   0.1290460000000000    0.4917979999999990    0.3757629999999990 V
   0.6290460000000000    0.5082019999999990    0.1242370000000000 V
   0.3709540000000000    0.4917979999999990    0.8757630000000000 V
   0.8709540000000000    0.5082019999999990    0.6242369999999990 V
   0.7135770000000000    0.8118590000000000    0.1217660000000000 F
   0.7184370000000000    0.4528270000000000    0.5083500000000001 F
   0.8000670000000000    0.1596870000000000    0.8006660000000000 F
   0.0191140000000000    0.2329969999999990    0.5926400000000001 F
   0.4760859999999990    0.5254989999999991    0.2538110000000000 F
   0.9760860000000000    0.4745010000000000    0.2461890000000000 F
   0.5191140000000000    0.7670030000000000    0.9073600000000001 F
   0.2135770000000000    0.1881410000000000    0.3782339999999990 F
   0.7815630000000000    0.4528270000000000    0.0083500000000000 F
   0.3000670000000000    0.8403130000000000    0.6993340000000000 F
   0.6999329999999990    0.1596870000000000    0.3006660000000000 F
   0.2184370000000000    0.5471730000000000    0.9916500000000000 F
   0.7864230000000000    0.8118590000000000    0.6217659999999990 F
   0.4808860000000000    0.2329969999999990    0.0926400000000000 F
   0.0239139999999990    0.5254989999999991    0.7538110000000000 F
   0.5239140000000000    0.4745010000000000    0.7461890000000000 F
   0.9808859999999990    0.7670030000000000    0.4073600000000001 F
   0.1999330000000000    0.8403130000000000    0.1993339999999990 F
   0.2815630000000000    0.5471730000000000    0.4916500000000000 F
   0.2864230000000000    0.1881410000000000    0.8782340000000000 F
