Ca V  F 
 1.0000000000000000
     8.9422519999999999    0.0000000000000000    0.0000000000000000
     0.0000000000000000    5.2655459999999996    0.0000000000000000
     0.0000000000000000    4.9748299999999999    8.0883450000000003
 Ca  V   F  
   4   4  20
Cartesian
  4.8710961585263659  3.9674180506450840  5.3113234710246537
  0.3999701585263571  8.7603729493549309  6.8211940289753530
  8.5422818414736348  1.4800030506450634  1.2671509710246480
  4.0711558414736340  6.2729579493548995  2.7770215289753355
  1.3979302925057704  4.2136480142090678  3.2170761728920891
  5.8690562925057579  3.5393129857908883  0.8270963271078893
  3.0731957074942149  6.7010630142090974  7.2612486728920889
  7.5443217074942019  6.0267279857908989  4.8712688271078859
  6.8692276649658996  5.1500833772464434  0.9125612572578883
  5.9832939307309294  5.2935707692997340  3.8236519206456063
  7.0300845789318469  4.7812667786115224  6.2122694640664937
  0.1639651236816506  4.0931648097987372  4.7100638843131692
  4.4497315711048824  4.1724955528661543  2.0105475403119932
  8.9208575711048965  3.5804654471337929  2.0336249596880003
  4.6350911236816073  8.6346261902012404  7.4224536156868197
  2.3981016649659166  2.6028776227535038  3.1316112427420966
  7.4300840692690446  2.8061557692997128 -0.2205205793543953
  2.5589585789318221  7.9465242213884881  5.9202480359335006
  6.3832934210681422  2.2938517786115051  2.1680969640665015
  1.5121679307309266  7.4342202307002712  8.3088655793543822
  6.5441503350340753  7.6374983772464615  4.9567337572578900
  4.3071608763183651  1.6057498097987390  0.6658913843131705
  0.0213944288950876  6.6599105528661990  6.0547200403119845
  4.4925204288950802  6.0678804471338257  6.0777974596879885
  8.7782868763183579  6.1472111902012534  3.3782811156868107
  1.9121674210681454  5.4591092213884682  1.8760755359334851
  2.9589580692690673  4.9468052307002477  4.2646930793543705
  2.0730243350340563  5.0902926227535295  7.1757837427420847
