V  O 
 1.0000000000000000
     0.0000000000000000   -3.6936059999999999    0.0000000000000000
    -7.7866450000000000    1.8468030000000000    0.0000000000000000
     3.0461369999999999    0.0000000000000000   -9.8078970000000005
 V   O  
   6  15
Cartesian
 -1.4386070840001708 -0.0000002866061651 -1.0998493908831677
 -3.3019009159998243 -1.8468027133938307 -8.7080476091168304
 -4.9128588650623763 -0.0000003332789940 -1.0037384853209053
  0.1723508650623801 -1.8468026667210031 -8.8041585146790915
 -3.2077838732944732 -0.0000001280193712 -4.0027316407081175
 -1.5327241267055254 -1.8468028719806269 -5.8051653592918759
  0.0000000000000012  0.0000000000000012  0.0000000000000027
 -4.7504611180652754 -1.8468030180580988 -0.5077393817757249
  0.0099531180652763  0.0000000180581018 -9.3001576182242758
 -1.8447106067153818 -1.8468031824704876 -0.7230480377884313
 -2.8957973932846164  0.0000001824704907 -9.0848489622115629
 -6.0988296213176900 -0.0000002516400416 -2.0751549068411084
  1.3583216213177010 -1.8468027483599552 -7.7327420931588948
 -3.3852395882310633 -0.0000000058020983 -2.1341105478957680
 -1.3552684117689280 -1.8468029941978987 -7.6737864521042258
 -0.8284892005430409 -0.0000001733639262 -2.5981864585782564
 -3.9120187994569542 -1.8468028266360730 -7.2097105414217415
 -2.0622000365701849 -0.0000001315279703 -5.6400473296778486
 -2.6783079634298135 -1.8468028684720268 -4.1678496703221439
 -4.7196117989491810 -0.0000000903100383 -4.4966446232254391
 -0.0208962010508184 -1.8468029096899592 -5.3112523767745516
