Ca Mn P  O 
1.0
       11.0826168060         0.0000000000         0.0000000000
       -0.0000240127         7.2133011818         0.0000000000
       -0.0000465889         3.4941476431         7.5621727379
   Ca   Mn    P    O
    3    4    8   28
Direct
     0.718786418         0.613288760         0.379559994
     0.781177938         0.613291264         0.879508436
     0.218827099         0.386713147         0.120522343
     0.412497520         0.760575712         0.741296053
     0.087490834         0.760587990         0.241326764
     0.912514329         0.239388183         0.758676052
     0.587541878         0.239403263         0.258662611
     0.157935038         0.954560757         0.795633256
     0.342065066         0.954455078         0.295655161
     0.084984705         0.627399147         0.692866862
     0.415042102         0.627320170         0.193004072
     0.584964693         0.372568756         0.807062447
     0.915040433         0.372535795         0.307082325
     0.657910943         0.045492053         0.704407394
     0.842071593         0.045463324         0.204393521
     0.289297581         0.006269693         0.730162323
     0.141854480         0.798465729         0.986084998
     0.593773663         0.841350377         0.749889314
     0.092033952         0.860817850         0.670299828
     0.210729435         0.006306171         0.230198801
     0.358130753         0.798503816         0.486166745
     0.385922462         0.622269213         0.015683278
     0.906223595         0.841404140         0.249898627
     0.407989681         0.860942841         0.170145914
     0.186404720         0.506084263         0.821709991
     0.114135765         0.622298956         0.515534878
     0.457007200         0.446450740         0.743574440
     0.956999898         0.553571641         0.756420076
     0.313514203         0.506042600         0.321721971
     0.686403334         0.493946493         0.678248286
     0.043000940         0.446495205         0.243650436
     0.543083310         0.553555310         0.256335825
     0.885896444         0.377736360         0.484354258
     0.813602567         0.493915617         0.178338468
     0.592085779         0.139190540         0.829682648
     0.093776546         0.158636183         0.750099838
     0.614065230         0.377649128         0.984380722
     0.641853154         0.201528519         0.514003634
     0.789291680         0.993839383         0.769787967
     0.907904744         0.139127612         0.329718888
     0.406124741         0.158602059         0.250064105
     0.858133674         0.201431036         0.013968484
     0.710732698         0.993807614         0.269798040
