Ca V  Fe P  O 
1.0
        8.4517383575         0.0000000000         0.0000000000
       -0.0000009859         7.4037084579         0.0000000000
       -0.0000013368         3.5679236995         9.3840030453
   Ca    V   Fe    P    O
    3    2    2    8   28
Direct
     0.592317343         0.737262368         0.997161269
     0.091999695         0.261641800         0.501115441
     0.092318282         0.262740493         0.002836347
     0.007532477         0.731206059         0.495358050
     0.507540524         0.268794388         0.504642606
     0.011727852         0.737271488         0.991203666
     0.511732697         0.262727410         0.008794214
     0.234459341         0.892207325         0.696314573
     0.307641596         0.497030497         0.694037318
     0.807639241         0.502962649         0.305974483
     0.230585933         0.891186237         0.195956439
     0.734438598         0.107785933         0.303685933
     0.308370262         0.494722426         0.194512427
     0.808367729         0.505291522         0.805470526
     0.730578959         0.108833037         0.804013848
     0.343729317         0.727458179         0.664118409
     0.079180390         0.915219009         0.609847128
     0.809241116         0.617119372         0.644545853
     0.149120092         0.481487066         0.624168694
     0.450216264         0.459145010         0.614236474
     0.707254469         0.172513962         0.644428134
     0.327100605         0.079733208         0.628636122
     0.827126563         0.920222104         0.371382743
     0.207254991         0.827494085         0.355563313
     0.950203776         0.540841579         0.385754764
     0.649131596         0.518510699         0.375825256
     0.309239596         0.382877171         0.355454326
     0.579164207         0.084785059         0.390161484
     0.843747139         0.272594035         0.335884959
     0.340411067         0.725435197         0.165890381
     0.077284232         0.915037692         0.106899068
     0.806284428         0.615995347         0.146139920
     0.149280965         0.474822640         0.128039166
     0.451589733         0.458186448         0.114959233
     0.715106189         0.171877056         0.143776715
     0.323975980         0.078577787         0.130817652
     0.824002802         0.921379745         0.869202554
     0.215110913         0.828140616         0.856194735
     0.951599300         0.541809440         0.885050058
     0.649272084         0.525178790         0.871967256
     0.306280017         0.383999437         0.853861630
     0.577260077         0.084961370         0.893116891
     0.840420961         0.274573237         0.834114373
