Ca Co O 
1.0
        9.7223482132         0.0000000000         0.0000000000
        0.0000000000        10.0612230301         0.0000000000
        0.0000000000         0.0000000000        10.8547048569
   Ca   Co    O
   17   24   48
Direct
     0.333333343         0.692902982         0.500000000
     0.000000000         0.346650630         0.500000000
     0.333333343         0.346650630         0.500000000
     0.666666687         0.346650630         0.500000000
     0.000000000         0.692902982         0.500000000
     0.000000000         0.009671750         0.000000000
     0.333333343         0.009671750         0.000000000
     0.666666687         0.009671750         0.000000000
     0.166666672         0.653349340         0.000000000
     0.500000000         0.653349340         0.000000000
     0.833333313         0.653349340         0.000000000
     0.166666672         0.990328252         0.500000000
     0.500000000         0.990328252         0.500000000
     0.833333313         0.990328252         0.500000000
     0.166666672         0.307097018         0.000000000
     0.500000000         0.307097018         0.000000000
     0.833333313         0.307097018         0.000000000
     0.000000000         0.870289862         0.747755051
     0.333333343         0.870289862         0.747755051
     0.666666687         0.870289862         0.747755051
     0.000000000         0.870289862         0.252244979
     0.333333343         0.870289862         0.252244979
     0.666666687         0.870289862         0.252244979
     0.000000000         0.383159935         0.764935195
     0.333333343         0.383159935         0.764935195
     0.666666687         0.383159935         0.764935195
     0.000000000         0.383159935         0.235064805
     0.333333343         0.383159935         0.235064805
     0.666666687         0.383159935         0.235064805
     0.166666672         0.616840065         0.735064805
     0.500000000         0.616840065         0.735064805
     0.833333313         0.616840065         0.735064805
     0.166666672         0.616840065         0.264935195
     0.500000000         0.616840065         0.264935195
     0.833333313         0.616840065         0.264935195
     0.166666672         0.129710138         0.247755036
     0.500000000         0.129710138         0.247755036
     0.833333313         0.129710138         0.247755036
     0.166666672         0.129710138         0.752244949
     0.500000000         0.129710138         0.752244949
     0.833333313         0.129710138         0.752244949
     0.000000000         0.721676648         0.851724684
     0.333333343         0.721676648         0.851724684
     0.666666687         0.721676648         0.851724684
     0.000000000         0.208254606         0.864181519
     0.333333343         0.208254606         0.864181519
     0.666666687         0.208254606         0.864181519
     0.000000000         0.721676648         0.148275271
     0.333333343         0.721676648         0.148275271
     0.666666687         0.721676648         0.148275271
     0.000000000         0.529920459         0.641649425
     0.333333343         0.529920459         0.641649425
     0.666666687         0.529920459         0.641649425
     0.000000000         0.208254606         0.135818511
     0.333333343         0.208254606         0.135818511
     0.666666687         0.208254606         0.135818511
     0.000000000         0.032457359         0.649009585
     0.333333343         0.032457359         0.649009585
     0.666666687         0.032457359         0.649009585
     0.000000000         0.529920459         0.358350575
     0.333333343         0.529920459         0.358350575
     0.666666687         0.529920459         0.358350575
     0.000000000         0.032457359         0.350990415
     0.333333343         0.032457359         0.350990415
     0.666666687         0.032457359         0.350990415
     0.166666672         0.470079511         0.858350515
     0.500000000         0.470079511         0.858350515
     0.833333313         0.470079511         0.858350515
     0.166666672         0.967542648         0.850990415
     0.500000000         0.967542648         0.850990415
     0.833333313         0.967542648         0.850990415
     0.166666672         0.791745365         0.635818541
     0.500000000         0.791745365         0.635818541
     0.833333313         0.791745365         0.635818541
     0.166666672         0.278323382         0.648275256
     0.500000000         0.278323382         0.648275256
     0.833333313         0.278323382         0.648275256
     0.166666672         0.967542648         0.149009585
     0.500000000         0.967542648         0.149009585
     0.833333313         0.967542648         0.149009585
     0.166666672         0.791745365         0.364181489
     0.500000000         0.791745365         0.364181489
     0.833333313         0.791745365         0.364181489
     0.166666672         0.470079511         0.141649440
     0.500000000         0.470079511         0.141649440
     0.833333313         0.470079511         0.141649440
     0.166666672         0.278323382         0.351724714
     0.500000000         0.278323382         0.351724714
     0.833333313         0.278323382         0.351724714
