Ca Mn V  P  O 
1.0
        8.4931516647         0.0000000000         0.0000000000
        0.0000000000        10.0504589081         0.0000000000
        0.0000000000         0.2228591039        13.8650637284
   Ca   Mn    V    P    O
    7    4    4   16   56
Direct
     0.409927517         0.568947792         0.629690647
     0.904486597         0.185320929         0.867387474
     0.904486597         0.685320914         0.867387474
     0.404486626         0.314679086         0.132612497
     0.404486626         0.814679086         0.132612497
     0.909927487         0.431052238         0.370309263
     0.909927487         0.931052208         0.370309263
     0.988743365         0.071900032         0.630557358
     0.988743365         0.571900010         0.630557358
     0.488743395         0.428100020         0.369442642
     0.488743395         0.928099990         0.369442642
     0.492822498         0.176956177         0.867147386
     0.492822498         0.676956177         0.867147386
     0.992822528         0.323043823         0.132852584
     0.992822528         0.823043823         0.132852584
     0.190195352         0.068282209         0.247034431
     0.190195352         0.568282187         0.247034431
     0.770477831         0.080810606         0.052360848
     0.770477831         0.580810606         0.052360848
     0.263709188         0.171777830         0.445660442
     0.263709188         0.671777844         0.445660442
     0.694959998         0.182678372         0.250633538
     0.694959998         0.682678342         0.250633538
     0.194959745         0.317321539         0.749366462
     0.194959745         0.817321539         0.749366462
     0.763709605         0.328220785         0.554340422
     0.763709605         0.828220785         0.554340422
     0.270477861         0.419189453         0.947639108
     0.270477861         0.919189453         0.947639108
     0.690195680         0.431717753         0.752965510
     0.690195680         0.931717753         0.752965510
     0.849151254         0.001446038         0.765028596
     0.849151254         0.501446009         0.765028596
     0.547925055         0.020793986         0.771002829
     0.547925055         0.520793974         0.771002829
     0.698381066         0.053086642         0.309182346
     0.698381066         0.553086638         0.309182346
     0.421334773         0.096085489         0.457064986
     0.421334773         0.596085489         0.457064986
     0.296377212         0.063225403         0.918619156
     0.296377212         0.563225389         0.918619156
     0.158474237         0.094707638         0.362510622
     0.158474237         0.594707608         0.362510622
     0.674986720         0.099957839         0.959781289
     0.674986720         0.599957824         0.959781289
     0.661936402         0.150063798         0.135786623
     0.661936402         0.650063813         0.135786623
     0.171927601         0.147969618         0.539145291
     0.171927601         0.647969604         0.539145291
     0.922454357         0.164567858         0.039736833
     0.922454357         0.664567828         0.039736833
     0.777236462         0.184370294         0.587212265
     0.777236462         0.684370279         0.587212265
     0.186677024         0.201825708         0.192394435
     0.186677024         0.701825738         0.192394435
     0.051651891         0.229121357         0.731819034
     0.051651891         0.729121327         0.731819034
     0.851746202         0.258569539         0.257359922
     0.851746202         0.758569539         0.257359922
     0.351746291         0.241430432         0.742640078
     0.351746291         0.741430402         0.742640078
     0.551651716         0.270878762         0.268181026
     0.551651716         0.770878792         0.268181026
     0.686676979         0.298174292         0.807605624
     0.686676979         0.798174262         0.807605624
     0.277236611         0.315630674         0.412787467
     0.277236611         0.815630674         0.412787467
     0.422454387         0.335432142         0.960263133
     0.422454387         0.835432172         0.960263133
     0.671927035         0.352030575         0.460854143
     0.671927035         0.852030575         0.460854143
     0.161936462         0.349936217         0.864213407
     0.161936462         0.849936247         0.864213407
     0.174986705         0.400042176         0.040218733
     0.174986705         0.900042176         0.040218733
     0.658474207         0.405292422         0.637489378
     0.658474207         0.905292392         0.637489378
     0.796377242         0.436774522         0.081380889
     0.796377242         0.936774492         0.081380889
     0.921334982         0.403914660         0.542934954
     0.921334982         0.903914690         0.542934954
     0.198381081         0.446913362         0.690817654
     0.198381081         0.946913362         0.690817654
     0.047925208         0.479206085         0.228997186
     0.047925208         0.979206085         0.228997186
     0.349151373         0.498553872         0.234971479
     0.349151373         0.998553872         0.234971479
