Ca V  P  O 
1.0
       13.7011213303         0.0000000000         0.0000000000
        0.0000013821        10.3795976639         0.0000000000
        0.0000000000        -0.1370967946        19.2661175962
   Ca    V    P    O
    7   16   40  128
Direct
     0.200326145         0.362542927         0.519667268
     0.700326145         0.362542927         0.519667268
     0.700326145         0.862542927         0.519667268
     0.299673855         0.362542838         0.019667258
     0.299673855         0.862542868         0.019667258
     0.799673855         0.362542838         0.019667258
     0.799673855         0.862542868         0.019667258
     0.414053112         0.363311291         0.594341159
     0.414053112         0.863311291         0.594341159
     0.914053082         0.363311291         0.594341159
     0.914053082         0.863311291         0.594341159
     0.085946791         0.363311231         0.094340734
     0.085946791         0.863311231         0.094340734
     0.585946798         0.363311231         0.094340734
     0.585946798         0.863311231         0.094340734
     0.413999885         0.133352652         0.906587720
     0.413999885         0.633352637         0.906587720
     0.913999915         0.133352652         0.906587720
     0.913999915         0.633352637         0.906587720
     0.086000137         0.133352280         0.406587183
     0.086000137         0.633352280         0.406587183
     0.586000144         0.133352280         0.406587183
     0.586000144         0.633352280         0.406587183
     0.260705352         0.119318210         0.634297848
     0.260705352         0.619318187         0.634297848
     0.760705352         0.119318210         0.634297848
     0.760705352         0.619318187         0.634297848
     0.239295065         0.119319230         0.134297371
     0.239295065         0.619319201         0.134297371
     0.739295065         0.119319230         0.134297371
     0.739295065         0.619319201         0.134297371
     0.266514808         0.383647412         0.865346551
     0.266514808         0.883647442         0.865346551
     0.766514778         0.383647412         0.865346551
     0.766514778         0.883647442         0.865346551
     0.435364008         0.105333909         0.079352155
     0.435364008         0.605333924         0.079352155
     0.935364008         0.105333909         0.079352155
     0.935364008         0.605333924         0.079352155
     0.233484924         0.383648306         0.365346432
     0.233484924         0.883648276         0.365346432
     0.733484924         0.383648306         0.365346432
     0.733484924         0.883648276         0.365346432
     0.126287028         0.004066307         0.249581426
     0.126287028         0.504066288         0.249581426
     0.626287043         0.004066307         0.249581426
     0.626287043         0.504066288         0.249581426
     0.373712093         0.004055796         0.749573410
     0.373712093         0.504055798         0.749573410
     0.873712063         0.004055796         0.749573410
     0.873712063         0.504055798         0.749573410
     0.429791331         0.391436458         0.423204094
     0.429791331         0.891436458         0.423204094
     0.929791331         0.391436458         0.423204094
     0.929791331         0.891436458         0.423204094
     0.064636037         0.105334103         0.579352379
     0.064636037         0.605334103         0.579352379
     0.564636052         0.105334103         0.579352379
     0.564636052         0.605334103         0.579352379
     0.070209466         0.391435832         0.923204422
     0.070209466         0.891435862         0.923204422
     0.570209444         0.391435832         0.923204422
     0.570209444         0.891435862         0.923204422
     0.069947757         0.428191870         0.197314218
     0.069947757         0.928191900         0.197314218
     0.569947779         0.428191870         0.197314218
     0.569947779         0.928191900         0.197314218
     0.469460785         0.027558658         0.430240959
     0.469460785         0.527558684         0.430240959
     0.969460785         0.027558658         0.430240959
     0.969460785         0.527558684         0.430240959
     0.296061367         0.100406073         0.712408483
     0.296061367         0.600406051         0.712408483
     0.796061397         0.100406073         0.712408483
     0.796061397         0.600406051         0.712408483
     0.203492507         0.010724720         0.087933093
     0.203492507         0.510724723         0.087933093
     0.703492522         0.010724720         0.087933093
     0.703492522         0.510724723         0.087933093
     0.479034692         0.182345793         0.605042040
     0.479034692         0.682345808         0.605042040
     0.979034662         0.182345793         0.605042040
     0.979034662         0.682345808         0.605042040
     0.430049360         0.428196460         0.697317004
     0.430049360         0.928196430         0.697317004
     0.930049360         0.428196460         0.697317004
     0.930049360         0.928196430         0.697317004
     0.020965228         0.182345524         0.105042078
     0.020965228         0.682345510         0.105042078
     0.520965219         0.182345524         0.105042078
     0.520965219         0.682345510         0.105042078
     0.296507478         0.010724677         0.587933004
     0.296507478         0.510724664         0.587933004
     0.796507478         0.010724677         0.587933004
     0.796507478         0.510724664         0.587933004
     0.298632711         0.403639436         0.787153482
     0.298632711         0.903639436         0.787153482
     0.798632741         0.403639436         0.787153482
     0.798632741         0.903639436         0.787153482
     0.189495787         0.485703915         0.414003193
     0.189495787         0.985703945         0.414003193
     0.689495802         0.485703915         0.414003193
     0.689495802         0.985703945         0.414003193
     0.145345256         0.112128757         0.642990410
     0.145345256         0.612128735         0.642990410
     0.645345271         0.112128757         0.642990410
     0.645345271         0.612128735         0.642990410
     0.151966527         0.399118900         0.859970152
     0.151966527         0.899118900         0.859970152
     0.651966512         0.399118900         0.859970152
     0.651966512         0.899118900         0.859970152
     0.310504317         0.485704064         0.914003313
     0.310504317         0.985704064         0.914003313
     0.810504317         0.485704064         0.914003313
     0.810504317         0.985704064         0.914003313
     0.426536262         0.082317665         0.802781165
     0.426536262         0.582317650         0.802781165
     0.926536262         0.082317665         0.802781165
     0.926536262         0.582317650         0.802781165
     0.201367363         0.403639138         0.287153423
     0.201367363         0.903639138         0.287153423
     0.701367378         0.403639138         0.287153423
     0.701367378         0.903639138         0.287153423
     0.282807767         0.255788803         0.611834347
     0.282807767         0.755788803         0.611834347
     0.782807767         0.255788803         0.611834347
     0.782807767         0.755788803         0.611834347
     0.451083958         0.460146993         0.068006381
     0.451083958         0.960147023         0.068006381
     0.951083958         0.460146993         0.068006381
     0.951083958         0.960147023         0.068006381
     0.005362240         0.295258790         0.398469001
     0.005362240         0.795258760         0.398469001
     0.505362213         0.295258790         0.398469001
     0.505362213         0.795258760         0.398469001
     0.494637579         0.295258522         0.898468852
     0.494637579         0.795258522         0.898468852
     0.994637609         0.295258522         0.898468852
     0.994637609         0.795258522         0.898468852
     0.116709873         0.165027678         0.515707672
     0.116709873         0.665027678         0.515707672
     0.616709888         0.165027678         0.515707672
     0.616709888         0.665027678         0.515707672
     0.048915982         0.460146695         0.568006337
     0.048915982         0.960146666         0.568006337
     0.548915982         0.460146695         0.568006337
     0.548915982         0.960146666         0.568006337
     0.209305495         0.250196606         0.391231477
     0.209305495         0.750196576         0.391231477
     0.709305525         0.250196606         0.391231477
     0.709305525         0.750196576         0.391231477
     0.030539053         0.027559180         0.930240870
     0.030539053         0.527559161         0.930240870
     0.530539036         0.027559180         0.930240870
     0.530539036         0.527559161         0.930240870
     0.371706933         0.349090576         0.487566978
     0.371706933         0.849090576         0.487566978
     0.871706963         0.349090576         0.487566978
     0.871706963         0.849090576         0.487566978
     0.354654372         0.112128735         0.142990559
     0.354654372         0.612128735         0.142990559
     0.854654372         0.112128735         0.142990559
     0.854654372         0.612128735         0.142990559
     0.128292874         0.349090755         0.987566590
     0.128292874         0.849090755         0.987566590
     0.628292859         0.349090755         0.987566590
     0.628292859         0.849090755         0.987566590
     0.073467292         0.082312316         0.302777290
     0.073467292         0.582312346         0.302777290
     0.573467314         0.082312316         0.302777290
     0.573467314         0.582312346         0.302777290
     0.203938767         0.100405984         0.212408364
     0.203938767         0.600405991         0.212408364
     0.703938782         0.100405984         0.212408364
     0.703938782         0.600405991         0.212408364
     0.383290082         0.165027738         0.015707789
     0.383290082         0.665027738         0.015707789
     0.883290052         0.165027738         0.015707789
     0.883290052         0.665027738         0.015707789
     0.348033488         0.399118900         0.359970152
     0.348033488         0.899118900         0.359970152
     0.848033488         0.399118900         0.359970152
     0.848033488         0.899118900         0.359970152
     0.217192471         0.255788028         0.111834601
     0.217192471         0.755788028         0.111834601
     0.717192471         0.255788028         0.111834601
     0.717192471         0.755788028         0.111834601
     0.290694356         0.250197202         0.891231358
     0.290694356         0.750197172         0.891231358
     0.790694356         0.250197202         0.891231358
     0.790694356         0.750197172         0.891231358
