Ca Mn V  O 
1.0
        7.0791840553         0.0000000000         0.0000000000
        1.9135413217        14.0284620385         0.0000000000
        3.0454501330         2.6582393188        11.0880144210
   Ca   Mn    V    O
    7    4   20   48
Direct
     0.285488486         0.857255757         0.500000000
     0.715236962         0.142381534         0.250000000
     0.715236962         0.142381534         0.750000000
     0.715236962         0.642381549         0.750000000
     0.285488486         0.357255757         0.000000000
     0.285488486         0.357255757         0.500000000
     0.285488486         0.857255757         0.000000000
     0.082539700         0.458730161         0.250000000
     0.082539700         0.458730161         0.750000000
     0.082539700         0.958730161         0.250000000
     0.082539700         0.958730161         0.750000000
     0.918307185         0.040846433         0.000000000
     0.918307185         0.040846433         0.500000000
     0.918307185         0.540846407         0.000000000
     0.918307185         0.540846407         0.500000000
     0.805265546         0.305191576         0.994937062
     0.805265546         0.305191576         0.494937062
     0.805265546         0.805191576         0.994937062
     0.805265546         0.805191576         0.494937062
     0.612502635         0.402267456         0.243694052
     0.612502635         0.402267456         0.743694067
     0.612502635         0.902267456         0.243694052
     0.612502635         0.902267456         0.743694067
     0.389616847         0.097367227         0.505062938
     0.389616847         0.097367227         0.005062938
     0.389616847         0.597367227         0.505062938
     0.389616847         0.597367227         0.005062938
     0.195465028         0.193748653         0.256305933
     0.195465028         0.193748653         0.756305933
     0.195465028         0.693748653         0.256305933
     0.195465028         0.693748653         0.756305933
     0.985856950         0.398083568         0.447160363
     0.985856950         0.398083568         0.947160363
     0.985856950         0.898083568         0.447160363
     0.985856950         0.898083568         0.947160363
     0.896965921         0.182057738         0.035703138
     0.896965921         0.182057738         0.535703123
     0.896965921         0.682057738         0.035703138
     0.896965921         0.682057738         0.535703123
     0.797207952         0.492285252         0.194901273
     0.797207952         0.492285252         0.694901288
     0.797207952         0.992285252         0.194901273
     0.797207952         0.992285252         0.694901288
     0.626721501         0.327088147         0.396697223
     0.626721501         0.327088147         0.896697223
     0.626721501         0.827088118         0.396697223
     0.626721501         0.827088118         0.896697223
     0.635884583         0.051517047         0.464296848
     0.635884583         0.051517047         0.964296818
     0.635884583         0.551517069         0.464296848
     0.635884583         0.551517069         0.964296818
     0.647567093         0.313179046         0.148824483
     0.647567093         0.313179046         0.648824453
     0.647567093         0.813179016         0.148824483
     0.647567093         0.813179016         0.648824453
     0.345823705         0.186639249         0.103302784
     0.345823705         0.186639249         0.603302777
     0.345823705         0.686639249         0.103302784
     0.345823705         0.686639249         0.603302777
     0.369066656         0.451209962         0.281357884
     0.369066656         0.451209962         0.781357884
     0.369066656         0.951209962         0.281357884
     0.369066656         0.951209962         0.781357884
     0.373641938         0.176216483         0.351175517
     0.373641938         0.176216483         0.851175547
     0.373641938         0.676216483         0.351175517
     0.373641938         0.676216483         0.851175547
     0.203832895         0.007071528         0.052839633
     0.203832895         0.007071528         0.552839637
     0.203832895         0.507071555         0.052839633
     0.203832895         0.507071555         0.552839637
     0.097580060         0.315466672         0.218642130
     0.097580060         0.315466672         0.718642116
     0.097580060         0.815466642         0.218642130
     0.097580060         0.815466642         0.718642116
     0.015429460         0.101396009         0.305098742
     0.015429460         0.101396009         0.805098772
     0.015429460         0.601396024         0.305098742
     0.015429460         0.601396024         0.805098772
