Ca2 Mo6 P6 O26
1.0
       13.3312740326         0.0000000000         0.0000000000
        0.0000000000        15.3550157547         0.0000000000
        0.0000000000         3.5752773942        21.6374953706
   Ca   Mo    P    O
   15   48   48  208
Direct
     0.375000000         0.708947480         0.566990972
     0.375000000         0.208947495         0.066991001
     0.375000000         0.208947495         0.566990972
     0.375000000         0.708947480         0.066991001
     0.875000000         0.208947495         0.066991001
     0.875000000         0.208947495         0.566990972
     0.875000000         0.708947480         0.066991001
     0.875000000         0.708947480         0.566990972
     0.125000000         0.291052490         0.433008999
     0.125000000         0.291052490         0.933009028
     0.125000000         0.791052461         0.433008999
     0.125000000         0.791052461         0.933009028
     0.625000000         0.291052490         0.433008999
     0.625000000         0.291052490         0.933009028
     0.625000000         0.791052461         0.933009028
     0.125000000         0.319750488         0.101186998
     0.125000000         0.319750488         0.601186991
     0.125000000         0.819750488         0.101186998
     0.125000000         0.819750488         0.601186991
     0.625000000         0.319750488         0.101186998
     0.625000000         0.319750488         0.601186991
     0.625000000         0.819750488         0.101186998
     0.625000000         0.819750488         0.601186991
     0.375000000         0.180249497         0.398813009
     0.375000000         0.180249497         0.898813009
     0.375000000         0.680249512         0.398813009
     0.375000000         0.680249512         0.898813009
     0.875000000         0.180249497         0.398813009
     0.875000000         0.180249497         0.898813009
     0.875000000         0.680249512         0.398813009
     0.875000000         0.680249512         0.898813009
     0.125000000         0.116980501         0.225991994
     0.125000000         0.116980501         0.725991964
     0.125000000         0.616980493         0.225991994
     0.125000000         0.616980493         0.725991964
     0.625000000         0.116980501         0.225991994
     0.625000000         0.116980501         0.725991964
     0.625000000         0.616980493         0.225991994
     0.625000000         0.616980493         0.725991964
     0.250000000         0.000000000         0.000000000
     0.250000000         0.000000000         0.500000000
     0.250000000         0.500000000         0.000000000
     0.250000000         0.500000000         0.500000000
     0.750000000         0.000000000         0.000000000
     0.750000000         0.000000000         0.500000000
     0.750000000         0.500000000         0.000000000
     0.750000000         0.500000000         0.500000000
     0.375000000         0.383019507         0.274008006
     0.375000000         0.383019507         0.774008036
     0.375000000         0.883019507         0.274008006
     0.375000000         0.883019507         0.774008036
     0.875000000         0.383019507         0.274008006
     0.875000000         0.383019507         0.774008036
     0.875000000         0.883019507         0.274008006
     0.875000000         0.883019507         0.774008036
     0.000000000         0.000000000         0.000000000
     0.000000000         0.000000000         0.500000000
     0.000000000         0.500000000         0.000000000
     0.000000000         0.500000000         0.500000000
     0.500000000         0.000000000         0.000000000
     0.500000000         0.000000000         0.500000000
     0.500000000         0.500000000         0.000000000
     0.500000000         0.500000000         0.500000000
     0.125000000         0.393584013         0.240977004
     0.125000000         0.393584013         0.740976989
     0.125000000         0.893584013         0.240977004
     0.125000000         0.893584013         0.740976989
     0.625000000         0.393584013         0.240977004
     0.625000000         0.393584013         0.740976989
     0.625000000         0.893584013         0.240977004
     0.625000000         0.893584013         0.740976989
     0.375000000         0.106416002         0.259023011
     0.375000000         0.106416002         0.759023011
     0.375000000         0.606415987         0.259023011
     0.375000000         0.606415987         0.759023011
     0.875000000         0.106416002         0.259023011
     0.875000000         0.106416002         0.759023011
     0.875000000         0.606415987         0.259023011
     0.875000000         0.606415987         0.759023011
     0.125000000         0.132429495         0.386730492
     0.125000000         0.132429495         0.886730492
     0.125000000         0.632429481         0.386730492
     0.125000000         0.632429481         0.886730492
     0.625000000         0.132429495         0.386730492
     0.625000000         0.132429495         0.886730492
     0.625000000         0.632429481         0.386730492
     0.625000000         0.632429481         0.886730492
     0.375000000         0.367570490         0.113269500
     0.375000000         0.367570490         0.613269508
     0.375000000         0.867570519         0.113269500
     0.375000000         0.867570519         0.613269508
     0.875000000         0.367570490         0.113269500
     0.875000000         0.367570490         0.613269508
     0.875000000         0.867570519         0.113269500
     0.875000000         0.867570519         0.613269508
     0.375000000         0.346651495         0.438647509
     0.375000000         0.346651495         0.938647509
     0.375000000         0.846651495         0.438647509
     0.375000000         0.846651495         0.938647509
     0.875000000         0.346651495         0.438647509
     0.875000000         0.346651495         0.938647509
     0.875000000         0.846651495         0.438647509
     0.875000000         0.846651495         0.938647509
     0.125000000         0.153348505         0.061352499
     0.125000000         0.153348505         0.561352491
     0.125000000         0.653348505         0.061352499
     0.125000000         0.653348505         0.561352491
     0.625000000         0.153348505         0.061352499
     0.625000000         0.153348505         0.561352491
     0.625000000         0.653348505         0.061352499
     0.625000000         0.653348505         0.561352491
     0.375000000         0.323594511         0.371189505
     0.375000000         0.323594511         0.871189475
     0.375000000         0.823594511         0.371189505
     0.375000000         0.823594511         0.871189475
     0.875000000         0.323594511         0.371189505
     0.875000000         0.323594511         0.871189475
     0.875000000         0.823594511         0.371189505
     0.875000000         0.823594511         0.871189475
     0.281921506         0.129389003         0.218648493
     0.281921506         0.129389003         0.718648493
     0.281921506         0.629388988         0.218648493
     0.281921506         0.629388988         0.718648493
     0.781921506         0.129389003         0.218648493
     0.781921506         0.129389003         0.718648493
     0.781921506         0.629388988         0.218648493
     0.781921506         0.629388988         0.718648493
     0.125000000         0.103431500         0.324099511
     0.125000000         0.103431500         0.824099541
     0.125000000         0.603431523         0.324099511
     0.125000000         0.603431523         0.824099541
     0.625000000         0.103431500         0.324099511
     0.625000000         0.103431500         0.824099541
     0.625000000         0.603431523         0.324099511
     0.625000000         0.603431523         0.824099541
     0.277518511         0.394324511         0.449908495
     0.277518511         0.394324511         0.949908495
     0.277518511         0.894324541         0.449908495
     0.277518511         0.894324541         0.949908495
     0.777518511         0.394324511         0.449908495
     0.777518511         0.394324511         0.949908495
     0.777518511         0.894324541         0.449908495
     0.777518511         0.894324541         0.949908495
     0.375000000         0.168191001         0.310297489
     0.375000000         0.168191001         0.810297489
     0.375000000         0.668191016         0.310297489
     0.375000000         0.668191016         0.810297489
     0.875000000         0.168191001         0.310297489
     0.875000000         0.168191001         0.810297489
     0.875000000         0.668191016         0.310297489
     0.875000000         0.668191016         0.810297489
     0.375000000         0.067929499         0.452719003
     0.375000000         0.067929499         0.952718973
     0.375000000         0.567929506         0.452719003
     0.375000000         0.567929506         0.952718973
     0.875000000         0.067929499         0.452719003
     0.875000000         0.067929499         0.952718973
     0.875000000         0.567929506         0.452719003
     0.875000000         0.567929506         0.952718973
     0.125000000         0.331809014         0.189702496
     0.125000000         0.331809014         0.689702511
     0.125000000         0.831809044         0.189702496
     0.125000000         0.831809044         0.689702511
     0.625000000         0.331809014         0.189702496
     0.625000000         0.331809014         0.689702511
     0.625000000         0.831809044         0.189702496
     0.625000000         0.831809044         0.689702511
     0.027518500         0.105675504         0.050091501
     0.027518500         0.105675504         0.550091505
     0.027518500         0.605675519         0.050091501
     0.027518500         0.605675519         0.550091505
     0.527518511         0.105675504         0.050091501
     0.527518511         0.105675504         0.550091505
     0.527518511         0.605675519         0.050091501
     0.527518511         0.605675519         0.550091505
     0.125000000         0.489374012         0.205750495
     0.125000000         0.489374012         0.705750465
     0.125000000         0.989374042         0.205750495
     0.125000000         0.989374042         0.705750465
     0.625000000         0.489374012         0.205750495
     0.625000000         0.489374012         0.705750465
     0.625000000         0.989374042         0.205750495
     0.625000000         0.989374042         0.705750465
     0.375000000         0.010626000         0.294249505
     0.375000000         0.010626000         0.794249535
     0.375000000         0.510626018         0.294249505
     0.375000000         0.510626018         0.794249535
     0.875000000         0.010626000         0.294249505
     0.875000000         0.010626000         0.794249535
     0.875000000         0.510626018         0.294249505
     0.875000000         0.510626018         0.794249535
     0.034019500         0.189572498         0.399675995
     0.034019500         0.189572498         0.899675965
     0.034019500         0.689572513         0.399675995
     0.034019500         0.689572513         0.899675965
     0.534019470         0.189572498         0.399675995
     0.534019470         0.189572498         0.899675965
     0.534019470         0.689572513         0.399675995
     0.534019470         0.689572513         0.899675965
     0.125000000         0.432070494         0.047281001
     0.125000000         0.432070494         0.547281027
     0.125000000         0.932070494         0.047281001
     0.125000000         0.932070494         0.547281027
     0.625000000         0.432070494         0.047281001
     0.625000000         0.432070494         0.547281027
     0.625000000         0.932070494         0.047281001
     0.625000000         0.932070494         0.547281027
     0.284019500         0.310427487         0.100323997
     0.284019500         0.310427487         0.600323975
     0.284019500         0.810427487         0.100323997
     0.284019500         0.810427487         0.600323975
     0.784019470         0.310427487         0.100323997
     0.784019470         0.310427487         0.600323975
     0.784019470         0.810427487         0.100323997
     0.784019470         0.810427487         0.600323975
     0.375000000         0.250059485         0.475556999
     0.375000000         0.250059485         0.975556970
     0.375000000         0.750059485         0.475556999
     0.375000000         0.750059485         0.975556970
     0.875000000         0.250059485         0.475556999
     0.875000000         0.250059485         0.975556970
     0.875000000         0.750059485         0.475556999
     0.875000000         0.750059485         0.975556970
     0.375000000         0.396568507         0.175900504
     0.375000000         0.396568507         0.675900519
     0.375000000         0.896568537         0.175900504
     0.375000000         0.896568537         0.675900519
     0.875000000         0.396568507         0.175900504
     0.875000000         0.396568507         0.675900519
     0.875000000         0.896568537         0.175900504
     0.875000000         0.896568537         0.675900519
     0.222481504         0.105675504         0.050091501
     0.222481504         0.105675504         0.550091505
     0.222481504         0.605675519         0.050091501
     0.222481504         0.605675519         0.550091505
     0.722481489         0.105675504         0.050091501
     0.722481489         0.105675504         0.550091505
     0.722481489         0.605675519         0.050091501
     0.722481489         0.605675519         0.550091505
     0.468078494         0.129389003         0.218648493
     0.468078494         0.129389003         0.718648493
     0.468078494         0.629388988         0.218648493
     0.468078494         0.629388988         0.718648493
     0.968078494         0.129389003         0.218648493
     0.968078494         0.129389003         0.718648493
     0.968078494         0.629388988         0.218648493
     0.968078494         0.629388988         0.718648493
     0.218078494         0.370611012         0.281351507
     0.218078494         0.370611012         0.781351507
     0.218078494         0.870611012         0.281351507
     0.218078494         0.870611012         0.781351507
     0.718078494         0.370611012         0.281351507
     0.718078494         0.370611012         0.781351507
     0.718078494         0.870611012         0.281351507
     0.718078494         0.870611012         0.781351507
     0.215980500         0.189572498         0.399675995
     0.215980500         0.189572498         0.899675965
     0.215980500         0.689572513         0.399675995
     0.215980500         0.689572513         0.899675965
     0.715980530         0.189572498         0.399675995
     0.715980530         0.189572498         0.899675965
     0.715980530         0.689572513         0.399675995
     0.715980530         0.689572513         0.899675965
     0.125000000         0.176405504         0.128810495
     0.125000000         0.176405504         0.628810525
     0.125000000         0.676405489         0.128810495
     0.125000000         0.676405489         0.628810525
     0.625000000         0.176405504         0.128810495
     0.625000000         0.176405504         0.628810525
     0.625000000         0.676405489         0.128810495
     0.625000000         0.676405489         0.628810525
     0.375000000         0.453438014         0.061367501
     0.375000000         0.453438014         0.561367512
     0.375000000         0.953438044         0.061367501
     0.375000000         0.953438044         0.561367512
     0.875000000         0.453438014         0.061367501
     0.875000000         0.453438014         0.561367512
     0.875000000         0.953438044         0.061367501
     0.875000000         0.953438044         0.561367512
     0.125000000         0.046562001         0.438632488
     0.125000000         0.046562001         0.938632488
     0.125000000         0.546562016         0.438632488
     0.125000000         0.546562016         0.938632488
     0.625000000         0.046562001         0.438632488
     0.625000000         0.046562001         0.938632488
     0.625000000         0.546562016         0.438632488
     0.625000000         0.546562016         0.938632488
     0.465980500         0.310427487         0.100323997
     0.465980500         0.310427487         0.600323975
     0.465980500         0.810427487         0.100323997
     0.465980500         0.810427487         0.600323975
     0.965980530         0.310427487         0.100323997
     0.965980530         0.310427487         0.600323975
     0.965980530         0.810427487         0.100323997
     0.965980530         0.810427487         0.600323975
     0.472481489         0.394324511         0.449908495
     0.472481489         0.394324511         0.949908495
     0.472481489         0.894324541         0.449908495
     0.472481489         0.894324541         0.949908495
     0.972481489         0.394324511         0.449908495
     0.972481489         0.394324511         0.949908495
     0.972481489         0.894324541         0.449908495
     0.972481489         0.894324541         0.949908495
     0.031921498         0.370611012         0.281351507
     0.031921498         0.370611012         0.781351507
     0.031921498         0.870611012         0.281351507
     0.031921498         0.870611012         0.781351507
     0.531921506         0.370611012         0.281351507
     0.531921506         0.370611012         0.781351507
     0.531921506         0.870611012         0.281351507
     0.531921506         0.870611012         0.781351507
     0.125000000         0.249940500         0.024443001
     0.125000000         0.249940500         0.524443030
     0.125000000         0.749940515         0.024443001
     0.125000000         0.749940515         0.524443030
     0.625000000         0.249940500         0.024443001
     0.625000000         0.249940500         0.524443030
     0.625000000         0.749940515         0.024443001
     0.625000000         0.749940515         0.524443030
