Ca V  O  F 
 1.0000000000000000
     3.9535960000000001    0.0000000000000000    0.0000000000000000
     1.8194889999999999    8.0936640000000004    0.0000000000000000
     0.3744790000000000    1.3052030000000001    8.4664560000000009
 Ca  V   O   F  
   2   4   1  12
Cartesian
  2.0402923278727485  3.3105433293281816  2.6712490854260413
  4.0765563977671775  5.9331215203277701  5.9984812082630086
  2.0213522739076932  7.2303008363319670  3.0026649261595981
  3.9713213357105728  1.4001845442142644  0.0910302799176135
  1.7965084362557822  6.3880131289812292  0.0077704773339893
  4.1257522899377932  2.3791276867347464  5.3250388946489506
  1.8882554270985141  7.9212394977848861  1.2106516013168753
  4.1536303184199763  1.0534618714963144  3.8324565326023690
  4.0020615349700375  7.1390110928592589  3.3424517633932394
  1.9662918705065815  5.3858428433152010  1.8959858607116946
  3.9967987992030087  2.8686557517424616  1.5442496936045158
  1.9940360121836058  1.7135207773339345  0.1584658074123529
  2.0714300745324556  6.2007490061271673  4.7901106200617081
  4.0796026122829137  3.9465703481755456  3.9934704762135702
  4.1398608744252146  7.4858604697064317  8.0234012800528696
  2.1474040224344950  6.0014260109005901  7.2909655430000386
  4.2092940760792876  3.8641455783798278  6.7743713328752833
  2.1485024793567065  2.5332519570253149  5.0185374747271201
  4.2654792029483986  1.1821833428988624  6.9935231422791047
