La Ca Co Ag O 
1.0
        7.7633566856         0.0000000000         0.0000000000
        0.0227880288         7.7633232404         0.0000000000
        0.0000000000         0.0000000000         7.7805867195
   Ca   Ca   Co   Ag    O
    1    6    7    1   24
Direct
     0.221450284         0.778549671         0.278350532
     0.243673101         0.248293921         0.743448853
     0.243673101         0.248293921         0.256551117
     0.750613272         0.249386698         0.752796471
     0.750613272         0.249386698         0.247203514
     0.751706123         0.756326914         0.743448853
     0.751706123         0.756326914         0.256551117
     0.003308343         0.996691644         0.000000000
     0.996414006         0.003585935         0.500000000
     0.498986423         0.001573563         0.000000000
     0.496906310         0.001235008         0.500000000
     0.998426378         0.501013577         0.000000000
     0.998764992         0.503093660         0.500000000
     0.495653123         0.504346848         0.500000000
     0.485866338         0.514133632         0.000000000
     0.986684263         0.249213859         0.000000000
     0.004489694         0.247502387         0.500000000
     0.508813679         0.239308238         0.000000000
     0.497576237         0.251120836         0.500000000
     0.999508977         0.744652092         0.000000000
     0.002602142         0.753567576         0.500000000
     0.552195668         0.770808399         0.000000000
     0.507515073         0.748475194         0.500000000
     0.255347878         0.000491023         0.000000000
     0.246432438         0.997397900         0.500000000
     0.750786185         0.013315797         0.000000000
     0.752497613         0.995510280         0.500000000
     0.229191601         0.447804302         0.000000000
     0.251524806         0.492484957         0.500000000
     0.760691762         0.491186321         0.000000000
     0.748879194         0.502423763         0.500000000
     0.001016828         0.998983145         0.745889723
     0.001016828         0.998983145         0.254110277
     0.506245911         0.001973629         0.752402604
     0.506245911         0.001973629         0.247597337
     0.998026431         0.493754119         0.752402604
     0.998026431         0.493754119         0.247597337
     0.512737393         0.487262547         0.735484540
     0.512737393         0.487262547         0.264515460
