Ca V  Cr P  O  F 
1.0
       10.7200775146         0.0000000000         0.0000000000
       -2.6031639750        10.6198577471         0.0000000000
       -3.9140852168        -5.0880449511        13.2312341909
   Ca    V   Cr    P    O    F
    7    8    8   16   64   16
Direct
     0.831441045         0.668953896         0.143071607
     0.331441015         0.168953881         0.143071607
     0.331441015         0.168953881         0.643071592
     0.331441015         0.668953896         0.643071592
     0.831441045         0.168953881         0.143071607
     0.831441045         0.168953881         0.643071592
     0.831441045         0.668953896         0.643071592
     0.995783150         0.995791733         0.490172744
     0.995783150         0.995791733         0.990172744
     0.995783150         0.495791733         0.490172744
     0.995783150         0.495791733         0.990172744
     0.495783150         0.995791733         0.490172744
     0.495783150         0.995791733         0.990172744
     0.495783150         0.495791733         0.490172744
     0.495783150         0.495791733         0.990172744
     0.008013487         0.503615856         0.250787854
     0.008013487         0.503615856         0.750787854
     0.008013487         0.003615856         0.250787854
     0.008013487         0.003615856         0.750787854
     0.508013487         0.503615856         0.250787854
     0.508013487         0.503615856         0.750787854
     0.508013487         0.003615856         0.250787854
     0.508013487         0.003615856         0.750787854
     0.343090534         0.161339611         0.370489627
     0.343090534         0.161339611         0.870489597
     0.343090534         0.661339641         0.370489627
     0.343090534         0.661339641         0.870489597
     0.843090534         0.161339611         0.370489627
     0.843090534         0.161339611         0.870489597
     0.843090534         0.661339641         0.370489627
     0.843090534         0.661339641         0.870489597
     0.158501267         0.343664020         0.123399630
     0.158501267         0.343664020         0.623399615
     0.158501267         0.843664050         0.123399630
     0.158501267         0.843664050         0.623399615
     0.658501267         0.343664020         0.123399630
     0.658501267         0.343664020         0.623399615
     0.658501267         0.843664050         0.123399630
     0.658501267         0.843664050         0.623399615
     0.198627934         0.118168063         0.289210677
     0.198627934         0.118168063         0.789210677
     0.198627934         0.618168056         0.289210677
     0.198627934         0.618168056         0.789210677
     0.698627949         0.118168063         0.289210677
     0.698627949         0.118168063         0.789210677
     0.698627949         0.618168056         0.289210677
     0.698627949         0.618168056         0.789210677
     0.441623300         0.153742731         0.308263898
     0.441623300         0.153742731         0.808263898
     0.441623300         0.653742731         0.308263898
     0.441623300         0.653742731         0.808263898
     0.941623330         0.153742731         0.308263898
     0.941623330         0.153742731         0.808263898
     0.941623330         0.653742731         0.308263898
     0.941623330         0.653742731         0.808263898
     0.379111975         0.307720572         0.441269606
     0.379111975         0.307720572         0.941269636
     0.379111975         0.807720542         0.441269606
     0.379111975         0.807720542         0.941269636
     0.879112005         0.307720572         0.441269606
     0.879112005         0.307720572         0.941269636
     0.879112005         0.807720542         0.441269606
     0.879112005         0.807720542         0.941269636
     0.159531593         0.447705567         0.069446601
     0.159531593         0.447705567         0.569446623
     0.159531593         0.947705567         0.069446601
     0.159531593         0.947705567         0.569446623
     0.659531593         0.447705567         0.069446601
     0.659531593         0.447705567         0.569446623
     0.659531593         0.947705567         0.069446601
     0.659531593         0.947705567         0.569446623
     0.352136701         0.072518982         0.436685473
     0.352136701         0.072518982         0.936685443
     0.352136701         0.572519004         0.436685473
     0.352136701         0.572519004         0.936685443
     0.852136731         0.072518982         0.436685473
     0.852136731         0.072518982         0.936685443
     0.852136731         0.572519004         0.436685473
     0.852136731         0.572519004         0.936685443
     0.129886612         0.197128132         0.052592266
     0.129886612         0.197128132         0.552592278
     0.129886612         0.697128117         0.052592266
     0.129886612         0.697128117         0.552592278
     0.629886627         0.197128132         0.052592266
     0.629886627         0.197128132         0.552592278
     0.629886627         0.697128117         0.052592266
     0.629886627         0.697128117         0.552592278
     0.048162390         0.340973496         0.174502015
     0.048162390         0.340973496         0.674502015
     0.048162390         0.840973496         0.174502015
     0.048162390         0.840973496         0.674502015
     0.548162401         0.340973496         0.174502015
     0.548162401         0.340973496         0.674502015
     0.548162401         0.840973496         0.174502015
     0.548162401         0.840973496         0.674502015
     0.306067169         0.379939049         0.200705901
     0.306067169         0.379939049         0.700705886
     0.306067169         0.879939079         0.200705901
     0.306067169         0.879939079         0.700705886
     0.806067169         0.379939049         0.200705901
     0.806067169         0.379939049         0.700705886
     0.806067169         0.879939079         0.200705901
     0.806067169         0.879939079         0.700705886
     0.460077524         0.039170653         0.122806430
     0.460077524         0.039170653         0.622806430
     0.460077524         0.539170623         0.122806430
     0.460077524         0.539170623         0.622806430
     0.960077524         0.039170653         0.122806430
     0.960077524         0.039170653         0.622806430
     0.960077524         0.539170623         0.122806430
     0.960077524         0.539170623         0.622806430
     0.052508947         0.461830199         0.371067226
     0.052508947         0.461830199         0.871067226
     0.052508947         0.961830199         0.371067226
     0.052508947         0.961830199         0.871067226
     0.552508950         0.461830199         0.371067226
     0.552508950         0.461830199         0.871067226
     0.552508950         0.961830199         0.371067226
     0.552508950         0.961830199         0.871067226
