V  F 
 1.0000000000000000
     8.9422519999999999    0.0000000000000000    0.0000000000000000
     0.0000000000000000    5.2655459999999996    0.0000000000000000
     0.0000000000000000    4.9748299999999999    8.0883450000000003
 V   F  
   4  20
Cartesian
  1.1191442708586929  4.5156323888929579  3.0385394055095429
  5.5902702708586931  3.2373286111070425  1.0056330944904543
  3.3519817291413032  7.0030473888929583  7.0827119055095418
  7.8231077291413014  5.7247436111070460  5.0498055944904516
  6.4120100447224342  4.7661833664698268  0.9878021015618814
  6.6627809268994422  4.9321776369754042  3.9748926115024661
  7.2405849907375073  4.8990781838790642  6.4641672787713089
  0.0824323429475418  4.1212290596553380  4.6830854805720978
  4.1933365321363532  3.9169850123852927  1.8546117165898806
  8.6644625321363495  3.8359759876147090  2.1895607834101170
  4.5535583429475519  8.6065619403446671  7.4494320194278965
  1.9408840447224300  2.9867776335301710  3.0563703984381139
  6.7505970731005567  2.4447626369753985 -0.0692798884975231
  2.7694589907375171  7.8287128161209427  5.6683502212286827
  6.1727930092624792  2.4116631838790581  2.4199947787713127
  2.1916549268994441  7.7956133630246081  8.1576248884975211
  7.0013679552775621  7.2535983664698316  5.0319746015618723
  4.3886936570524515  1.6338140596553357  0.6389129805720986
  0.2777894678636399  6.4044000123852936  5.8987842165898874
  4.7489154678636396  6.3233909876147028  6.2337332834101131
  8.8598196570524586  6.1191469403446703  3.4052595194278998
  1.7016670092624770  5.3412978161209423  1.6241777212286836
  2.2794710731005563  5.3081983630245979  4.1134523884975263
  2.5302419552775635  5.4741926335301727  7.1005428984381203
