Ca Mn V  P  O 
 1.0000000000000000
     8.1505880000000008    0.0000000000000000    0.0000000000000000
    -0.0787100000000000    9.9751820000000002    0.0000000000000000
    -0.4074939999999990   -4.4635179999999997   12.9075310000000005
 Ca  Mn  V   P   O  
   4   4   4  16  56
Cartesian
  0.2868295301477030  6.2607544206861405  5.5876110117087352
  0.5087614322850110 -0.0814900334521967  2.3932154282009628
  4.2929409491925581  5.5820885119048267 10.5465337737778047
  0.1788740235346332 -0.8294765976553670 11.9546749066058311
  8.0245972415400804  6.5576400636969847  0.7544971852528921
  7.9535316164212295  2.8906908938017248  4.1170155291539592
 -0.2940131608024237  5.4861140333650118 10.4241189676151542
  7.8425209868550247 -0.7416569908580383  7.3065068965656517
  3.8782239821094051  6.3808960257855984  5.6199165113016356
  4.0678834897034983  0.0029600110588112  2.5404841382514225
  3.7384341352044004  2.6012605158486815  8.8681287779881668
  3.7074284082471411 -0.9056553829691166 12.2083000979179825
  1.9486971091968099  8.9506591632233707 -0.0614697944271583
  5.7930576429007008  7.4364875983977941  3.2264983744699682
  6.5575355001436684  3.6152402010552636  1.3547206018180153
  1.7143867252112648  5.3768527272832456  3.1156537574940253
  2.4596429806050941  2.7685748856985848  1.9491899543714239
  6.1857360685508471  6.3345920989912026  7.7754614473588122
  5.5792175760531313  3.7784337522065528  6.4181092930509553
  2.1215295049606078  5.4745632689261852  8.2704531396827541
  6.4338540678125939  0.0073093531337903  4.6180560575777676
  1.5385722620648976  1.7086682062457259  6.5072649300911891
  2.3300936804940027 -0.8359486973807421  5.1756275853591323
  6.2974110568884560  2.7295491628279738 10.9117489821583487
  5.5953106037076594  0.1301231578870996  9.7243888991470140
  2.2286602156169146  1.9253210700037695 11.6495180948980099
  1.5938305507578430 -1.9621533376848452  9.6117267567280429
  5.6229383933210535 -3.4280539802033214 13.0102474302599838
  0.5811881427340004  8.4823182001592041  0.4923876706556682
  4.5279742306132320  8.0612183869522251  2.6524154584900219
  6.7847072872190815  8.6874034394727531  3.6882093998852672
  6.6780458360130961  6.6880435154930780  2.2719955426210072
  1.3834344033763877  6.2733736576417609  1.9204443855004161
  7.6875482163737967  4.5300846092224258  0.8570764856126478
  5.1676925779897109  4.0156271570705568  0.9532774604213805
  2.4334581642696569  3.1076207318578222  0.4328166998900902
  5.5686532813395271  6.6431246386225995  4.5238454870153193
  2.4389414190573420  6.1921135232982190  4.1672034626960501
  7.0022847201034448  2.2969334722544117  0.4117942058051005
  2.6758005365171478  4.1909103144094901  2.6952270755621992
  0.4418007638175777  4.7851822886907751  3.7830545411426639
  6.5984857262825836  3.1991988217713465  2.8096173651008001
  7.3439454200303773  7.2452816386702485  7.3344527341166046
  4.8061453914976084  6.7895488330945915  7.3796426748320920
  1.1052142739012889  2.1942699979002667  2.3740693175512200
  3.6507190579707847  1.9494269351194113  2.3740072307394029
  2.2221193720340531  5.9090293201491288  6.8114235461915227
  4.3728203673374653  4.4391582086991157  5.7730144532940431
  5.8343883397317047  0.3013612765778605  1.4149552564374317
  6.5882817483663239  5.0046429026615940  6.9164790159950158
  2.7003585359703135 -0.2122019771959868  1.0295021656124650
  6.4719705920378567  2.9492437777214273  5.5585231931693002
  6.1989541100977128  5.9678706501553043  9.2648759180418381
  1.2379949466923028  2.7110191557145926  5.3803410837508814
  7.6120669970889780  0.9054369104135899  4.1773686313523575
  0.7338400623954328  5.0395306164042495  8.6147827524026912
  5.0625801269531747  0.4711104207950481  4.1984020441816101
  3.2762495483178724  4.5855097090041905  8.7541109511919970
  2.3665687708556584 -0.4506731558086585  3.6774299383900124
  5.1826160223006656  3.0012547033447472  7.7058176850394009
  2.4295619092931915  2.4336563335538934  7.5087519546472370
  6.2796563715869960  5.7454967100479246 11.9455434567997791
  2.4991201080536034  0.5506384956063349  5.9707410606770344
  1.4269443669887025  5.2678706632145760 11.5366427482626861
  0.2946438414677004  1.1033366189487250  7.1381831033242218
  6.4289801923080230 -0.4093846189299349  6.0764570439968137
  7.4567158061124719  3.6157278258223919 10.4887633741004453
  4.9171727811422947  3.2679668964592055 10.4404010950483421
  0.9670267728418310 -1.4499176887119527  5.5230834825779382
  3.5186638126857988 -1.6610301390240425  5.6122673222931061
  2.3501654498693010  2.3951830827833267 10.1869646198025769
  4.3403443961003614  0.7742178049897986  9.1008896437058215
  6.5896119878293993  1.3587580641008192 10.1442492186366771
  2.4852704484223320  3.2357264510176913 12.5728961347979453
  6.4364345544023305 -0.7087003842063472  8.8160885418896147
  6.2179286909470886  2.4320109723311374 12.4100511263347428
  1.2672377759770173 -1.1405384086429502  8.3834493619508894
  0.8213503014891188  1.3993355196721089 11.9440142744566593
  3.3505546439281231  1.0226165119012918 12.0902981158066822
  5.3166762617120042 -0.6486434672811652 11.0179215063702198
  2.3267180278008346 -1.1568779475625675 10.6656953475978522
  2.5807838480190952 -3.1731409412891143  9.2114480881157945
  0.3285566245232569 -2.5625946659022398 10.2962805194055864
  4.3112211342670594 -2.8981236055232831 12.3682035047422794
