Ca Ti Mn Si O  F 
1.0
        9.9872684479         0.0000000000         0.0000000000
        0.0000000000        10.9652748108         0.0000000000
        0.0000000000        -4.3438069095        13.5038650634
   Ca   Ti   Mn   Si    O    F
   11    8   12   16   64    8
Direct
     0.107119970         0.303590953         0.523386300
     0.607119977         0.196409062         0.976613760
     0.392880023         0.803590953         0.023386238
     0.892880023         0.696409047         0.476613730
     0.362559408         0.430385888         0.915445507
     0.637440622         0.569614112         0.084554523
     0.862559438         0.069614120         0.584554553
     0.137440607         0.930385888         0.415445477
     0.124248110         0.918392956         0.912521780
     0.875751913         0.081606999         0.087478198
     0.624248087         0.581607044         0.587478220
     0.407011658         0.777554154         0.751354754
     0.592988312         0.222445801         0.248645246
     0.907011628         0.722445786         0.748645246
     0.092988335         0.277554184         0.251354754
     0.093367562         0.270440817         0.764334559
     0.906632483         0.729559183         0.235665411
     0.593367577         0.229559183         0.735665381
     0.406632423         0.770440757         0.264334589
     0.395581871         0.807227254         0.514487028
     0.604418099         0.192772716         0.485512972
     0.895581901         0.692772746         0.985512972
     0.104418106         0.307227254         0.014487017
     0.369510770         0.438122928         0.681809664
     0.630489230         0.561877072         0.318190306
     0.869510710         0.061877068         0.818190336
     0.130489245         0.938122928         0.181809694
     0.136072040         0.936326683         0.681277931
     0.863927960         0.063673303         0.318722010
     0.636072040         0.563673317         0.818722010
     0.363927960         0.436326683         0.181277975
     0.336498082         0.123978302         0.859504223
     0.663501918         0.876021683         0.140495732
     0.836498082         0.376021683         0.640495777
     0.163501903         0.623978317         0.359504253
     0.674142897         0.873033941         0.641227782
     0.325857103         0.126966059         0.358772218
     0.174142882         0.626966059         0.858772218
     0.825857103         0.373033941         0.141227767
     0.166862622         0.622304857         0.586817861
     0.833137333         0.377695173         0.413182139
     0.666862607         0.877695143         0.913182139
     0.333137363         0.122304834         0.086817876
     0.329933196         0.123011984         0.587340593
     0.670066833         0.876987994         0.412659347
     0.829933226         0.376988024         0.912659347
     0.170066804         0.623011947         0.087340645
     0.519665241         0.381923735         0.277747005
     0.480334759         0.618076265         0.722253025
     0.019665239         0.118076265         0.222253010
     0.980334818         0.881923735         0.777746975
     0.222451627         0.483494759         0.798680723
     0.777548373         0.516505241         0.201319233
     0.722451627         0.016505251         0.701319277
     0.277548373         0.983494759         0.298680753
     0.016916526         0.111692086         0.723135352
     0.983083427         0.888307929         0.276864618
     0.516916513         0.388307929         0.776864648
     0.483083487         0.611692071         0.223135397
     0.518400133         0.828380167         0.645594895
     0.481599838         0.171619892         0.354405165
     0.018400161         0.671619892         0.854405165
     0.981599808         0.328380138         0.145594865
     0.230975583         0.244162038         0.870459855
     0.769024432         0.755837917         0.129540145
     0.730975568         0.255837917         0.629540145
     0.269024402         0.744162083         0.370459884
     0.742219627         0.016097438         0.932551622
     0.257780343         0.983902574         0.067448400
     0.242219672         0.483902544         0.567448378
     0.757780313         0.516097426         0.432551593
     0.770945489         0.755646646         0.651744366
     0.229054481         0.244353354         0.348255694
     0.270945519         0.744353354         0.848255694
     0.729054451         0.255646646         0.151744321
     0.274158716         0.978962660         0.575511277
     0.725841284         0.021037310         0.424488753
     0.774158716         0.521037281         0.924488723
     0.225841284         0.478962690         0.075511262
     0.374828666         0.133411333         0.976146817
     0.625171304         0.866588712         0.023853233
     0.874828696         0.366588712         0.523853242
     0.125171334         0.633411288         0.476146758
     0.481170237         0.160412416         0.822302878
     0.518829763         0.839587569         0.177697122
     0.981170237         0.339587569         0.677697122
     0.018829755         0.660412431         0.322302848
     0.207571492         0.641940773         0.977370203
     0.792428553         0.358059198         0.022629810
     0.707571507         0.858059227         0.522629797
     0.292428493         0.141940787         0.477370203
     0.990785301         0.353401423         0.894562364
     0.009214640         0.646598577         0.105437651
     0.490785301         0.146598592         0.605437636
     0.509214699         0.853401423         0.394562304
     0.271523803         0.984688044         0.805008948
     0.728476167         0.015311930         0.194991052
     0.771523774         0.515311956         0.694991052
     0.228476197         0.484688103         0.305008978
     0.261753380         0.747568548         0.639355540
     0.738246620         0.252431393         0.360644430
     0.761753380         0.752431452         0.860644460
     0.238246620         0.247568578         0.139355570
     0.521144450         0.867289007         0.859286010
     0.478855580         0.132710978         0.140714005
     0.021144435         0.632710934         0.640713990
     0.978855550         0.367289007         0.359285980
     0.241625831         0.242415816         0.659037173
     0.758374214         0.757584155         0.340962827
     0.741625845         0.257584125         0.840962768
     0.258374155         0.742415845         0.159037203
     0.014653613         0.111391410         0.961661398
     0.985346317         0.888608575         0.038338665
     0.514653563         0.388608575         0.538338661
     0.485346407         0.611391425         0.461661339
     0.998874664         0.890023053         0.536059976
     0.001125336         0.109976940         0.463939995
     0.498874694         0.609976947         0.963940024
     0.501125336         0.390023053         0.036060024
