Ca Mn V  P  O 
1.0
       10.0494146347         0.0000000000         0.0000000000
       -2.4206125965        10.9928101526         0.0000000000
       -2.3948817613        -2.2140439246        10.7540124625
   Ca   Mn    V    P    O
    7    4    4   16   56
Direct
     0.617478490         0.316695631         0.416611344
     0.116730757         0.826670706         0.913328648
     0.616730750         0.826670706         0.913328648
     0.380964130         0.332335353         0.931686461
     0.880964160         0.332335353         0.931686461
     0.387520522         0.838136137         0.424448311
     0.887520552         0.838136137         0.424448311
     0.111169383         0.115570590         0.628834903
     0.611169398         0.115570590         0.628834903
     0.388559103         0.121206187         0.139196277
     0.888559103         0.121206187         0.139196277
     0.109492265         0.612232745         0.116614468
     0.609492242         0.612232745         0.116614468
     0.391185880         0.632604897         0.634584844
     0.891185880         0.632604897         0.634584844
     0.194698542         0.843918085         0.651027203
     0.694698572         0.843918085         0.651027203
     0.107812271         0.440241218         0.666286111
     0.607812285         0.440241218         0.666286111
     0.105545312         0.932507098         0.172586888
     0.605545282         0.932507098         0.172586888
     0.307661831         0.598757148         0.902351618
     0.807661831         0.598757148         0.902351618
     0.191314682         0.347074956         0.154121339
     0.691314697         0.347074956         0.154121339
     0.395128876         0.078992292         0.816439807
     0.895128846         0.078992292         0.816439807
     0.391147852         0.582601786         0.310207635
     0.891147852         0.582601786         0.310207635
     0.306306243         0.095540233         0.407498598
     0.806306243         0.095540233         0.407498598
     0.097371183         0.754065454         0.704324543
     0.597371161         0.754065454         0.704324543
     0.117158651         0.912674665         0.563162565
     0.617158651         0.912674665         0.563162565
     0.206530884         0.657245100         0.960933864
     0.706530869         0.657245100         0.960933864
     0.025338687         0.056550927         0.779280126
     0.525338709         0.056550927         0.779280126
     0.017379323         0.564300120         0.263937712
     0.517379344         0.564300120         0.263937712
     0.080555588         0.299783081         0.622504830
     0.580555558         0.299783081         0.622504830
     0.082138591         0.793842494         0.123230197
     0.582138598         0.793842494         0.123230197
     0.279086113         0.942372739         0.783508718
     0.779086113         0.942372739         0.783508718
     0.218106166         0.468651801         0.804900885
     0.718106151         0.468651801         0.804900885
     0.222677827         0.962825119         0.307839155
     0.722677827         0.962825119         0.307839155
     0.186870635         0.502508342         0.578342438
     0.686870635         0.502508342         0.578342438
     0.300507069         0.789255023         0.595934868
     0.800507069         0.789255023         0.595934868
     0.092674330         0.258234859         0.206692308
     0.592674315         0.258234859         0.206692308
     0.113877587         0.417801261         0.066699520
     0.613877594         0.417801261         0.066699520
     0.385398269         0.685494006         0.831765592
     0.885398269         0.685494006         0.831765592
     0.405595899         0.544583321         0.990332723
     0.905595899         0.544583321         0.990332723
     0.199789912         0.149432480         0.461220384
     0.699789882         0.149432480         0.461220384
     0.324651659         0.169056267         0.749921381
     0.824651659         0.169056267         0.749921381
     0.311603218         0.669328630         0.246732280
     0.811603189         0.669328630         0.246732280
     0.280155331         0.445334554         0.285047650
     0.780155301         0.445334554         0.285047650
     0.415523857         0.124452733         0.955711067
     0.915523887         0.124452733         0.955711067
     0.422635227         0.630301893         0.450288475
     0.922635198         0.630301893         0.450288475
     0.175463423         0.000675702         0.083066218
     0.675463438         0.000675702         0.083066218
     0.479013115         0.483220011         0.682339787
     0.979013085         0.483220011         0.682339787
     0.477017403         0.970702708         0.197862178
     0.977017403         0.970702708         0.197862178
     0.292485863         0.289560080         0.096060328
     0.792485833         0.289560080         0.096060328
     0.383981675         0.184154838         0.338537902
     0.883981705         0.184154838         0.338537902
     0.403697908         0.044087615         0.498416871
     0.903697908         0.044087615         0.498416871
