Ca1 V1 Fe1 P4 O14
1.0
   4.8994960000000001   -0.0283250000000000    0.1399640000000000
  -0.0595840000000000    8.1735640000000007   -0.0308020000000000
  -2.0981589999999999    0.0079790000000000    6.6235510000000000
Ca V Fe P O
1 1 1 4 14
direct
   0.6530770000000000    0.4132289999999990    0.2540850000000000 Ca
   0.1937330000000000    0.5037579999999990    0.7240540000000000 V
   0.7691340000000000    0.9998929999999990    0.2644660000000000 Fe
   0.3655890000000000    0.1895600000000000    0.4977900000000001 P
   0.2131559999999990    0.7696300000000000    0.1006929999999990 P
   0.7330350000000000    0.2700500000000000    0.8891220000000000 P
   0.6007359999999990    0.6921780000000000    0.4916169999999990 P
   0.9750270000000000    0.3399439999999990    0.8104939999999990 O
   0.1294690000000000    0.6619030000000000    0.9125200000000001 O
   0.1396320000000000    0.0582380000000000    0.4513359999999990 O
   0.2471590000000000    0.3627030000000000    0.5094700000000001 O
   0.4234610000000000    0.6631760000000000    0.6415580000000000 O
   0.5384460000000000    0.4093000000000000    0.9249729999999990 O
   0.5530940000000000    0.1471940000000000    0.7235009999999999 O
   0.4035510000000000    0.6413670000000000    0.2700420000000000 O
   0.4032560000000000    0.9143720000000000    0.0858410000000000 O
   0.5641889999999991    0.1970230000000000    0.3615710000000000 O
   0.6946530000000000    0.8680100000000001    0.4921190000000000 O
   0.8364809999999990    0.5640200000000001    0.5152510000000000 O
   0.8465980000000000    0.1739190000000000    0.0785390000000000 O
   0.9526870000000000    0.8104330000000000    0.1674790000000000 O
