Ca V  Fe P  O 
 1.0000000000000000
     4.8994960000000001   -0.0283250000000000    0.1399640000000000
    -0.0595840000000000    8.1735640000000007   -0.0308020000000000
    -2.0981589999999999    0.0079790000000000    6.6235510000000000
 Ca  V   Fe  P   O  
   1   1   1   4  14
Cartesian
  3.2119560320176177  3.4943580514486556  1.7936360282852395
 -0.5802488214290580  4.1123542543640381  4.8425335895291068
  3.0983742976697308  8.1025246025774216  1.7923400632686339
  0.7044927437008977  1.5434183709306395  3.2566846009610653
  0.7092850843814387  6.2407733109308934  0.7308715562902018
  1.7892465129539574  2.1288849692438179  5.8836072524000418
  1.7850744568289558  5.7596670766148925  3.4386086781355627
  3.1911258248837377  2.4942277496203196  5.4425343524175060
 -1.4022084948834006  5.2769435078064877  6.1994428402432327
 -0.2533916896077243  0.4570430677841152  2.8798322436357666
  0.0693516647080779  2.9616781436346957  3.2167767000845870
  0.5800048547738279  5.6239356671475322  4.3393865809551118
  0.8866336691448036  3.3781091195914175  6.1039623098057332
  1.0932854658415163  1.2061097786848436  4.7896611273448197
  1.3599073449302748  5.2756064847761976  1.9164025021584479
  1.6057202295689457  7.4621549901537492  0.6217143100785795
  2.0102215261293916  1.6017524525828986  2.4410904074735744
  2.3040235657360295  7.1725298204947254  3.3571403046684116
  2.8668586171289085  4.6884896418775321  3.6792270947832950
  3.8974367593126598  1.3484379735044481  0.5758653962527642
  4.1588448536184046  6.4814945639146133  1.2817724956312888
