Ca V  S  O  F 
 1.0000000000000000
     7.1725635528999998    0.0000000000000000    0.0000000000000000
     0.3049279942000000    7.8739067344000002    0.0000000000000000
     0.3193050896000000    0.2618833392000000   10.7378266451000002
 Ca  V   S   O   F  
   3   4   4  16  12
Selective dynamics
Cartesian
  6.2152197617312641  5.1055189871492326  8.4293388573527803   T   T   T
  1.2305464265823993  1.1896731768980022  2.8781076189744006   T   T   T
  5.1158611568407277  6.7432664474578496  3.2152476958505849   T   T   T
  0.5666951147117024  4.0964894949071713  5.1658938418775309   T   T   T
  7.2558483720167413  7.7899372242263052 -0.0903925917215536   T   T   T
  4.1173229266682227  4.1923991965286911  5.3327251319829099   T   T   T
  3.9996990845893601  8.0313300922842465 10.5880313047989887   T   T   T
  1.9954469149643692  2.7988415387142696 10.6209325368879508   T   T   T
  2.2589845274502736  6.7676579926351215  5.3319876547989971   T   T   T
  5.7579453209780835  1.4862103251753238  5.2987015812981300   T   T   T
  5.5148450428350770  5.1621798719043133  0.5978688828762341   T   T   T
  0.5697723732863518  1.5600575922984425  0.4936418066924021   T   T   T
  1.3303134332557072  5.8281043086293280  4.5605520843750220   T   T   T
  1.3479676043016471  3.6577358209603110  9.6631632047579110   T   T   T
  1.5428364645425232  7.5195201336855737  6.3238573562265774   T   T   T
  2.2825839333953302  3.1267007016011643  1.0555024102682733   T   T   T
  2.8888672946920262  7.6212927682409912  4.2648011785680797   T   T   T
  2.9490629863485704  1.8515516750760070  9.8934435535631557   T   T   T
  3.3715454671001370  5.9520987475160476  5.9513189280212995   T   T   T
  4.6524320411876801  2.4058335000654254  4.7551749016838416   T   T   T
  4.4121429378609704  6.1434127479160150  0.9243917257049102   T   T   T
  5.2439383716078494  0.5697417852987402  6.2808100485668179   T   T   T
  5.3575082600336668  4.3405347233208653 10.4794841271941834   T   T   T
  6.2481306962299694  0.7554153637336539  4.0748402623285260   T   T   T
  6.1474615234675580  4.8077121154485223  1.8463053731855801   T   T   T
  6.8459765755324433  2.3693161815693928  5.8325861667751076   T   T   T
  6.8289232457096771  6.2080821932162369 10.4246841674463333   T   T   T
  7.2030028502026227  0.4400009226431574  8.8995447078197500   T   T   T
  7.7350181882667446  4.7281012129720237  6.9849179484739210   T   T   T
  2.3366561489612563  3.3440592516773324  5.5773405448370035   T   T   T
  2.1574605677801526  7.2225690019733655 10.5431865241156739   T   T   T
  3.0712676149428058  0.3705869390863704  1.7399295348234389   T   T   T
  3.8335372015214451  4.8501944836038193  3.5870241056367211   T   T   T
  4.7489715348551140  4.0647693641887939  7.1784205376163523   T   T   T
  4.5518112205704204  7.1490751569858517  9.0425941259923057   T   T   T
  5.1941868122950829  0.7128408391791351  0.0942190835460726   T   T   T
  5.9510718175299369  5.0438360747776603  4.9122370462565739   T   T   T
  0.6764792750746410  3.2489915041877437  3.4791682700170994   T   T   T
  7.1852385586001937  7.4677970555494637  1.8214548926000367   T   T   T
