Ca Mn V  O 
1.0
       16.2195205688         0.0000000000         0.0000000000
        3.7228890303         9.8589793064         0.0000000000
        2.4440858758        -2.5212345014         7.3096423399
   Ca   Mn    V    O
   11    4   16   48
Direct
     0.041878760         0.375030667         0.291513443
     0.541878760         0.375030667         0.291513443
     0.041770894         0.874955952         0.791224241
     0.541770875         0.874955952         0.791224241
     0.142476052         0.124985278         0.840079486
     0.642476082         0.124985278         0.840079486
     0.642595232         0.624973476         0.339826584
     0.357710004         0.374828041         0.659720480
     0.857710004         0.374828041         0.659720480
     0.357543170         0.875222385         0.159773082
     0.857543170         0.875222385         0.159773082
     0.452232003         0.624978840         0.720551431
     0.952232003         0.624978840         0.720551431
     0.452316880         0.124983244         0.220373079
     0.952316880         0.124983244         0.220373079
     0.101052463         0.586882532         0.969543636
     0.601052463         0.586882532         0.969543636
     0.101189755         0.086780801         0.469600171
     0.601189733         0.086780801         0.469600171
     0.308530837         0.163314983         0.960925460
     0.808530807         0.163314983         0.960925460
     0.308651894         0.663077176         0.461006254
     0.808651924         0.663077176         0.461006254
     0.193618283         0.337968230         0.538052678
     0.693618298         0.337968230         0.538052678
     0.193687722         0.837856710         0.037607320
     0.693687737         0.837856710         0.037607320
     0.400030106         0.912071049         0.524579883
     0.900030136         0.912071049         0.524579883
     0.400101483         0.412172377         0.024622645
     0.900101483         0.412172377         0.024622645
     0.005820154         0.705964446         0.920315206
     0.505820155         0.705964446         0.920315206
     0.005910649         0.205734208         0.420403272
     0.505910635         0.205734208         0.420403272
     0.392672628         0.044267826         0.032433312
     0.892672658         0.044267826         0.032433312
     0.392816991         0.544058502         0.532385051
     0.892817020         0.544058502         0.532385051
     0.058968015         0.548603952         0.170327321
     0.558968008         0.548603952         0.170327321
     0.058958277         0.048629947         0.670447946
     0.558958292         0.048629947         0.670447946
     0.189134300         0.201370373         0.083415426
     0.689134300         0.201370373         0.083415426
     0.189160049         0.701391160         0.583448470
     0.689160049         0.701391160         0.583448470
     0.105153024         0.466650128         0.486696482
     0.605153024         0.466650128         0.486696482
     0.104992412         0.966451168         0.986773491
     0.604992390         0.966451168         0.986773491
     0.489976406         0.783352315         0.573028147
     0.989976406         0.783352315         0.573028147
     0.489892691         0.283485353         0.073577829
     0.989892721         0.283485353         0.073577829
     0.187912703         0.425975531         0.767701983
     0.687912703         0.425975531         0.767701983
     0.187891841         0.925938487         0.267383009
     0.687891841         0.925938487         0.267383009
     0.329282701         0.324057102         0.948287010
     0.829282701         0.324057102         0.948287010
     0.329136401         0.824070036         0.448198289
     0.829136372         0.824070036         0.448198289
     0.170705259         0.177901641         0.545543134
     0.670705259         0.177901641         0.545543134
     0.170361817         0.678286970         0.046151873
     0.670361817         0.678286970         0.046151873
     0.316190064         0.072055653         0.730601013
     0.816190064         0.072055653         0.730601013
     0.316062748         0.571739972         0.231021583
     0.816062748         0.571739972         0.231021583
     0.315236211         0.291787982         0.408913970
     0.815236211         0.291787982         0.408913970
     0.315215826         0.792297244         0.908742130
     0.815215826         0.792297244         0.908742130
     0.441392094         0.958151162         0.327911556
     0.941392064         0.958151162         0.327911556
     0.441771686         0.457696170         0.827295661
     0.941771686         0.457696170         0.827295661
