Trisodium tetramanganese dodecaoxotellur
   1.00000000000000     
     9.3541609999999995    0.0000000000000000    0.0000000000000000
     0.0000000000000000    9.6163319999999999    0.0000000000000000
     0.0000000000000000    0.0000000000000000   11.2118099999999998
   Ca   Mn   Te   O 
    11    16     8    48
Direct
  0.5055786124651884  0.2444132444109218  0.3293232132026653
  0.0782849754774885  0.7458293833923816  0.6390227686623084
  0.4211109745756860  0.7444071548852513  0.6376739139134598
  0.7507196255855323  0.2896350673814647  0.8479399981213748
  0.9182079524109638  0.7637485642229653  0.1585692057145680
  0.4208131512977834  0.2284661676809011  0.8465610179394305
  0.0792968303530473  0.2348080594153182  0.8482571595837903
  0.2487183576851277  0.7145034294328211  0.1519921328599416
  0.5766997892469983  0.7623899743668237  0.1577602170558678
  0.7501176466326995  0.7654619300703168  0.6844256480584102
  0.9324082211282581  0.2510533974770467  0.3549859178685909
  0.9125948564965052  0.5926335551229177  0.3878197477621642
  0.9022640924398272  0.0932263196676661  0.1327019328464444
  0.0780004745542950  0.4158027018364558  0.0948636731571254
  0.4173081955758761  0.4071474426417537  0.6160203676457128
  0.5913454222652783  0.0854063499413207  0.6174744293804576
  0.5896090531725070  0.0852030500168918  0.1242489650345650
  0.9099227205357058  0.0794779009915092  0.6193739216157547
  0.0842391682947293  0.4045853538575869  0.6155527694911368
  0.5830038004862276  0.5879326383582754  0.9027967275488088
  0.4081159559030045  0.9064783843663441  0.8696776469668954
  0.0894896751612070  0.9207480973503461  0.3859300547178323
  0.9193406930140243  0.5866402714270330  0.9100512147977695
  0.0913700862117111  0.9103184055868017  0.8718528525680599
  0.4035446978992216  0.9163606343270231  0.3830425314164981
  0.5834299441199220  0.5832547750411754  0.3857137586038623
  0.4150289766851619  0.4170827584406430  0.0804829186765613
  0.7514163660079098  0.4482746050445380  0.6022712199072577
  0.2480642184245312  0.5723744013325662  0.8706290862761594
  0.7461281913975273  0.9306050763563438  0.4063314270172377
  0.2442346721640414  0.0430377913032924  0.1005342264087186
  0.7526591569265243  0.9572038997060041  0.9093506302421367
  0.2495693269713204  0.0722941780648738  0.5975491747922804
  0.7462232054269946  0.4258766236638669  0.1281584182127515
  0.2445598954261159  0.5398921615238053  0.3911856425083469
  0.0609775850166682  0.6095532142615092  0.0401944958420900
  0.2481417538347221  0.8637691562278239  0.4964143811515813
  0.7512660426201249  0.0175171246235237  0.7408341158275156
  0.0873228742216395  0.4144327281543752  0.4310924075798656
  0.6075018113806152  0.1008866679534781  0.9439362155018148
  0.4038029390279350  0.1032834202069828  0.4769843246451699
  0.8971741924984420  0.5953104623685065  0.5772598550911411
  0.9355030844441535  0.3938147364995324  0.9592210663165015
  0.7519260141599131  0.4266495641094810  0.4303342019262409
  0.7534505595053410  0.5469033112997775  0.8082593698570224
  0.9051794055207902  0.4828392828139758  0.2293649251434515
  0.4071325469749178  0.5274833933251971  0.7665040408876302
  0.2453349794713565  0.9526270664919939  0.2585099972079244
  0.4497084708952629  0.0138809703187239  0.7204725735171210
  0.7386691753536678  0.2177396726862477  0.2160894754825914
  0.6000359699530605  0.8888989885641791  0.5358471302443728
  0.8967768576599885  0.1010275297347982  0.9468241670599723
  0.5401594227891389  0.9989130473146252  0.2788547593871189
  0.2462519082800523  0.5820785802737551  0.5622300972473869
  0.5699426297880039  0.2717714720262582  0.6839175757882070
  0.4391181354031669  0.2212192296116435  0.1300533769678897
  0.4350921014600163  0.6143281900090598  0.0322098817897187
  0.2519503435620343  0.3740824796037742  0.9384030571428335
  0.8961194177124294  0.8879499470091374  0.5320541395977513
  0.0895510294530887  0.5216818882565950  0.7667738851657245
  0.2517591952421783  0.2694382966691649  0.6699346956982488
  0.4079323541316867  0.4210545415446222  0.4312796550473708
  0.4342165260122962  0.7267881006821069  0.3264921003054568
  0.5822403938336556  0.4793773682238440  0.2252427936376330
  0.6010180997057598  0.5899758165674103  0.5770933970607051
  0.0502188252083749  0.0011500722077590  0.7218896912235891
  0.2532076278242950  0.4576786565620649  0.1813094701513217
  0.9454549137406266  0.9973896693297403  0.2856811353822974
  0.1003496764128497  0.8941740566474041  0.0522634929849160
  0.7466380880197976  0.7342431450217045  0.3328115712299650
  0.7481583737598516  0.6292630481616942  0.0551750694136258
  0.9448247973328670  0.7722533185179712  0.8370301004461844
  0.0899250044890760  0.1039647620600978  0.4798122953112260
  0.0440830091348242  0.2324672244050761  0.1560237512608832
  0.3977219267628771  0.9066242408540549  0.0581386230328471
  0.2500530973580733  0.7880237038354140  0.7816150556254938
  0.7470060046403924  0.9468214306684505  0.1091819415719608
  0.2411889743901140  0.0536230931107277  0.8995286652975965
  0.0615408383117549  0.7310197645348661  0.3258496468667825
  0.7560226825418932  0.1352516244147837  0.5126250777511109
  0.9347756669790507  0.2653368716977759  0.6835235292621643
  0.5640810501983957  0.7700134180224298  0.8303203545081429
  0.5632286107526904  0.3954258974852348  0.9544596379726393
 
             NaN             NaN             NaN
             NaN             NaN             NaN
             NaN             NaN             NaN
             NaN             NaN             NaN
             NaN             NaN             NaN
             NaN             NaN             NaN
             NaN             NaN             NaN
             NaN             NaN             NaN
             NaN             NaN             NaN
             NaN             NaN             NaN
             NaN             NaN             NaN
             NaN             NaN             NaN
             NaN             NaN             NaN
             NaN             NaN             NaN
             NaN             NaN             NaN
             NaN             NaN             NaN
             NaN             NaN             NaN
             NaN             NaN             NaN
             NaN             NaN             NaN
             NaN             NaN             NaN
             NaN             NaN             NaN
             NaN             NaN             NaN
             NaN             NaN             NaN
             NaN             NaN             NaN
             NaN             NaN             NaN
             NaN             NaN             NaN
             NaN             NaN             NaN
             NaN             NaN             NaN
             NaN             NaN             NaN
             NaN             NaN             NaN
             NaN             NaN             NaN
             NaN             NaN             NaN
             NaN             NaN             NaN
             NaN             NaN             NaN
             NaN             NaN             NaN
             NaN             NaN             NaN
             NaN             NaN             NaN
             NaN             NaN             NaN
             NaN             NaN             NaN
             NaN             NaN             NaN
             NaN             NaN             NaN
             NaN             NaN             NaN
             NaN             NaN             NaN
             NaN             NaN             NaN
             NaN             NaN             NaN
             NaN             NaN             NaN
             NaN             NaN             NaN
             NaN             NaN             NaN
             NaN             NaN             NaN
             NaN             NaN             NaN
             NaN             NaN             NaN
             NaN             NaN             NaN
             NaN             NaN             NaN
             NaN             NaN             NaN
             NaN             NaN             NaN
             NaN             NaN             NaN
             NaN             NaN             NaN
             NaN             NaN             NaN
             NaN             NaN             NaN
             NaN             NaN             NaN
             NaN             NaN             NaN
             NaN             NaN             NaN
             NaN             NaN             NaN
             NaN             NaN             NaN
             NaN             NaN             NaN
             NaN             NaN             NaN
             NaN             NaN             NaN
             NaN             NaN             NaN
             NaN             NaN             NaN
             NaN             NaN             NaN
             NaN             NaN             NaN
             NaN             NaN             NaN
             NaN             NaN             NaN
             NaN             NaN             NaN
             NaN             NaN             NaN
             NaN             NaN             NaN
             NaN             NaN             NaN
             NaN             NaN             NaN
             NaN             NaN             NaN
             NaN             NaN             NaN
             NaN             NaN             NaN
             NaN             NaN             NaN
             NaN             NaN             NaN
