Ca Mn C  S  O 
 1.0000000000000000
     6.8048609999999998    0.0000000000000000    0.0000000000000000
     0.0000000000000000    5.0892379999999999    0.0000000000000000
     0.0000000000000000    0.7192140000000000    8.6776959999999992
 Ca  Mn  C   S   O  
   2   2   2   2  14
Cartesian
  3.4770036196292935  4.3179924053244569  6.8761688919251531
  6.8794341197799387  1.4904595946224215  1.8015271080094999
  1.4387857882916999  1.4202513047634633  5.6422208555065554
  4.8412162883680558  4.3882006952223813  3.0354751439901344
  1.9143663158062683  1.8317655023279029  8.1250104309429361
  5.3167968156545795  3.9766864993425974  0.5526855746780068
  5.0026120329662209  1.8717076932484480  5.0846770088473550
  1.6001815327504398  3.9367443067224968  3.5930189898604437
  5.3758428552977771  4.3712102006258791  8.0095371731406200
  1.8275380779822790  0.6035895672728544  7.6995650693110482
  1.8976232399245343  2.7571148044681451  7.1871113717977986
  6.1588300772350788  1.6051615993764172  5.9415118058906158
  3.7929837057025098  1.2608271010125485  5.6888273045555318
  1.7961184617699777  4.4936998901183314  4.9654524362453767
  4.7596821912971281  3.3521871596373600  4.9509067256151678
  1.3572516913300785  2.4562648403787537  3.7267892745667961
  5.1985489616207223  1.3147521100555948  3.7122435644376433
  0.3905532060352321  4.5476248987866326  2.9888686957568606
  2.7563995770526120  4.2032904005740654  2.7361841944502969
  5.3000537398626486  3.0513371962810281  1.4905846274342225
  5.2299685780089797  5.2048624314668919  0.9781309301304103
  1.9734123550999583  1.4372417983712356  0.6681588229073718
