Ca2 Mn2 C2 S2 O14
1.0
   6.8048609999999998    0.0000000000000000    0.0000000000000000
   0.0000000000000000    5.0892379999999999    0.0000000000000000
   0.0000000000000000    0.7192140000000000    8.6776959999999992
Ca Mn C S O
2 2 2 2 14
direct
   0.4770040000000000    0.7888410000000000    0.8162060000000000 Ca
   0.9770040000000000    0.2111589999999990    0.1837939999999990 Ca
   0.2531270000000000    0.2268220000000000    0.6540030000000000 Mn
   0.7531270000000000    0.7731779999999990    0.3459970000000000 Mn
   0.2490030000000000    0.2806410000000000    0.9272250000000000 C
   0.7490030000000000    0.7193590000000000    0.0727749999999990 C
   0.7569629999999991    0.2524600000000000    0.5829580000000000 S
   0.2569630000000000    0.7475400000000001    0.4170419999999990 S
   0.7085889999999990    0.6907070000000000    0.9372610000000000 O
   0.2594920000000000    0.0495990000000000    0.8666440000000000 O
   0.2781840000000000    0.4762079999999990    0.8186080000000000 O
   0.9343939999999999    0.2009419999999990    0.6750340000000000 O
   0.5819480000000000    0.1588959999999990    0.6716470000000000 O
   0.2676840000000000    0.8721000000000000    0.5671570000000000 O
   0.7357650000000000    0.5453709999999991    0.5411300000000000 O
   0.2357650000000000    0.4546290000000000    0.4588700000000001 O
   0.7676839999999990    0.1279000000000000    0.4328430000000000 O
   0.0819480000000000    0.8411040000000000    0.3283530000000000 O
   0.4343940000000000    0.7990579999999990    0.3249660000000000 O
   0.7781840000000000    0.5237919999999990    0.1813920000000000 O
   0.7594919999999999    0.9504009999999991    0.1333560000000000 O
   0.2085890000000000    0.3092930000000000    0.0627390000000000 O
