Ca V  O                                 
   1.00000000000000     
     8.7673761451245227   -0.0073313764651097   -0.0014541405342295
     2.9211134691616980   14.0154951284123008    0.3510429078888288
     2.9390603968067595   -0.3664349460091065   14.0786122754891618
Ca V O  
              11              48              96
Direct
  0.1943294269014098  0.5505405190246946  0.5104856321294828
  0.1800377455733110  0.0107741670034270  0.4503864413785392
  0.1971018349540729  0.9260276361359786  0.9847602000335400
  0.1801948931664237  0.5124013537327671  0.9459313266786441
  0.5152994545473278  0.0134459999242789  0.4411015623072538
  0.4535168609111691  0.0661079746591578  0.0165134158952266
  0.5157427550919002  0.5076474424054528  0.9451428731994110
  0.8455592195340904  0.0131932076352127  0.4484946792307005
  0.8280411055895467  0.0670475612415600  0.0130584284732133
  0.7648466671395018  0.5507533393265693  0.5098164362535675
  0.8474527081070986  0.5101769122482690  0.9466233029412723
  0.2174271660996856  0.0901680665287009  0.2408469514378237
  0.2100051957261414  0.0897292177816219  0.7964589811509768
  0.1941499148043844  0.5977729430807834  0.2832135640912414
  0.2233734015925464  0.5882824747022387  0.7379850034182391
  0.5565203383618597  0.0944889143544277  0.2377037694374473
  0.5358526421642772  0.0914378372096803  0.7921460582903598
  0.5360896192238624  0.5934780971220801  0.2897167823129239
  0.5642340928702391  0.5868295224647797  0.7367210682236457
  0.8958566106426655  0.0908646658753521  0.2398601688307251
  0.8716970423485566  0.0930703589594029  0.7884345855589617
  0.8701401360155331  0.5968208141281270  0.2838648053270784
  0.8902771362209198  0.5872292348339031  0.7386271605427648
  0.0499771585161306  0.2636988171172403  0.0945158220607087
  0.0679632155929858  0.2036432538671313  0.5997963364821135
  0.0547326462963619  0.7139259876223457  0.0910147490760297
  0.0437639336157668  0.7638118729148901  0.5898465824156387
  0.3766580694598595  0.2698778694179312  0.0959301604853666
  0.4013328500738016  0.2027362917112223  0.5970757969301516
  0.4000818924084271  0.7103065700929627  0.0961154901613445
  0.3829695717330674  0.7552833536011054  0.5897626761644316
  0.7120545466999618  0.2710029123200572  0.0956959628529018
  0.7251016829769034  0.2050624516062533  0.5973425356979932
  0.7282104160178177  0.7088411858311250  0.0942530158717796
  0.7265250679891180  0.7636841216898509  0.5878438911320847
  0.2805019209719741  0.2424926580983076  0.4119158736205728
  0.2667986785661457  0.2861462311487260  0.9074469248687974
  0.2725355056848260  0.7863742981794299  0.4044581759564728
  0.2923394031220683  0.7293280071408539  0.9050210224614486
  0.6162973967052547  0.2468613305153211  0.4082842718542289
  0.6030606190035753  0.2824142437380014  0.9097481726856320
  0.5986332732598474  0.7873254832460704  0.4051082136650029
  0.6162345742381043  0.7414442788029934  0.9094983508919728
  0.9502193905144267  0.2416666712272194  0.4133921446165149
  0.9410853616184562  0.2840647933797991  0.9096867850728292
  0.9358984129187032  0.7854840796484217  0.4031276827618680
  0.9440755326783802  0.7413882179646201  0.9099047783122926
  0.1066460514848858  0.4117689828775957  0.2660516368373617
  0.1262206371172551  0.3979612462234470  0.7139352585577171
  0.1282703515022637  0.9033239169414590  0.2155433034057751
  0.1095018161583403  0.9054223985102468  0.7585694522449183
  0.4345714630795267  0.4151791306223213  0.2642636151051390
  0.4643652950505440  0.3999912069126195  0.7144188626950534
  0.4617858506043534  0.9059609986783148  0.2104393691509114
  0.4505785408352685  0.9021912997260386  0.7542459111896778
  0.7842329200554212  0.4131839858348838  0.2630201560464004
  0.7984382945862158  0.3953665875379919  0.7145776235516240
  0.7884728260336531  0.9057815553637206  0.2116935376549703
  0.7759773242629290  0.9094393212545955  0.7637445057986301
  0.2784693873050414  0.3451142052168659  0.3309095405797945
  0.2831618097886072  0.3568148345781811  0.7955902021180323
  0.2837960781400822  0.8580388997883773  0.2918333318394132
  0.2791740759898039  0.8426093613208884  0.8293550754171500
  0.6087649883724896  0.3456602954482345  0.3285464504282930
  0.6168328207766797  0.3535407065106630  0.7974129209145814
  0.6154681982235698  0.8597868380353457  0.2929373991848191
  0.6106914976122940  0.8407075260282481  0.8250597308033870
  0.9403442384500051  0.3444150687212887  0.3312247228677003
  0.9497351802328792  0.3536314536385513  0.7969328334268554
  0.9480988465571147  0.8579602123724647  0.2900496949327209
  0.9446455823557115  0.8406034140808495  0.8252327761125821
  0.1597000580097252  0.1706978232842281  0.3499408556027305
  0.1453911532138479  0.2042055035339001  0.8644092634514259
  0.1464285411601318  0.7082869440378220  0.3582624897023979
  0.1572123952407631  0.6677329390887805  0.8490027780702023
  0.4948182499940925  0.1699734495433882  0.3505128947834968
  0.4750163471816864  0.2032041010791971  0.8661829818630343
  0.4784498212961459  0.7069590862572426  0.3594525956816418
  0.4999680299120433  0.6675053103617392  0.8453672247450920
  0.8257637040180045  0.1693547370688679  0.3522037094340173
  0.8130552822514712  0.2023932764209357  0.8674869801334867
  0.8109550410577525  0.7075181294310429  0.3584207794265019
  0.8283422451607477  0.6699535941176104  0.8456772455319383
  0.1702068682609091  0.3271250920584046  0.1625421875205134
  0.1904236953864136  0.2866367106938686  0.6435814655543747
  0.1895048644953420  0.7935533021329468  0.1355068858600052
  0.1776503769855946  0.8219794137947437  0.6566632461551627
  0.5036723566796338  0.3281547819566483  0.1601166874991243
  0.5226536963132667  0.2874359801636396  0.6439629953655371
  0.5216414167285396  0.7926637806806525  0.1395565824160262
  0.5089305522824721  0.8206240070038031  0.6538989258036428
  0.8390508676571575  0.3280613198081098  0.1598055590060917
  0.8571612390928305  0.2838091379062346  0.6435720488135793
  0.8510942023538502  0.7933804613603523  0.1381862893306753
  0.8388356642525616  0.8258711164058583  0.6584630756482323
  0.0542487444089004  0.1592074463190654  0.1792822211808369
  0.0541925725704319  0.1360335504875921  0.7144694641413759
  0.0504207852847703  0.6443822766779507  0.2026748768798218
  0.0604876512305273  0.6503356423095232  0.6710127140014724
  0.3859507805130312  0.1554509904470756  0.1758307695218059
  0.3822218029568020  0.1368160004390824  0.7122871429684351
  0.3841838096353455  0.6399237074099116  0.2067641288158445
  0.3920362545539293  0.6500533068580318  0.6759871815168944
  0.7265667878051190  0.1558414257820883  0.1763222148103210
  0.7167942769131744  0.1374817335554356  0.7125613639089975
  0.7129045718622223  0.6402513426607265  0.2062485021044539
  0.7283034203565738  0.6502031578881156  0.6691013346593586
  0.0581195162574580  0.0155892065630926  0.3106489915821390
  0.0386007965587880  0.0209493013010062  0.8690001400011916
  0.0337958623486034  0.5300499686630044  0.3607883861835868
  0.0563232108276853  0.5146968841431606  0.8086152230906881
  0.3900620655710426  0.0183622506731747  0.3059673628712413
  0.3695735518827896  0.0225589215797413  0.8724655096396058
  0.3619027290183425  0.5304280844307681  0.3573207645795364
  0.3942227807644456  0.5157502096499206  0.8078491101199595
  0.7267358081410570  0.0183452904581990  0.3055033105518252
  0.7023477519781575  0.0270531994009443  0.8663903297365975
  0.7082134672729027  0.5286158928737732  0.3582245109485468
  0.7280803169576860  0.5134806907258389  0.8087226363581577
  0.2598109363911141  0.2043190617091768  0.0223946015734624
  0.2833954571468661  0.1300837078836526  0.5231317600033477
  0.2819110824938053  0.6355889459251483  0.0174106914423255
  0.2585175783218602  0.6998468952687802  0.5178170741794685
  0.5932739328515135  0.1971437957203432  0.0246497124213169
  0.6140724370409061  0.1288604492915596  0.5248450414591319
  0.6137647315372531  0.6341477002925037  0.0200099789865386
  0.5972854888668110  0.7016415039391120  0.5185267495090009
  0.9238625306673220  0.2037706226643336  0.0240074823317260
  0.9479906992379262  0.1309160968015205  0.5240392736854208
  0.9451799271397110  0.6345232855903646  0.0194594351114175
  0.9320020243020346  0.6946731580275793  0.5155241341562874
  0.2688787657273824  0.4826978629469446  0.2063807003160539
  0.2872590289252057  0.4732926073120816  0.6515883071619809
  0.2928255751676277  0.9779561905851124  0.1393793253690142
  0.2720735702514858  0.9769206070712947  0.7130377286356346
  0.6048899911120909  0.4780596607254991  0.2118647589398577
  0.6327523059924690  0.4722154533546911  0.6496377917355766
  0.6229788760166739  0.9843557392806820  0.1413648384677497
  0.6004123110979626  0.9794920693933935  0.7102075028276674
  0.9407411433014771  0.4834182521717204  0.2045470818759695
  0.9599195391663671  0.4724964803775800  0.6478847572689816
  0.9606063781175854  0.9778941013301329  0.1407246879858355
  0.9395985951663500  0.9799655331339436  0.7089346034682510
  0.0760315268392432  0.2886337357940007  0.4873585739161427
  0.0546648786041474  0.3662243826519831  0.9738334978385713
  0.0544436128140084  0.8636321200443290  0.4722865518167743
  0.0775330551151092  0.7958467629675318  0.9776493695800620
  0.4111474576656863  0.2878851148032256  0.4849077743940903
  0.3875769780265173  0.3643189577184503  0.9748596024687809
  0.3869364048654513  0.8654383079234262  0.4712361719255916
  0.4063073384025385  0.7947916390976792  0.9810859194903631
  0.7408364203251353  0.2891956115861071  0.4852989563519670
  0.7210201937176592  0.3642052272502747  0.9752441885129325
  0.7234599554813186  0.8639256780496534  0.4718273674540164
  0.7400626496252178  0.7927478633453215  0.9812762966622995
 
  0.00000000E+00  0.00000000E+00  0.00000000E+00
  0.00000000E+00  0.00000000E+00  0.00000000E+00
  0.00000000E+00  0.00000000E+00  0.00000000E+00
  0.00000000E+00  0.00000000E+00  0.00000000E+00
  0.00000000E+00  0.00000000E+00  0.00000000E+00
  0.00000000E+00  0.00000000E+00  0.00000000E+00
  0.00000000E+00  0.00000000E+00  0.00000000E+00
  0.00000000E+00  0.00000000E+00  0.00000000E+00
  0.00000000E+00  0.00000000E+00  0.00000000E+00
  0.00000000E+00  0.00000000E+00  0.00000000E+00
  0.00000000E+00  0.00000000E+00  0.00000000E+00
  0.00000000E+00  0.00000000E+00  0.00000000E+00
  0.00000000E+00  0.00000000E+00  0.00000000E+00
  0.00000000E+00  0.00000000E+00  0.00000000E+00
  0.00000000E+00  0.00000000E+00  0.00000000E+00
  0.00000000E+00  0.00000000E+00  0.00000000E+00
  0.00000000E+00  0.00000000E+00  0.00000000E+00
  0.00000000E+00  0.00000000E+00  0.00000000E+00
  0.00000000E+00  0.00000000E+00  0.00000000E+00
  0.00000000E+00  0.00000000E+00  0.00000000E+00
  0.00000000E+00  0.00000000E+00  0.00000000E+00
  0.00000000E+00  0.00000000E+00  0.00000000E+00
  0.00000000E+00  0.00000000E+00  0.00000000E+00
  0.00000000E+00  0.00000000E+00  0.00000000E+00
  0.00000000E+00  0.00000000E+00  0.00000000E+00
  0.00000000E+00  0.00000000E+00  0.00000000E+00
  0.00000000E+00  0.00000000E+00  0.00000000E+00
  0.00000000E+00  0.00000000E+00  0.00000000E+00
  0.00000000E+00  0.00000000E+00  0.00000000E+00
  0.00000000E+00  0.00000000E+00  0.00000000E+00
  0.00000000E+00  0.00000000E+00  0.00000000E+00
  0.00000000E+00  0.00000000E+00  0.00000000E+00
  0.00000000E+00  0.00000000E+00  0.00000000E+00
  0.00000000E+00  0.00000000E+00  0.00000000E+00
  0.00000000E+00  0.00000000E+00  0.00000000E+00
  0.00000000E+00  0.00000000E+00  0.00000000E+00
  0.00000000E+00  0.00000000E+00  0.00000000E+00
  0.00000000E+00  0.00000000E+00  0.00000000E+00
  0.00000000E+00  0.00000000E+00  0.00000000E+00
  0.00000000E+00  0.00000000E+00  0.00000000E+00
  0.00000000E+00  0.00000000E+00  0.00000000E+00
  0.00000000E+00  0.00000000E+00  0.00000000E+00
  0.00000000E+00  0.00000000E+00  0.00000000E+00
  0.00000000E+00  0.00000000E+00  0.00000000E+00
  0.00000000E+00  0.00000000E+00  0.00000000E+00
  0.00000000E+00  0.00000000E+00  0.00000000E+00
  0.00000000E+00  0.00000000E+00  0.00000000E+00
  0.00000000E+00  0.00000000E+00  0.00000000E+00
  0.00000000E+00  0.00000000E+00  0.00000000E+00
  0.00000000E+00  0.00000000E+00  0.00000000E+00
  0.00000000E+00  0.00000000E+00  0.00000000E+00
  0.00000000E+00  0.00000000E+00  0.00000000E+00
  0.00000000E+00  0.00000000E+00  0.00000000E+00
  0.00000000E+00  0.00000000E+00  0.00000000E+00
  0.00000000E+00  0.00000000E+00  0.00000000E+00
  0.00000000E+00  0.00000000E+00  0.00000000E+00
  0.00000000E+00  0.00000000E+00  0.00000000E+00
  0.00000000E+00  0.00000000E+00  0.00000000E+00
  0.00000000E+00  0.00000000E+00  0.00000000E+00
  0.00000000E+00  0.00000000E+00  0.00000000E+00
  0.00000000E+00  0.00000000E+00  0.00000000E+00
  0.00000000E+00  0.00000000E+00  0.00000000E+00
  0.00000000E+00  0.00000000E+00  0.00000000E+00
  0.00000000E+00  0.00000000E+00  0.00000000E+00
  0.00000000E+00  0.00000000E+00  0.00000000E+00
  0.00000000E+00  0.00000000E+00  0.00000000E+00
  0.00000000E+00  0.00000000E+00  0.00000000E+00
  0.00000000E+00  0.00000000E+00  0.00000000E+00
  0.00000000E+00  0.00000000E+00  0.00000000E+00
  0.00000000E+00  0.00000000E+00  0.00000000E+00
  0.00000000E+00  0.00000000E+00  0.00000000E+00
  0.00000000E+00  0.00000000E+00  0.00000000E+00
  0.00000000E+00  0.00000000E+00  0.00000000E+00
  0.00000000E+00  0.00000000E+00  0.00000000E+00
  0.00000000E+00  0.00000000E+00  0.00000000E+00
  0.00000000E+00  0.00000000E+00  0.00000000E+00
  0.00000000E+00  0.00000000E+00  0.00000000E+00
  0.00000000E+00  0.00000000E+00  0.00000000E+00
  0.00000000E+00  0.00000000E+00  0.00000000E+00
  0.00000000E+00  0.00000000E+00  0.00000000E+00
  0.00000000E+00  0.00000000E+00  0.00000000E+00
  0.00000000E+00  0.00000000E+00  0.00000000E+00
  0.00000000E+00  0.00000000E+00  0.00000000E+00
  0.00000000E+00  0.00000000E+00  0.00000000E+00
  0.00000000E+00  0.00000000E+00  0.00000000E+00
  0.00000000E+00  0.00000000E+00  0.00000000E+00
  0.00000000E+00  0.00000000E+00  0.00000000E+00
  0.00000000E+00  0.00000000E+00  0.00000000E+00
  0.00000000E+00  0.00000000E+00  0.00000000E+00
  0.00000000E+00  0.00000000E+00  0.00000000E+00
  0.00000000E+00  0.00000000E+00  0.00000000E+00
  0.00000000E+00  0.00000000E+00  0.00000000E+00
  0.00000000E+00  0.00000000E+00  0.00000000E+00
  0.00000000E+00  0.00000000E+00  0.00000000E+00
  0.00000000E+00  0.00000000E+00  0.00000000E+00
  0.00000000E+00  0.00000000E+00  0.00000000E+00
  0.00000000E+00  0.00000000E+00  0.00000000E+00
  0.00000000E+00  0.00000000E+00  0.00000000E+00
  0.00000000E+00  0.00000000E+00  0.00000000E+00
  0.00000000E+00  0.00000000E+00  0.00000000E+00
  0.00000000E+00  0.00000000E+00  0.00000000E+00
  0.00000000E+00  0.00000000E+00  0.00000000E+00
  0.00000000E+00  0.00000000E+00  0.00000000E+00
  0.00000000E+00  0.00000000E+00  0.00000000E+00
  0.00000000E+00  0.00000000E+00  0.00000000E+00
  0.00000000E+00  0.00000000E+00  0.00000000E+00
  0.00000000E+00  0.00000000E+00  0.00000000E+00
  0.00000000E+00  0.00000000E+00  0.00000000E+00
  0.00000000E+00  0.00000000E+00  0.00000000E+00
  0.00000000E+00  0.00000000E+00  0.00000000E+00
  0.00000000E+00  0.00000000E+00  0.00000000E+00
  0.00000000E+00  0.00000000E+00  0.00000000E+00
  0.00000000E+00  0.00000000E+00  0.00000000E+00
  0.00000000E+00  0.00000000E+00  0.00000000E+00
  0.00000000E+00  0.00000000E+00  0.00000000E+00
  0.00000000E+00  0.00000000E+00  0.00000000E+00
  0.00000000E+00  0.00000000E+00  0.00000000E+00
  0.00000000E+00  0.00000000E+00  0.00000000E+00
  0.00000000E+00  0.00000000E+00  0.00000000E+00
  0.00000000E+00  0.00000000E+00  0.00000000E+00
  0.00000000E+00  0.00000000E+00  0.00000000E+00
  0.00000000E+00  0.00000000E+00  0.00000000E+00
  0.00000000E+00  0.00000000E+00  0.00000000E+00
  0.00000000E+00  0.00000000E+00  0.00000000E+00
  0.00000000E+00  0.00000000E+00  0.00000000E+00
  0.00000000E+00  0.00000000E+00  0.00000000E+00
  0.00000000E+00  0.00000000E+00  0.00000000E+00
  0.00000000E+00  0.00000000E+00  0.00000000E+00
  0.00000000E+00  0.00000000E+00  0.00000000E+00
  0.00000000E+00  0.00000000E+00  0.00000000E+00
  0.00000000E+00  0.00000000E+00  0.00000000E+00
  0.00000000E+00  0.00000000E+00  0.00000000E+00
  0.00000000E+00  0.00000000E+00  0.00000000E+00
  0.00000000E+00  0.00000000E+00  0.00000000E+00
  0.00000000E+00  0.00000000E+00  0.00000000E+00
  0.00000000E+00  0.00000000E+00  0.00000000E+00
  0.00000000E+00  0.00000000E+00  0.00000000E+00
  0.00000000E+00  0.00000000E+00  0.00000000E+00
  0.00000000E+00  0.00000000E+00  0.00000000E+00
  0.00000000E+00  0.00000000E+00  0.00000000E+00
  0.00000000E+00  0.00000000E+00  0.00000000E+00
  0.00000000E+00  0.00000000E+00  0.00000000E+00
  0.00000000E+00  0.00000000E+00  0.00000000E+00
  0.00000000E+00  0.00000000E+00  0.00000000E+00
  0.00000000E+00  0.00000000E+00  0.00000000E+00
  0.00000000E+00  0.00000000E+00  0.00000000E+00
  0.00000000E+00  0.00000000E+00  0.00000000E+00
  0.00000000E+00  0.00000000E+00  0.00000000E+00
  0.00000000E+00  0.00000000E+00  0.00000000E+00
  0.00000000E+00  0.00000000E+00  0.00000000E+00
  0.00000000E+00  0.00000000E+00  0.00000000E+00
  0.00000000E+00  0.00000000E+00  0.00000000E+00
  0.00000000E+00  0.00000000E+00  0.00000000E+00
  0.00000000E+00  0.00000000E+00  0.00000000E+00
  0.00000000E+00  0.00000000E+00  0.00000000E+00
