Ca11 Mn16 Te8 O48
1.0
9.354161 0.000000 0.000000
0.000000 9.616332 0.000000
0.000000 0.000000 11.211810
Ca Mn Te O
11 16 8 48
direct
0.289712 0.236779 0.320168 Ca
0.076507 0.747113 0.640330 Ca
0.420798 0.736676 0.638760 Ca
0.751274 0.284263 0.841860 Ca
0.915110 0.761659 0.152356 Ca
0.423210 0.237351 0.845930 Ca
0.078844 0.236663 0.851419 Ca
0.244396 0.716564 0.158565 Ca
0.572360 0.758517 0.155372 Ca
0.750606 0.769283 0.685412 Ca
0.913318 0.251001 0.360333 Ca
0.908229 0.603220 0.383744 Mn
0.930593 0.084136 0.132554 Mn
0.085248 0.421257 0.102641 Mn
0.416922 0.402110 0.609147 Mn
0.592841 0.092573 0.610014 Mn
0.598666 0.103030 0.149329 Mn
0.909931 0.077101 0.618856 Mn
0.087316 0.400747 0.615961 Mn
0.581711 0.581364 0.893808 Mn
0.410098 0.905790 0.865573 Mn
0.085925 0.922330 0.387706 Mn
0.921824 0.581051 0.900515 Mn
0.089916 0.903593 0.872531 Mn
0.399479 0.909286 0.386298 Mn
0.578357 0.569682 0.381150 Mn
0.425448 0.422705 0.094524 Mn
0.754021 0.448641 0.597409 Te
0.249802 0.566346 0.875808 Te
0.738683 0.930465 0.402691 Te
0.258762 0.047848 0.091851 Te
0.748346 0.964345 0.915333 Te
0.251932 0.063986 0.609541 Te
0.751321 0.436542 0.119093 Te
0.238587 0.547843 0.397485 Te
0.070290 0.615147 0.038299 O
0.242030 0.854535 0.493714 O
0.759432 0.037266 0.730688 O
0.109516 0.386953 0.428752 O
0.598084 0.098805 0.943324 O
0.387563 0.104205 0.477714 O
0.904403 0.592369 0.573233 O
0.929202 0.394542 0.970367 O
0.758089 0.435411 0.423266 O
0.752573 0.538037 0.798855 O
0.911027 0.493671 0.223701 O
0.407404 0.511642 0.770141 O
0.248332 0.987047 0.267287 O
0.450834 0.022117 0.715268 O
0.781033 0.194235 0.193640 O
0.594389 0.892793 0.533322 O
0.891447 0.108062 0.949082 O
0.549255 0.969511 0.284472 O
0.242595 0.570711 0.572827 O
0.571924 0.276559 0.678994 O
0.447051 0.242058 0.159788 O
0.428184 0.609149 0.025388 O
0.253038 0.375398 0.951252 O
0.892998 0.886337 0.537040 O
0.087557 0.500125 0.776077 O
0.254196 0.260790 0.673638 O
0.403894 0.425341 0.422773 O
0.422077 0.719432 0.328217 O
0.588892 0.511012 0.211701 O
0.601691 0.587798 0.573130 O
0.043551 0.006640 0.724697 O
0.255818 0.465864 0.196719 O
0.944352 0.997654 0.288464 O
0.079291 0.933147 0.067347 O
0.741456 0.735741 0.331259 O
0.753309 0.625318 0.041518 O
0.943527 0.759733 0.829190 O
0.075542 0.098857 0.492232 O
0.076870 0.236051 0.166515 O
0.379531 0.885635 0.056530 O
0.250932 0.793805 0.777351 O
0.743511 0.930534 0.094062 O
0.248159 0.060699 0.902010 O
0.057852 0.740126 0.317892 O
0.759954 0.139567 0.510361 O
0.940208 0.262891 0.679067 O
0.560621 0.763167 0.822626 O
0.573905 0.393783 0.958150 O
