Ca Co P  O 
1.0
       10.8877773285         0.0000000000         0.0000000000
       -3.0051604600         9.2297970126         0.0000000000
        5.4559167445         3.4191790537        11.3199758184
   Ca   Co    P    O
    4    9   16   56
Direct
     0.875945985         0.549953520         0.454628915
     0.452823490         0.072244100         0.930244207
     0.469027787         0.118706293         0.425394088
     0.296176732         0.644394577         0.161565006
     0.968635201         0.967230678         0.012567178
     0.299147397         0.683879733         0.904289186
     0.802035511         0.180943236         0.403067559
     0.444605321         0.452091008         0.319457501
     0.562067688         0.546486378         0.701586366
     0.944965303         0.936693430         0.805525124
     0.190902874         0.790542781         0.581420898
     0.732867420         0.313677460         0.051396791
     0.073266074         0.062497910         0.196958676
     0.414488971         0.217792839         0.132439911
     0.083495699         0.297539234         0.370293051
     0.240340859         0.530594409         0.724870861
     0.437819541         0.768557727         0.342706770
     0.588792562         0.789700508         0.879746914
     0.721638083         0.031657074         0.214365661
     0.962458551         0.261947721         0.836816311
     0.782444775         0.446155936         0.246341705
     0.317740083         0.365307391         0.991547704
     0.898995996         0.717141747         0.645777345
     0.176318824         0.132736564         0.519300282
     0.041275658         0.727746129         0.153550535
     0.682616234         0.641728640         0.032598861
     0.563483417         0.222084850         0.646546662
     0.826592207         0.867760837         0.485564619
     0.276817471         0.973169863         0.768135369
     0.617978871         0.856462121         0.262470245
     0.879097521         0.037542488         0.152135864
     0.692723036         0.093442395         0.321837991
     0.197705895         0.595577240         0.835269809
     0.976704061         0.776843250         0.716756225
     0.193119466         0.597315669         0.645329952
     0.001608525         0.666562736         0.549335718
     0.518183470         0.725039959         0.804925859
     0.719639659         0.702480316         0.521625161
     0.556799233         0.611009419         0.154936865
     0.608524323         0.657731473         0.946849167
     0.825135231         0.379224688         0.143254116
     0.029394740         0.229040846         0.288377374
     0.617027164         0.160473764         0.727053523
     0.895638824         0.866512060         0.576243818
     0.869755924         0.629955530         0.192548722
     0.907233179         0.345966548         0.929867923
     0.742320240         0.599874616         0.720112264
     0.816796660         0.794343770         0.986234546
     0.329035223         0.901214600         0.846434057
     0.178390637         0.221450195         0.038651302
     0.740487635         0.919230163         0.807423830
     0.617957532         0.408896983         0.316425353
     0.371798247         0.781799555         0.262439400
     0.902954102         0.270744324         0.752290726
     0.319799006         0.270813972         0.475091517
     0.060880601         0.890977979         0.104715660
     0.139398336         0.351373047         0.775942981
     0.142980993         0.676290333         0.058739483
     0.286981136         0.509611607         0.007108062
     0.762332678         0.987642586         0.515343785
     0.416855633         0.607646942         0.394679219
     0.213541538         0.997676551         0.492505550
     0.120334327         0.962721884         0.845403671
     0.433486938         0.245358735         0.237970337
     0.228937700         0.434078157         0.308692843
     0.382260054         0.356631875         0.084395021
     0.935384810         0.100166209         0.895734251
     0.058118924         0.102628395         0.645556927
     0.065415777         0.699360013         0.259949386
     0.840012848         0.402705520         0.329121023
     0.300506532         0.924849570         0.657828331
     0.952740848         0.323007882         0.465560377
     0.621057689         0.394744247         0.612507582
     0.947201252         0.913532853         0.358281165
     0.290653437         0.073382877         0.146963537
     0.434860498         0.377158195         0.870003343
     0.600235820         0.168233112         0.535570085
     0.394700587         0.852273643         0.436683267
     0.728356004         0.510696113         0.012867808
     0.472822338         0.835106134         0.972191632
     0.675212264         0.106036626         0.133691996
     0.098271951         0.162492484         0.441198319
     0.559610844         0.224216178         0.027584102
     0.384327054         0.153792232         0.725393713
     0.397432595         0.545349538         0.677326798
