Ca12 Ti8 Mn12 Si16 O64 F8
1.0
   0.0000000000000000    9.7938672800000006    0.0000000000000000
   9.6640655399999993    0.0000000000000000   -4.7215519300000004
  -9.5850411700000002    0.0000000000000000  -10.1042009799999999
Ca Ti Mn Si O F
12 8 12 16 64 8
direct
   0.6077328600000000    0.2010569500000000    0.9898718200000001 Ca
   0.3922671400000000    0.7989430500000000    0.0101281800000000 Ca
   0.1077328600000000    0.2989430500000000    0.5101281800000000 Ca
   0.8922671400000001    0.7010569500000000    0.4898718200000000 Ca
   0.3807884900000000    0.4264928300000000    0.9193647400000000 Ca
   0.6192115100000000    0.5735071700000001    0.0806352600000000 Ca
   0.8807884900000000    0.0735071700000000    0.5806352600000000 Ca
   0.1192115100000000    0.9264928300000000    0.4193647400000000 Ca
   0.1246769300000000    0.9235939500000000    0.9208412500000001 Ca
   0.8753230700000000    0.0764060500000000    0.0791587500000000 Ca
   0.6246769300000000    0.5764060500000000    0.5791587500000001 Ca
   0.3753230700000000    0.4235939500000000    0.4208412500000000 Ca
   0.4016815400000000    0.7791851000000000    0.7521506000000000 Ti
   0.5983184600000000    0.2208148999999990    0.2478494000000000 Ti
   0.9016815400000000    0.7208148999999990    0.7478494000000000 Ti
   0.0983184600000000    0.2791850999999990    0.2521506000000000 Ti
   0.1059459400000000    0.2836721000000000    0.7677035500000000 Ti
   0.8940540600000000    0.7163279000000000    0.2322964500000000 Ti
   0.6059459400000000    0.2163279000000000    0.7322964500000000 Ti
   0.3940540600000000    0.7836721000000000    0.2677035500000000 Ti
   0.3864592500000000    0.8033912900000000    0.5133544100000000 Mn
   0.6135407500000000    0.1966087100000000    0.4866455900000000 Mn
   0.8864592500000000    0.6966087100000000    0.9866455900000001 Mn
   0.1135407500000000    0.3033912900000000    0.0133544100000000 Mn
   0.3723293700000000    0.4356342200000000    0.6795456200000000 Mn
   0.6276706300000000    0.5643657800000000    0.3204543800000000 Mn
   0.8723293700000000    0.0643657800000000    0.8204543800000000 Mn
   0.1276706300000000    0.9356342200000001    0.1795456200000000 Mn
   0.1340540600000000    0.9357072200000001    0.6800895000000000 Mn
   0.8659459400000000    0.0642927800000000    0.3199105000000000 Mn
   0.6340540600000000    0.5642927800000000    0.8199105000000000 Mn
   0.3659459400000000    0.4357072200000000    0.1800894999999990 Mn
   0.3417241600000000    0.1176115200000000    0.8560918900000000 Si
   0.6582758400000001    0.8823884800000000    0.1439081100000000 Si
   0.8417241600000001    0.3823884800000000    0.6439081100000000 Si
   0.1582758400000000    0.6176115200000000    0.3560918900000000 Si
   0.6687092000000000    0.8781428400000000    0.6428295200000000 Si
   0.3312908000000000    0.1218571600000000    0.3571704800000000 Si
   0.1687092000000000    0.6218571600000000    0.8571704800000001 Si
   0.8312908000000000    0.3781428400000000    0.1428295200000000 Si
   0.1655096900000000    0.6142557600000000    0.5851059500000000 Si
   0.8344903100000001    0.3857442400000000    0.4148940500000000 Si
   0.6655096900000000    0.8857442400000001    0.9148940500000000 Si
   0.3344903100000000    0.1142557600000000    0.0851059500000000 Si
   0.3361623400000000    0.1211552100000000    0.5856922500000000 Si
   0.6638376600000000    0.8788447900000000    0.4143077500000000 Si
   0.8361623400000000    0.3788447900000000    0.9143077500000000 Si
   0.1638376600000000    0.6211552100000000    0.0856922500000000 Si
   0.5198717500000000    0.3818173300000000    0.2758875200000000 O
   0.4801282500000000    0.6181826700000000    0.7241124800000001 O
   0.0198717500000000    0.1181826700000000    0.2241124800000000 O
   0.9801282500000000    0.8818173300000001    0.7758875200000001 O
   0.2210814200000000    0.4748406600000000    0.7991768600000000 O
   0.7789185800000000    0.5251593400000000    0.2008231400000000 O
   0.7210814200000000    0.0251593400000000    0.7008231400000000 O
   0.2789185800000000    0.9748406600000000    0.2991768600000000 O
   0.0287247700000000    0.1220675000000000    0.7368893800000000 O
   0.9712752300000000    0.8779325000000000    0.2631106200000000 O
   0.5287247700000001    0.3779325000000000    0.7631106200000000 O
   0.4712752300000000    0.6220675000000000    0.2368893800000000 O
   0.5063297400000000    0.8445292000000000    0.6508674000000000 O
   0.4936702600000000    0.1554708000000000    0.3491325999999990 O
   0.0063297400000000    0.6554708000000000    0.8491326000000000 O
   0.9936702600000000    0.3445292000000000    0.1508673999999990 O
   0.2359974900000000    0.2416714300000000    0.8724345200000000 O
   0.7640025100000000    0.7583285700000000    0.1275654800000000 O
   0.7359974900000000    0.2583285700000000    0.6275654800000000 O
   0.2640025100000000    0.7416714300000000    0.3724345200000000 O
   0.7462933800000000    0.0194341400000000    0.9215133600000001 O
   0.2537066200000000    0.9805658600000000    0.0784866400000000 O
   0.2462933800000000    0.4805658600000000    0.5784866400000001 O
   0.7537066200000000    0.5194341400000000    0.4215133600000000 O
   0.7595976700000000    0.7629741600000001    0.6675976700000000 O
   0.2404023300000000    0.2370258400000000    0.3324023300000000 O
   0.2595976700000000    0.7370258400000000    0.8324023300000000 O
   0.7404023300000000    0.2629741600000000    0.1675976700000000 O
   0.2726842500000000    0.9780282600000000    0.5777985600000000 O
   0.7273157500000000    0.0219717400000000    0.4222014400000000 O
   0.7726842500000000    0.5219717400000000    0.9222014400000000 O
   0.2273157500000000    0.4780282600000000    0.0777985600000000 O
   0.3781122999999990    0.1123452800000000    0.9703426200000000 O
   0.6218876999999990    0.8876547200000000    0.0296573800000000 O
   0.8781123000000000    0.3876547200000000    0.5296573800000001 O
   0.1218876999999990    0.6123452800000000    0.4703426200000000 O
   0.4870459600000000    0.1532919300000000    0.8132149500000000 O
   0.5129540400000000    0.8467080700000000    0.1867850500000000 O
   0.9870459600000000    0.3467080700000000    0.6867850500000000 O
   0.0129540400000000    0.6532919300000000    0.3132149500000000 O
   0.1975330300000000    0.6516043400000000    0.9793858800000000 O
   0.8024669700000000    0.3483956600000000    0.0206141200000000 O
   0.6975330300000000    0.8483956600000000    0.5206141200000000 O
   0.3024669700000000    0.1516043400000000    0.4793858800000000 O
   0.0022216200000000    0.3673572100000000    0.8966981300000000 O
   0.9977783800000001    0.6326427900000000    0.1033018700000000 O
   0.5022216200000000    0.1326427900000000    0.6033018700000000 O
   0.4977783800000000    0.8673572100000000    0.3966981300000000 O
   0.2774635700000000    0.9764124700000000    0.7911416800000001 O
   0.7225364300000000    0.0235875300000000    0.2088583200000000 O
   0.7774635700000000    0.5235875300000000    0.7088583200000000 O
   0.2225364300000000    0.4764124700000000    0.2911416800000000 O
   0.2595323800000000    0.7463114000000000    0.6321549100000000 O
   0.7404676200000000    0.2536886000000000    0.3678450900000000 O
   0.7595323800000000    0.7536885999999990    0.8678450900000000 O
   0.2404676200000000    0.2463113999999990    0.1321549100000000 O
   0.5192991600000000    0.8666997300000000    0.8551067900000000 O
   0.4807008400000000    0.1333002700000000    0.1448932100000000 O
   0.0192991600000000    0.6333002700000000    0.6448932100000000 O
   0.9807008400000000    0.3666997300000000    0.3551067900000000 O
   0.2586940100000000    0.2419862500000000    0.6690610300000001 O
   0.7413059900000000    0.7580137500000000    0.3309389700000000 O
   0.7586940100000000    0.2580137500000000    0.8309389700000001 O
   0.2413059900000000    0.7419862500000001    0.1690610300000000 O
   0.0146380300000000    0.1218572200000000    0.9566727200000000 F
   0.9853619700000000    0.8781427800000000    0.0433272800000000 F
   0.5146380300000000    0.3781427800000000    0.5433272800000000 F
   0.4853619700000000    0.6218572200000000    0.4566727200000000 F
   0.0079889700000000    0.8904041700000001    0.5582477100000001 F
   0.9920110300000000    0.1095958300000000    0.4417522900000000 F
   0.5079889700000000    0.6095958300000001    0.9417522900000000 F
   0.4920110300000000    0.3904041700000000    0.0582477100000000 F
