Ca Ti Mn Si O  F 
 1.0000000000000000
     0.0000000000000000    9.7938672800000006    0.0000000000000000
     9.6640655399999993    0.0000000000000000   -4.7215519300000004
    -9.5850411700000002    0.0000000000000000  -10.1042009799999999
 Ca  Ti  Mn  Si  O   F  
  12   8  12  16  64   8
Cartesian
 -7.4817192756760509  5.9832288589953802 -10.8052929173185586
  7.5607436456760402  3.8106384210046107 -4.0204599926814524
 -2.0638097093239494  1.0862952189953856 -6.7117845176814468
  2.1428340793239475  8.7075720610046083 -8.1139683923185562
 -4.6706603830071316  3.5846163194004217 -11.2569239815970441
  4.7496847530071200  6.2092509605995811 -3.5688289284029699
 -4.8748686019928833  8.4815499594004198 -6.2601534534029568
  4.9538929719928726  1.3123173205995760 -8.5655994565970435
  0.0915190297848561  1.1705846984550952 -13.5271320916849280
 -0.0124946597848597  8.6232825815449043 -1.2986208183150811
  0.0270175252151367  6.0675183384550948 -8.7114972733150804
  0.0520068447848589  3.7263489415449018 -6.1142556366849243
  0.3559444480586903  3.9288828875377626 -11.2928093279557835
 -0.2769200780586952  5.8649843924622385 -3.5329435820442243
 -0.2374078930586936  8.8258165275377642 -10.9458200370442214
  0.3164322630586920  0.9680507524622359 -3.8799328729557772
 -4.6793918492866249  0.9748054520723767 -9.0369519093653512
  4.7584162192866222  8.8190618279276247 -5.7888010006346500
 -4.8661371357133731  5.8717390920723700 -8.4801255256346533
  4.9451615057133722  3.9221281879276186 -6.3456273843653577
  2.8677838680390693  3.8247326443472489 -8.9964916785253006
 -2.7887594980390755  5.9691346356527468 -5.8292612314747130
 -2.7492473130390751  8.7216662843472577 -13.2421376864747167
  2.8282716830390746  1.0722009956527456 -1.5836152235252894
 -2.3297907078332725  3.6456591451468232 -8.9447510412399147
  2.4088150778332742  6.1482081348531699 -5.8810018687600945
 -7.2157382771667278  8.5425927851468266 -8.5723263937600951
  7.2947626471667215  1.2512744948531682 -6.2534265162399043
  2.4938567731667467  1.2736928045705334 -11.2719548156027525
 -2.4148324031667481  8.5201744754294619 -3.5537980943972554
 -2.3753202181667485  6.1706264445705346 -10.9666745493972577
  2.4543445881667449  3.6232408354294612 -3.8590783606027466
 -7.0909479368854083  3.3323399705013719 -9.2044821598137787
  7.1699723068854047  6.4615273094986270 -5.6212707501862305
 -2.4545810481145951  8.2292736105013748 -8.3125952751862293
  2.5336054181145893  1.5645936694986242 -6.5131576348137799
  2.3305213169363768  6.5561231756369649 -10.6505345109345786
 -2.2514969469363830  3.2377441043630277 -4.1752183990654235
 -2.2119847619363835  1.6591895356369664 -11.5880948540654263
  2.2910091319363781  8.1346777443630334 -3.2376580559345816
  0.3581373495081412  1.6221699880799645 -8.8409589464731280
 -0.2791129795081448  8.1716972919200384 -5.9847939635268794
 -0.2396007945081463  6.5191036280799599 -13.3976704185268822
  0.3186251645081421  3.2747636519200372 -1.4280824914731305
 -4.4619808319634595  3.2677461719317744 -6.5008020038012813
  4.5410052019634568  6.5261211080682147 -8.3249509061987297
 -5.0835481530365421  8.1646798119317765 -11.0162754311987250
  5.1625725230365385  1.6291874680682201 -3.8094774788012771
  1.0199182657221157  5.1135242677771418 -4.5832189569338944
 -0.9408938957221171  4.6803430122228535 -10.2425339530661041
 -0.9804060807221220  0.2165906277771411 -2.8296574980661076
  1.0594304507221224  9.5772766522228512 -11.9960954119338954
 -3.0685520805923767  2.1596674635604312 -10.3196308104168093
  3.1475764505923665  7.6341998164395619 -4.5061220995831999
 -6.4769769044076337  7.0566011035604346 -7.1974466245831961
  6.5560012744076284  2.7372661764395572 -7.6283062854168033
 -5.8082740615699402  0.1956558913021600 -7.8333519482208605
  5.8872984315699304  9.5982113886978393 -6.9924009617791452
 -3.7372549234300672  5.0925895313021590 -9.6837254867791511
  3.8162792934300636  4.7012777486978319 -5.1420274232208607
  1.8796408144808197  5.0011261110724528 -10.5091356855157887
 -1.8006164444808201  4.7927411689275381 -4.3166172244842267
 -1.7611042594808135  0.1041924710724582 -11.7294936794842304
  1.8401286294808128  9.6896748089275437 -3.0962592305157739
 -6.0326482421856165  2.2848198113026719 -9.9100609916304823
  6.1116726121856182  7.5090474686973305 -4.9156919183695207
 -3.5128807428143856  7.1817534513026766 -7.6070164433695240
  3.5919051128143837  2.6121138286973213 -7.2187364666304834
 -8.7621078648791944  7.3229275419482391 -9.5165443455584935
  8.8411322348791934  2.4709397380517588 -5.3092085644415103
 -0.7834211201208106  2.4259939019482384 -8.0005330894415128
  0.8624454901208086  7.3678733780517591 -6.8252198205584875
  1.0569797310859721  7.4950720862688387 -10.2119843973605491
 -0.9779553610859754  2.2987951937311588 -4.6137685126394548
 -0.9384431760859795  2.5981384462688419 -12.0266449676394505
  1.0174675460859728  7.1957288337311596 -2.7991079423605534
  3.9523502013480258  2.6206280974401790 -10.4114103131700588
 -3.8733258313480339  7.1732391825598141 -4.4143425968299539
 -3.8338136463480326  7.5175617374401780 -11.8272190518299514
  3.9128380163480316  2.2763055425598204 -2.9985338581700498
 -8.1130710821638949  3.7168593942616872 -10.4420975883368765
  8.1920954521638869  6.0770078857383059 -4.3836553216631327
 -1.4324579028361004  8.6137930342616915 -7.0749798466631413
  1.5114822728360993  1.1800742457383049 -7.7507730633368705
 -6.3838846245944127  4.7733718363979651 -9.0093183782927966
  6.4629089945944020  5.0204954436020381 -5.8164345317072188
 -3.1616443604055817  9.6703054763979708 -8.5077590567072274
  3.2406687304055870  0.1235618036020327 -6.3179938532927906
 -3.1319361512452106  1.9799511509680305 -12.9275492473640394
  3.2109605212452061  7.8139161290319707 -1.8982036626359684
  3.2504727062452079  6.8768847909680257 -9.3110801176359708
 -3.1714483362452168  2.9169824890319678 -5.5146727923640313
 -5.0746422494437367 -0.0191517311127924 -10.7718187607189400
  5.1536666194437357  9.8130190111127895 -4.0539341492810665
 -4.4708867355562552  4.8777819088872061 -6.7452586742810690
  4.5499111055562569  4.9160853711127830 -8.0804942357189447
  1.7382100280864952  2.6808470676565994 -12.7056749433196163
 -1.6591856580865016  7.1130202123434021 -2.1200779666803915
 -1.6196734730865032  7.5777807076565979 -9.5329544216803903
  1.6986978430865023  2.2160865723434009 -5.2927984883196144
  1.1248882732885730  2.5376706834788019 -9.9588551028227208
 -1.0458639032885744  7.2561965965211996 -4.8668978071772857
 -1.0063517182885751  7.4346043234787924 -12.2797742621772823
  1.0853760882885708  2.3592629565211976 -2.5459786478227238
  0.1966877077587638  5.0635853608017181 -12.8310648830801277
 -0.1176633377587653  4.7302819191982817 -1.9946880269198797
 -0.0781511527587633  0.1666517208017249 -9.4075644819198896
  0.1571755227587595  9.6272155591982802 -5.4181884280801258
 -3.9565019767865071  2.4442015314681096 -7.8265642637620241
  4.0355263467865061  7.3496657485318764 -6.9991886462379789
 -5.5890270082134901  7.3411351714681139 -9.6905131712379777
  5.6680513782134812  2.4527321085318818 -5.1352397387620270
 -8.1196558971689168  0.1658405597192057 -10.2271328086814943
  8.1986802671689052  9.6280267202807899 -4.5986201013185219
 -1.4258730878310879  5.0627741997192093 -7.2899446263185146
  1.5048974578310903  4.7310930802807878 -7.5358082836814875
  3.4320402485258090 -0.0533591212648699 -9.6313825553441657
 -3.3530158785258091  9.8472264012648623 -5.1943703546558293
 -3.3135036935258153  4.8435745187351316 -12.6072468096558374
  3.3925280635258046  4.9502927612648753 -2.2185061003441771
