Ca2 V6 O15
1.0
       11.0808181763         0.0000000000         0.0000000000
       -1.8468029564         7.7866447772         0.0000000000
        0.0000000000        -3.0461372259         9.8078967616
   Ca    V    O
    5   18   45
Direct
     0.849070311         0.094421998         0.335768014
     0.182403669         0.094421998         0.335768014
     0.150929675         0.905578017         0.664232016
     0.484263003         0.905578017         0.664232016
     0.817596316         0.905578017         0.664232016
     0.037824664         0.226946995         0.115149997
     0.371158004         0.226946995         0.115149997
     0.704491317         0.226946995         0.115149997
     0.295508653         0.773052990         0.884850025
     0.628841996         0.773052990         0.884850025
     0.962175310         0.773052990         0.884850025
     0.110535674         0.663214028         0.092929997
     0.443868995         0.663214028         0.092929997
     0.777202368         0.663214028         0.092929997
     0.222797677         0.336786002         0.907069981
     0.556131005         0.336786002         0.907069981
     0.889464319         0.336786002         0.907069981
     0.095014334         0.570086002         0.406190008
     0.428347677         0.570086002         0.406190008
     0.761681020         0.570086002         0.406190008
     0.238318995         0.429913998         0.593810022
     0.571652353         0.429913998         0.593810022
     0.904985666         0.429913998         0.593810022
     0.000000000         0.000000000         0.000000000
     0.333333343         0.000000000         0.000000000
     0.666666687         0.000000000         0.000000000
     0.270061672         0.620369971         0.041937001
     0.603394985         0.620369971         0.041937001
     0.936728358         0.620369971         0.041937001
     0.063271664         0.379629999         0.958063006
     0.396604985         0.379629999         0.958063006
     0.729938328         0.379629999         0.958063006
     0.210464671         0.262787014         0.080059998
     0.543798029         0.262787014         0.080059998
     0.877131343         0.262787014         0.080059998
     0.122868665         0.737213016         0.919939995
     0.456202000         0.737213016         0.919939995
     0.789535344         0.737213016         0.919939995
     0.143090338         0.858541012         0.212816000
     0.476423681         0.858541012         0.212816000
     0.809756994         0.858541012         0.212816000
     0.190243006         0.141459003         0.787184000
     0.523576319         0.141459003         0.787184000
     0.856909692         0.141459003         0.787184000
     0.085772336         0.514634013         0.224868000
     0.419105679         0.514634013         0.224868000
     0.752439022         0.514634013         0.224868000
     0.247560993         0.485365987         0.775132000
     0.580894351         0.485365987         0.775132000
     0.914227664         0.485365987         0.775132000
     0.032046333         0.192277998         0.268911004
     0.365379661         0.192277998         0.268911004
     0.698713005         0.192277998         0.268911004
     0.301286995         0.807721972         0.731088996
     0.634620309         0.807721972         0.731088996
     0.967953682         0.807721972         0.731088996
     0.081691667         0.490148991         0.574267030
     0.415024996         0.490148991         0.574267030
     0.748358309         0.490148991         0.574267030
     0.251641661         0.509850979         0.425733000
     0.584975004         0.509850979         0.425733000
     0.918308318         0.509850979         0.425733000
     0.131631330         0.789789021         0.466903001
     0.464964658         0.789789021         0.466903001
     0.798298001         0.789789021         0.466903001
     0.201701999         0.210210994         0.533097029
     0.535035312         0.210210994         0.533097029
     0.868368685         0.210210994         0.533097029
