Ca Cr P  O 
1.0
       17.2403411865         0.0000000000         0.0000000000
       -0.0000250736        14.4845590591         0.0000000000
        0.0000567432         3.4953760149         9.0321100500
   Ca   Cr    P    O
   15   16   32  112
Direct
     0.573061883         0.597514868         0.451398253
     0.426934868         0.402481318         0.548599720
     0.426934868         0.902481318         0.548599720
     0.926934838         0.402481318         0.548599720
     0.926934838         0.902481318         0.548599720
     0.073061906         0.097514890         0.451398253
     0.073061906         0.597514868         0.451398253
     0.573061883         0.097514890         0.451398253
     0.176940694         0.097531177         0.951378226
     0.176940694         0.597531199         0.951378226
     0.676940680         0.097531177         0.951378226
     0.323061526         0.402478844         0.048613474
     0.323061526         0.902478814         0.048613474
     0.823061526         0.402478844         0.048613474
     0.823061526         0.902478814         0.048613474
     0.380967468         0.145071372         0.010218663
     0.380967468         0.645071387         0.010218663
     0.880967498         0.145071372         0.010218663
     0.880967498         0.645071387         0.010218663
     0.368981004         0.145093605         0.510193765
     0.368981004         0.645093620         0.510193765
     0.868981004         0.145093605         0.510193765
     0.868981004         0.645093620         0.510193765
     0.131026939         0.354911625         0.489794552
     0.131026939         0.854911625         0.489794552
     0.631026924         0.354911625         0.489794552
     0.631026924         0.854911625         0.489794552
     0.119036540         0.354929358         0.989778221
     0.119036540         0.854929328         0.989778221
     0.619036555         0.354929358         0.989778221
     0.619036555         0.854929328         0.989778221
     0.029462388         0.224381223         0.789940596
     0.029462388         0.724381208         0.789940596
     0.529462397         0.224381223         0.789940596
     0.529462397         0.724381208         0.789940596
     0.470523238         0.275635779         0.210091785
     0.470523238         0.775635779         0.210091785
     0.970523238         0.275635779         0.210091785
     0.970523238         0.775635779         0.210091785
     0.220567197         0.224434182         0.289949030
     0.220567197         0.724434197         0.289949030
     0.720567226         0.224434182         0.289949030
     0.720567226         0.724434197         0.289949030
     0.480957836         0.018445192         0.794531345
     0.480957836         0.518445194         0.794531345
     0.980957866         0.018445192         0.794531345
     0.980957866         0.518445194         0.794531345
     0.230994761         0.481488794         0.705467105
     0.230994761         0.981488824         0.705467105
     0.730994761         0.481488794         0.705467105
     0.730994761         0.981488824         0.705467105
     0.019029280         0.481567502         0.205447987
     0.019029280         0.981567502         0.205447987
     0.519029260         0.481567502         0.205447987
     0.519029260         0.981567502         0.205447987
     0.269009262         0.018479330         0.294539958
     0.269009262         0.518479347         0.294539958
     0.769009233         0.018479330         0.294539958
     0.769009233         0.518479347         0.294539958
     0.279421687         0.275586367         0.710100949
     0.279421687         0.775586367         0.710100949
     0.779421687         0.275586367         0.710100949
     0.779421687         0.775586367         0.710100949
     0.213999867         0.295025885         0.126448214
     0.213999867         0.795025885         0.126448214
     0.713999867         0.295025885         0.126448214
     0.713999867         0.795025885         0.126448214
     0.339500278         0.016793998         0.389032990
     0.339500278         0.516794026         0.389032990
     0.839500308         0.016793998         0.389032990
     0.839500308         0.516794026         0.389032990
     0.467317641         0.071528934         0.154284954
     0.467317641         0.571528912         0.154284954
     0.967317641         0.071528934         0.154284954
     0.967317641         0.571528912         0.154284954
     0.291569442         0.039962210         0.127548203
     0.291569442         0.539962232         0.127548203
     0.791569471         0.039962210         0.127548203
     0.791569471         0.539962232         0.127548203
     0.208437368         0.460046411         0.872424722
     0.208437368         0.960046411         0.872424722
     0.708437383         0.460046411         0.872424722
     0.708437383         0.960046411         0.872424722
     0.032677013         0.428461164         0.845724106
     0.032677013         0.928461194         0.845724106
     0.532676995         0.428461164         0.845724106
     0.532676995         0.928461194         0.845724106
     0.160509989         0.483222276         0.610995471
     0.160509989         0.983222246         0.610995471
     0.660510004         0.483222276         0.610995471
     0.660510004         0.983222246         0.610995471
     0.288401514         0.388658643         0.714199722
     0.288401514         0.888658643         0.714199722
     0.788401484         0.388658643         0.714199722
     0.788401484         0.888658643         0.714199722
     0.041548844         0.460017115         0.372476012
     0.041548844         0.960017085         0.372476012
     0.541548848         0.460017115         0.372476012
     0.541548848         0.960017085         0.372476012
     0.217336804         0.428467840         0.345740527
     0.217336804         0.928467870         0.345740527
     0.717336774         0.428467840         0.345740527
     0.717336774         0.928467870         0.345740527
     0.089495383         0.483191699         0.110963374
     0.089495383         0.983191729         0.110963374
     0.589495361         0.483191699         0.110963374
     0.589495361         0.983191729         0.110963374
     0.035936903         0.295029432         0.626425326
     0.035936903         0.795029402         0.626425326
     0.535936892         0.295029432         0.626425326
     0.535936892         0.795029402         0.626425326
     0.097957745         0.228616521         0.886578739
     0.097957745         0.728616536         0.886578739
     0.597957730         0.228616521         0.886578739
     0.597957730         0.728616536         0.886578739
     0.461641163         0.388666302         0.214246735
     0.461641163         0.888666272         0.214246735
     0.961641192         0.388666302         0.214246735
     0.961641192         0.888666272         0.214246735
     0.450410873         0.237380475         0.847205877
     0.450410873         0.737380505         0.847205877
     0.950410843         0.237380475         0.847205877
     0.950410843         0.737380505         0.847205877
     0.458457857         0.039974704         0.627519429
     0.458457857         0.539974689         0.627519429
     0.958457828         0.039974704         0.627519429
     0.958457828         0.539974689         0.627519429
     0.347939551         0.271436721         0.613493204
     0.347939551         0.771436691         0.613493204
     0.847939551         0.271436721         0.613493204
     0.847939551         0.771436691         0.613493204
     0.286006033         0.204983309         0.873535216
     0.286006033         0.704983294         0.873535216
     0.786006033         0.204983309         0.873535216
     0.786006033         0.704983294         0.873535216
     0.200395346         0.262647331         0.652699947
     0.200395346         0.762647331         0.652699947
     0.700395346         0.262647331         0.652699947
     0.700395346         0.762647331         0.652699947
     0.152069241         0.228567645         0.386490345
     0.152069241         0.728567660         0.386490345
     0.652069211         0.228567645         0.386490345
     0.652069211         0.728567660         0.386490345
     0.299597383         0.237340510         0.347293407
     0.299597383         0.737340510         0.347293407
     0.799597383         0.237340510         0.347293407
     0.799597383         0.737340510         0.347293407
     0.049579948         0.262604028         0.152816907
     0.049579948         0.762603998         0.152816907
     0.549579978         0.262604028         0.152816907
     0.549579978         0.762603998         0.152816907
     0.038377881         0.111346357         0.785744488
     0.038377881         0.611346364         0.785744488
     0.538377881         0.111346357         0.785744488
     0.538377881         0.611346364         0.785744488
     0.402043730         0.271371543         0.113407254
     0.402043730         0.771371543         0.113407254
     0.902043700         0.271371543         0.113407254
     0.902043700         0.771371543         0.113407254
     0.464075357         0.204967186         0.373545289
     0.464075357         0.704967201         0.373545289
     0.964075327         0.204967186         0.373545289
     0.964075327         0.704967201         0.373545289
     0.410497934         0.016811565         0.889044642
     0.410497934         0.516811550         0.889044642
     0.910497904         0.016811565         0.889044642
     0.910497904         0.516811550         0.889044642
     0.282643944         0.071522474         0.654272556
     0.282643944         0.571522474         0.654272556
     0.782643914         0.071522474         0.654272556
     0.782643914         0.571522474         0.654272556
     0.211598411         0.111327112         0.285798728
     0.211598411         0.611327112         0.285798728
     0.711598396         0.111327112         0.285798728
     0.711598396         0.611327112         0.285798728
