Ca V  P  O 
1.0
       13.2010898590         0.0000000000         0.0000000000
        2.1043356405        13.0322885549         0.0000000000
        3.4434513330         2.9320337652        12.7658708528
   Ca    V    P    O
   15   16   32  112
Direct
     0.474854946         0.622259259         0.376311183
     0.122260302         0.974852502         0.876310885
     0.122260302         0.474852502         0.876310885
     0.622260332         0.974852502         0.876310885
     0.622260332         0.474852502         0.876310885
     0.974854946         0.122259267         0.376311183
     0.974854946         0.622259259         0.376311183
     0.474854946         0.122259267         0.376311183
     0.525144279         0.877741218         0.623688877
     0.025144279         0.377741188         0.623688877
     0.025144279         0.877741218         0.623688877
     0.377740175         0.525147676         0.123688981
     0.377740175         0.025147676         0.123688981
     0.877740145         0.525147676         0.123688981
     0.877740145         0.025147676         0.123688981
     0.062881827         0.301361829         0.136988416
     0.062881827         0.801361799         0.136988416
     0.562881827         0.301361829         0.136988416
     0.562881827         0.801361799         0.136988416
     0.198636949         0.437119007         0.363010973
     0.198636949         0.937119007         0.363010973
     0.698636949         0.437119007         0.363010973
     0.698636949         0.937119007         0.363010973
     0.301363289         0.062880419         0.636988103
     0.301363289         0.562880397         0.636988103
     0.801363289         0.062880419         0.636988103
     0.801363289         0.562880397         0.636988103
     0.437113523         0.198638737         0.863014102
     0.437113523         0.698638737         0.863014102
     0.937113523         0.198638737         0.863014102
     0.937113523         0.698638737         0.863014102
     0.449195445         0.379796714         0.366865575
     0.449195445         0.879796743         0.366865575
     0.949195445         0.379796714         0.366865575
     0.949195445         0.879796743         0.366865575
     0.294881165         0.331644386         0.572931290
     0.294881165         0.831644416         0.572931290
     0.794881165         0.331644386         0.572931290
     0.794881165         0.831644416         0.572931290
     0.168396816         0.205145702         0.927070022
     0.168396816         0.705145717         0.927070022
     0.668396831         0.205145702         0.927070022
     0.668396831         0.705145717         0.927070022
     0.379792154         0.449193388         0.866857529
     0.379792154         0.949193358         0.866857529
     0.879792154         0.449193388         0.866857529
     0.879792154         0.949193358         0.866857529
     0.120204531         0.050804380         0.133145303
     0.120204531         0.550804377         0.133145303
     0.620204508         0.050804380         0.133145303
     0.620204508         0.550804377         0.133145303
     0.331662536         0.294843704         0.072909564
     0.331662536         0.794843674         0.072909564
     0.831662536         0.294843704         0.072909564
     0.831662536         0.794843674         0.072909564
     0.205128178         0.168351948         0.427080095
     0.205128178         0.668351948         0.427080095
     0.705128193         0.168351948         0.427080095
     0.705128193         0.668351948         0.427080095
     0.050804220         0.120197348         0.633134544
     0.050804220         0.620197356         0.633134544
     0.550804198         0.120197348         0.633134544
     0.550804198         0.620197356         0.633134544
     0.023596995         0.435954362         0.402429640
     0.023596995         0.935954332         0.402429640
     0.523597002         0.435954362         0.402429640
     0.523597002         0.935954332         0.402429640
     0.064045332         0.476402164         0.097568601
     0.064045332         0.976402164         0.097568601
     0.564045310         0.476402164         0.097568601
     0.564045310         0.976402164         0.097568601
     0.346095115         0.401030302         0.618129492
     0.346095115         0.901030302         0.618129492
     0.846095085         0.401030302         0.618129492
     0.846095085         0.901030302         0.618129492
     0.369879931         0.460601151         0.314500570
     0.369879931         0.960601151         0.314500570
     0.869879961         0.460601151         0.314500570
     0.869879961         0.960601151         0.314500570
     0.274469763         0.228641227         0.858512938
     0.274469763         0.728641212         0.858512938
     0.774469733         0.228641227         0.858512938
     0.774469733         0.728641212         0.858512938
     0.005526902         0.299431264         0.302445114
     0.005526902         0.799431264         0.302445114
     0.505526900         0.299431264         0.302445114
     0.505526900         0.799431264         0.302445114
     0.387565613         0.305174977         0.471643597
     0.387565613         0.805174947         0.471643597
     0.887565613         0.305174977         0.471643597
     0.887565613         0.805174947         0.471643597
     0.107574999         0.300047487         0.970972419
     0.107574999         0.800047517         0.970972419
     0.607574999         0.300047487         0.970972419
     0.607574999         0.800047517         0.970972419
     0.199952587         0.392422885         0.529028058
     0.199952587         0.892422915         0.529028058
     0.699952602         0.392422885         0.529028058
     0.699952602         0.892422915         0.529028058
     0.271352947         0.225515231         0.641495824
     0.271352947         0.725515246         0.641495824
     0.771352947         0.225515231         0.641495824
     0.771352947         0.725515246         0.641495824
     0.194824576         0.112432249         0.028356241
     0.194824576         0.612432241         0.028356241
     0.694824576         0.112432249         0.028356241
     0.694824576         0.612432241         0.028356241
     0.401035815         0.346104562         0.118137434
     0.401035815         0.846104562         0.118137434
     0.901035786         0.346104562         0.118137434
     0.901035786         0.846104562         0.118137434
     0.200564533         0.494476050         0.197550252
     0.200564533         0.994476080         0.197550252
     0.700564504         0.494476050         0.197550252
     0.700564504         0.994476080         0.197550252
     0.039401863         0.130117252         0.185497195
     0.039401863         0.630117238         0.185497195
     0.539401889         0.130117252         0.185497195
     0.539401889         0.630117238         0.185497195
     0.460599810         0.369881421         0.814502299
     0.460599810         0.869881392         0.814502299
     0.960599780         0.369881421         0.814502299
     0.960599780         0.869881392         0.814502299
     0.299435198         0.005523711         0.802450061
     0.299435198         0.505523682         0.802450061
     0.799435198         0.005523711         0.802450061
     0.799435198         0.505523682         0.802450061
     0.098950341         0.153888881         0.881857514
     0.098950341         0.653888881         0.881857514
     0.598950326         0.153888881         0.881857514
     0.598950326         0.653888881         0.881857514
     0.305173755         0.387573600         0.971638322
     0.305173755         0.887573600         0.971638322
     0.805173755         0.387573600         0.971638322
     0.805173755         0.887573600         0.971638322
     0.228647843         0.274493009         0.358498096
     0.228647843         0.774492979         0.358498096
     0.728647828         0.274493009         0.358498096
     0.728647828         0.774492979         0.358498096
     0.300044179         0.107578516         0.470971495
     0.300044179         0.607578516         0.470971495
     0.800044179         0.107578516         0.470971495
     0.800044179         0.607578516         0.470971495
     0.392412841         0.199970454         0.029034149
     0.392412841         0.699970484         0.029034149
     0.892412841         0.199970454         0.029034149
     0.892412841         0.699970484         0.029034149
     0.112434030         0.194825634         0.528356135
     0.112434030         0.694825649         0.528356135
     0.612434030         0.194825634         0.528356135
     0.612434030         0.694825649         0.528356135
     0.494472831         0.200569451         0.697556019
     0.494472831         0.700569451         0.697556019
     0.994472861         0.200569451         0.697556019
     0.994472861         0.700569451         0.697556019
     0.225502938         0.271354169         0.141506389
     0.225502938         0.771354198         0.141506389
     0.725502968         0.271354169         0.141506389
     0.725502968         0.771354198         0.141506389
     0.130118281         0.039401192         0.685498416
     0.130118281         0.539401174         0.685498416
     0.630118251         0.039401192         0.685498416
     0.630118251         0.539401174         0.685498416
     0.153899387         0.098963998         0.381865919
     0.153899387         0.598963976         0.381865919
     0.653899372         0.098963998         0.381865919
     0.653899372         0.598963976         0.381865919
     0.435955942         0.023599105         0.902431369
     0.435955942         0.523599088         0.902431369
     0.935955942         0.023599105         0.902431369
     0.935955942         0.523599088         0.902431369
     0.476405293         0.064047478         0.597571194
     0.476405293         0.564047456         0.597571194
     0.976405263         0.064047478         0.597571194
     0.976405263         0.564047456         0.597571194
