Ca V  P  O 
 1.0000000000000000
    10.5155344009000000    0.0000000000000000    0.0000000000000000
     0.0000067011000000    7.1892080306999997    0.0000000000000000
     0.0000045097000000    3.2146597663000001    7.8328516333999998
 Ca  V   P   O  
   3   4   8  28
Selective dynamics
Cartesian
  7.8158002791527004  4.2124480660369974  4.2198958165964395   T   T   T
  2.1864511026053268  7.3178311497813935  7.0245065373378210   T   T   T
  3.0769069522530277  5.7463952303394903  3.1114785756045920   T   T   T
  6.4220944077806559  7.6072914601583941  5.8343614562237596   T   T   T
  9.3538271306414771  6.1204145926069868  1.8804513550569435   T   T   T
  1.1267238454301849  4.2738527296040010  5.8831894329052572   T   T   T
  4.1707610498354697  2.6964605283558019  1.9986315363507079   T   T   T
  9.0431411874606553  9.4437919400336625  6.1752228047874551   T   T   T
  6.7603282842086410  7.8902314764608255  2.4201398202899931   T   T   T
  9.5277469303011006  6.7234605848372597  5.3350576870608961   T   T   T
  6.1851701362958105  5.2713753198790076  1.3629811260888467   T   T   T
  4.3207987297675912  5.1981644811727081  6.3907048499612387   T   T   T
  0.9430401632594838  3.6649713481218624  2.4497508395710854   T   T   T
  3.7308810645914074  2.4972529987315859  5.4913711314110945   T   T   T
  1.5232345265594169  0.9331014022443945  1.5829141979606467   T   T   T
  7.5680964260296859  2.2201688329180382  5.6738336165302412   T   T   T
  9.2990114411809746  9.1874699507139344  7.6332215833081607   T   T   T
  4.3779916981842408  8.3357736665010229  5.8219315743632354   T   T   T
  9.8074706806500345  8.3139062992836390  5.2609800668138691   T   T   T
  8.2440387620520017  0.6004488756010457  2.0210288468351978   T   T   T
  6.4806333716111544  7.3592856993106910  3.8360777891918318   T   T   T
  6.2947263062835450  4.7981734392680178 -0.0566137122407284   T   T   T
  0.8621825165427788  6.7930430722572099  1.9719024095717896   T   T   T
  5.9518374845127058  6.8718556200069498  1.4095384679388341   T   T   T
  8.2007932933033576  6.5277045946029855  6.0757823858900455   T   T   T
  9.3860269952634994  6.0821475983976736  3.9444585246890673   T   T   T
  0.2916109664014481  6.2194605468412600  6.0340617559848315   T   T   T
  5.5958385606627994  5.6850846352819131  5.7085344305589141   T   T   T
  7.4917798971010239  5.0308573235803413  2.1586556296493691   T   T   T
  3.0251001003763811  5.5032367435684151  5.5561332576865698   T   T   T
  4.9404117260348253  4.7107386545503225  2.0921609938460404   T   T   T
 10.1609775105415867  4.2114841584337972  1.8839101885809169   T   T   T
  1.2868593283818648  4.2455408777273691  3.8171136991908705   T   T   T
  2.2135002669521442  3.9422548960448474  1.5690520601354483   T   T   T
  4.4463523386506667  3.5994027401177218  6.4844371859355450   T   T   T
  9.6382372686330111  3.5663833521701824  5.6350359321709824   T   T   T
  4.0783630086413440  5.8299899524078045  7.7522779474826438   T   T   T
  3.9330729275560041  3.0075818633992522  4.0799130527117455   T   T   T
  2.2584306132746135  9.6039236385478421  5.9754683440867327   T   T   T
  0.7905715976076954  2.0684537659544180  2.5175966973217849   T   T   T
  6.1566042146060562  2.0728414411219949  2.1854251083235896   T   T   T
  1.3532822861944263  1.3628622778583541  0.1405688801551368   T   T   T
  2.9901443022852470  8.0459310875706365  2.0868217490645797   T   T   T
