Ca V  Cu O 
1.0
       11.0153036118         0.0000000000         0.0000000000
       -4.0707232293        13.5015940139         0.0000000000
        4.0905637217        -1.8379711091        13.3783669668
   Ca    V   Cu    O
   15   40    8   96
Direct
     0.875628471         0.342963278         0.841986537
     0.128272206         0.164522931         0.163407385
     0.128272206         0.164522931         0.663407385
     0.128272206         0.664522946         0.163407385
     0.128272206         0.664522946         0.663407385
     0.628272176         0.164522931         0.163407385
     0.628272176         0.164522931         0.663407385
     0.628272176         0.664522946         0.163407385
     0.628272176         0.664522946         0.663407385
     0.375628471         0.342963278         0.341986567
     0.375628471         0.842963278         0.341986567
     0.375628471         0.842963278         0.841986537
     0.875628471         0.342963278         0.341986567
     0.875628471         0.842963278         0.341986567
     0.875628471         0.842963278         0.841986537
     0.123997569         0.466396183         0.466223001
     0.123997569         0.466396183         0.966223001
     0.123997569         0.966396213         0.466223001
     0.123997569         0.966396213         0.966223001
     0.623997569         0.466396183         0.466223001
     0.623997569         0.466396183         0.966223001
     0.623997569         0.966396213         0.466223001
     0.623997569         0.966396213         0.966223001
     0.304480344         0.079460993         0.313471317
     0.304480344         0.079460993         0.813471317
     0.304480344         0.579460979         0.313471317
     0.304480344         0.579460979         0.813471317
     0.804480314         0.079460993         0.313471317
     0.804480314         0.079460993         0.813471317
     0.804480314         0.579460979         0.313471317
     0.804480314         0.579460979         0.813471317
     0.446927130         0.313749552         0.079783760
     0.446927130         0.313749552         0.579783738
     0.446927130         0.813749552         0.079783760
     0.446927130         0.813749552         0.579783738
     0.946927130         0.313749552         0.079783760
     0.946927130         0.313749552         0.579783738
     0.946927130         0.813749552         0.079783760
     0.946927130         0.813749552         0.579783738
     0.068273090         0.181300297         0.416946381
     0.068273090         0.181300297         0.916946411
     0.068273090         0.681300282         0.416946381
     0.068273090         0.681300282         0.916946411
     0.568273067         0.181300297         0.416946381
     0.568273067         0.181300297         0.916946411
     0.568273067         0.681300282         0.416946381
     0.568273067         0.681300282         0.916946411
     0.181529179         0.417382509         0.181544900
     0.181529179         0.417382509         0.681544900
     0.181529179         0.917382479         0.181544900
     0.181529179         0.917382479         0.681544900
     0.681529164         0.417382509         0.181544900
     0.681529164         0.417382509         0.681544900
     0.681529164         0.917382479         0.181544900
     0.681529164         0.917382479         0.681544900
     0.380155951         0.033554398         0.032046355
     0.380155951         0.033554398         0.532046378
     0.380155951         0.533554375         0.032046355
     0.380155951         0.533554375         0.532046378
     0.880155921         0.033554398         0.032046355
     0.880155921         0.033554398         0.532046378
     0.880155921         0.533554375         0.032046355
     0.880155921         0.533554375         0.532046378
     0.315827817         0.998253107         0.401087940
     0.315827817         0.998253107         0.901087940
     0.315827817         0.498253107         0.401087940
     0.315827817         0.498253107         0.901087940
     0.815827847         0.998253107         0.401087940
     0.815827847         0.998253107         0.901087940
     0.815827847         0.498253107         0.401087940
     0.815827847         0.498253107         0.901087940
     0.432449907         0.399707049         0.997296393
     0.432449907         0.399707049         0.497296393
     0.432449907         0.899707079         0.997296393
     0.432449907         0.899707079         0.497296393
     0.932449937         0.399707049         0.997296393
     0.932449937         0.399707049         0.497296393
     0.932449937         0.899707079         0.997296393
     0.932449937         0.899707079         0.497296393
     0.352340549         0.033963177         0.185296938
     0.352340549         0.033963177         0.685296953
     0.352340549         0.533963203         0.185296938
     0.352340549         0.533963203         0.685296953
     0.852340579         0.033963177         0.185296938
     0.852340579         0.033963177         0.685296953
     0.852340579         0.533963203         0.185296938
     0.852340579         0.533963203         0.685296953
     0.393212855         0.186503768         0.032665960
     0.393212855         0.186503768         0.532665968
     0.393212855         0.686503768         0.032665960
     0.393212855         0.686503768         0.532665968
     0.893212855         0.186503768         0.032665960
     0.893212855         0.186503768         0.532665968
     0.893212855         0.686503768         0.032665960
     0.893212855         0.686503768         0.532665968
     0.112000830         0.110913463         0.991618872
     0.112000830         0.110913463         0.491618872
     0.112000830         0.610913455         0.991618872
     0.112000830         0.610913455         0.491618872
     0.612000823         0.110913463         0.991618872
     0.612000823         0.110913463         0.491618872
     0.612000823         0.610913455         0.991618872
     0.612000823         0.610913455         0.491618872
     0.131754234         0.988428235         0.111742869
     0.131754234         0.988428235         0.611742854
     0.131754234         0.488428235         0.111742869
     0.131754234         0.488428235         0.611742854
     0.631754220         0.988428235         0.111742869
     0.631754220         0.988428235         0.611742854
     0.631754220         0.488428235         0.111742869
     0.631754220         0.488428235         0.611742854
     0.231253937         0.186606139         0.315342933
     0.231253937         0.186606139         0.815342903
     0.231253937         0.686606169         0.315342933
     0.231253937         0.686606169         0.815342903
     0.731253922         0.186606139         0.315342933
     0.731253922         0.186606139         0.815342903
     0.731253922         0.686606169         0.315342933
     0.731253922         0.686606169         0.815342903
     0.520906150         0.312458098         0.185298979
     0.520906150         0.312458098         0.685298979
     0.520906150         0.812458098         0.185298979
     0.520906150         0.812458098         0.685298979
     0.020906150         0.312458098         0.185298979
     0.020906150         0.312458098         0.685298979
     0.020906150         0.812458098         0.185298979
     0.020906150         0.812458098         0.685298979
     0.975236058         0.169068873         0.324634701
     0.975236058         0.169068873         0.824634671
     0.975236058         0.669068873         0.324634701
     0.975236058         0.669068873         0.824634671
     0.475236058         0.169068873         0.324634701
     0.475236058         0.169068873         0.824634671
     0.475236058         0.669068873         0.324634701
     0.475236058         0.669068873         0.824634671
     0.277579606         0.327198923         0.172275051
     0.277579606         0.327198923         0.672275066
     0.277579606         0.827198923         0.172275051
     0.277579606         0.827198923         0.672275066
     0.777579606         0.327198923         0.172275051
     0.777579606         0.327198923         0.672275066
     0.777579606         0.827198923         0.172275051
     0.777579606         0.827198923         0.672275066
     0.120459653         0.316264272         0.470923573
     0.120459653         0.316264272         0.970923543
     0.120459653         0.816264272         0.470923573
     0.120459653         0.816264272         0.970923543
     0.620459676         0.316264272         0.470923573
     0.620459676         0.316264272         0.970923543
     0.620459676         0.816264272         0.470923573
     0.620459676         0.816264272         0.970923543
     0.127713427         0.471302778         0.316404641
     0.127713427         0.471302778         0.816404641
     0.127713427         0.971302748         0.316404641
     0.127713427         0.971302748         0.816404641
     0.627713442         0.471302778         0.316404641
     0.627713442         0.471302778         0.816404641
     0.627713442         0.971302748         0.316404641
     0.627713442         0.971302748         0.816404641
