Ca V  S  O  F 
 1.0000000000000000
     7.1725635528999998    0.0000000000000000    0.0000000000000000
     0.3049279942000000    7.8739067344000002    0.0000000000000000
     0.3193050896000000    0.2618833392000000   10.7378266451000002
 Ca  V   S   O   F  
   3   4   4  16  12
Selective dynamics
Cartesian
  6.4471236907756877  3.5949616875462933  8.5452453602510197   T   T   T
  1.2035531903711345  1.1180232070847940  2.9532700972994004   T   T   T
  5.1240632054660189  6.6885253181910658  3.1746484551649834   T   T   T
  0.5655110841246661  4.1100732263852713  5.1978080865025538   T   T   T
  7.2221926126963494  7.7894329969973786 -0.1048180240462817   T   T   T
  4.1282039680510989  4.1737785881411442  5.3449882362622256   T   T   T
  3.9783719510417068  8.0742999404968003 10.5951059630953495   T   T   T
  1.9842049979471552  2.8040244850932883 10.6873439078903765   T   T   T
  2.3184101497987761  6.7588176218350293  5.3480150618310258   T   T   T
  5.7326203041492558  1.4857013812865612  5.3153384758010507   T   T   T
  5.5135826999553084  5.2028861713108823  0.4625513996051151   T   T   T
  0.6458089488326730  1.5887465959653886  0.6069978880446628   T   T   T
  1.3357702075306934  5.8383450286498686  4.6205970078708383   T   T   T
  1.2974213073462528  3.5714165346245150  9.6552016643284073   T   T   T
  1.6540148172888616  7.5924673077816696  6.3064109058896713   T   T   T
  2.2939588677893492  3.2807780489065919  1.0077045640043445   T   T   T
  2.9663517588563209  7.5503055547324793  4.2410162032662582   T   T   T
  2.9930770141487799  1.8971959542877301  9.9489949585010624   T   T   T
  3.3931873624726014  5.9144607571139343  5.9858058311515059   T   T   T
  4.6768200438042191  2.4046508879959827  4.6922189008797606   T   T   T
  4.3646286392552138  6.1617860793643331  0.7995223522851023   T   T   T
  5.1749885796660049  0.6401136548082504  6.3317701025521602   T   T   T
  5.3398272864221736  4.3264373453242326 10.4271474514997458   T   T   T
  6.2649294603067665  0.7048386774010504  4.1487754585892533   T   T   T
  6.1077014856144380  4.8698280719231875  1.7480346442992736   T   T   T
  6.8243888284073293  2.3735988449095426  5.8785505393401492   T   T   T
  6.7943292180264372  6.2140931754676796 10.2891641327298906   T   T   T
  7.1627253580946535  0.9366894516809076  8.9531192714865160   T   T   T
  7.6356449300970546  4.6667995180126480  7.0326305133642606   T   T   T
  2.3397515339763353  3.3342041964064837  5.5925778119218812   T   T   T
  2.2077806487265712  7.2674291166814715 10.4920660802935615   T   T   T
  3.0552204847552868  0.3709320851348718  1.7320167517477456   T   T   T
  3.8225232977071664  4.8260766045813055  3.5947872464899095   T   T   T
  4.7273800593612290  3.9122018352264623  7.1722532185340784   T   T   T
  4.4586277116241879  7.4184083394339657  9.0359034884943306   T   T   T
  5.1114223711693629  0.7603100380984547  0.1352973215998311   T   T   T
  5.9531044445037367  5.0189411907689321  4.8791287922074762   T   T   T
  0.6848768064432306  3.2059353219989930  3.5211767057968189   T   T   T
  7.1802064006096833  7.4710522714075012  1.8432583903604096   T   T   T
