Ca Cr P  O                              
   1.00000000000000     
     8.7485284804999992    0.0000000000000000    0.0000000000000000
     0.0000065873000000    9.8939285278000000    0.0000000000000000
    -0.0000058994000000    2.4026902022000001    6.9821501365999996
  Ca_sv/a4736583  Cr_pv/c9a7df34  P/df60c54a93ef  O/818f92134a0a
               3               4               8              28
Selective dynamics
Direct
  0.3597017074511295  0.1271594605226049  0.7716657865787029   T   T   T
  0.8560373023409188  0.3824350659509239  0.2291393964679345   T   T   T
  0.8558285321989300  0.8651461001628816  0.2336731160653507   T   T   T
  0.7560513187553403  0.1054643908753105  0.7698852451477872   T   T   T
  0.7389555404322222  0.6110484129314419  0.7634078160140645   T   T   T
  0.2645650354244344  0.3992953009371075  0.2260223634575104   T   T   T
  0.2594272967940606  0.8916988984083999  0.2284754134945684   T   T   T
  0.0577781881357855  0.1890524370352353  0.0031337771617432   T   T   T
  0.0635760779818746  0.6875897310302882  0.9992659164327194   T   T   T
  0.5571946754784010  0.3072525939360495  0.0091521068554906   T   T   T
  0.5644742741114012  0.8105639065924926  0.9896553532464361   T   T   T
  0.9690493277480240  0.3853841515597932  0.6135384166506320   T   T   T
  0.9737117268764167  0.8811023348327649  0.6105176970400977   T   T   T
  0.4775901601407264  0.1167448085706027  0.3920709747845690   T   T   T
  0.4821924319374141  0.6187657919368433  0.3907981990521190   T   T   T
  0.0854208019872601  0.2814493466369240  0.7760665552732386   T   T   T
  0.0855063415899959  0.7819419287208847  0.7748157398239625   T   T   T
  0.6017702839767457  0.2159167698438317  0.2349900429810524   T   T   T
  0.5977049065251264  0.7163319088628192  0.2137647670634774   T   T   T
  0.0686597722990432  0.2881341706696167  0.1251202069407516   T   T   T
  0.0742552540113786  0.7915156343321390  0.1180695188016759   T   T   T
  0.5764200638235442  0.2104451194915749  0.8833337135623359   T   T   T
  0.5815029318773114  0.7169693089967840  0.8644570035790123   T   T   T
  0.3402529184657476  0.2104058907311606  0.4157952976859440   T   T   T
  0.3459056886350176  0.7139028401739936  0.3962323504135366   T   T   T
  0.8333683519170081  0.2912849358188007  0.5850469793126463   T   T   T
  0.8331054718926552  0.7915459118682800  0.5836905423671599   T   T   T
  0.5646446855086963  0.0742843063231137  0.5831255973719793   T   T   T
  0.5905665864442439  0.5816460663273870  0.5614102763073250   T   T   T
  0.0601466321386778  0.4278007877218887  0.4259475093207208   T   T   T
  0.0627691561881441  0.9200683081594412  0.4207806222103259   T   T   T
  0.4350678780501517  0.4865574065166303  0.3389111955325415   T   T   T
  0.4310292803389011  0.9970863704993183  0.3180131000085193   T   T   T
  0.9268167691386842  0.0098906698110917  0.6678473532016688   T   T   T
  0.9164455315845038  0.5050683395086161  0.6844647787707827   T   T   T
  0.3924444321942810  0.3540677655203940  0.0112668416709126   T   T   T
  0.4086441005435070  0.8854931747554514  0.9775015480184013   T   T   T
  0.9000247357324688  0.1175103643176349  0.0204751544863065   T   T   T
  0.9007826404977773  0.6215969375183257  0.0176523699770767   T   T   T
  0.6828348172230720  0.4222795879873958  0.9716741754007663   T   T   T
  0.6981931134530632  0.9197392129708993  0.9654031582432153   T   T   T
  0.1917783680315313  0.0830716591358207  0.0321202868730581   T   T   T
  0.1926462641243488  0.5801393144969844  0.0418785423518927   T   T   T
 
  0.00000000E+00  0.00000000E+00  0.00000000E+00
  0.00000000E+00  0.00000000E+00  0.00000000E+00
  0.00000000E+00  0.00000000E+00  0.00000000E+00
  0.00000000E+00  0.00000000E+00  0.00000000E+00
  0.00000000E+00  0.00000000E+00  0.00000000E+00
  0.00000000E+00  0.00000000E+00  0.00000000E+00
  0.00000000E+00  0.00000000E+00  0.00000000E+00
  0.00000000E+00  0.00000000E+00  0.00000000E+00
  0.00000000E+00  0.00000000E+00  0.00000000E+00
  0.00000000E+00  0.00000000E+00  0.00000000E+00
  0.00000000E+00  0.00000000E+00  0.00000000E+00
  0.00000000E+00  0.00000000E+00  0.00000000E+00
  0.00000000E+00  0.00000000E+00  0.00000000E+00
  0.00000000E+00  0.00000000E+00  0.00000000E+00
  0.00000000E+00  0.00000000E+00  0.00000000E+00
  0.00000000E+00  0.00000000E+00  0.00000000E+00
  0.00000000E+00  0.00000000E+00  0.00000000E+00
  0.00000000E+00  0.00000000E+00  0.00000000E+00
  0.00000000E+00  0.00000000E+00  0.00000000E+00
  0.00000000E+00  0.00000000E+00  0.00000000E+00
  0.00000000E+00  0.00000000E+00  0.00000000E+00
  0.00000000E+00  0.00000000E+00  0.00000000E+00
  0.00000000E+00  0.00000000E+00  0.00000000E+00
  0.00000000E+00  0.00000000E+00  0.00000000E+00
  0.00000000E+00  0.00000000E+00  0.00000000E+00
  0.00000000E+00  0.00000000E+00  0.00000000E+00
  0.00000000E+00  0.00000000E+00  0.00000000E+00
  0.00000000E+00  0.00000000E+00  0.00000000E+00
  0.00000000E+00  0.00000000E+00  0.00000000E+00
  0.00000000E+00  0.00000000E+00  0.00000000E+00
  0.00000000E+00  0.00000000E+00  0.00000000E+00
  0.00000000E+00  0.00000000E+00  0.00000000E+00
  0.00000000E+00  0.00000000E+00  0.00000000E+00
  0.00000000E+00  0.00000000E+00  0.00000000E+00
  0.00000000E+00  0.00000000E+00  0.00000000E+00
  0.00000000E+00  0.00000000E+00  0.00000000E+00
  0.00000000E+00  0.00000000E+00  0.00000000E+00
  0.00000000E+00  0.00000000E+00  0.00000000E+00
  0.00000000E+00  0.00000000E+00  0.00000000E+00
  0.00000000E+00  0.00000000E+00  0.00000000E+00
  0.00000000E+00  0.00000000E+00  0.00000000E+00
  0.00000000E+00  0.00000000E+00  0.00000000E+00
  0.00000000E+00  0.00000000E+00  0.00000000E+00
