V1 Fe1 P4 O14
1.0
   4.9540980000000001   -0.0063850000000000    0.1144660000000000
  -0.0218820000000000    8.0950270000000000   -0.0353469999999990
  -2.1578840000000001   -0.0039520000000000    6.6925889999999999
V Fe P O
1 1 4 14
direct
   0.1999790000000000    0.4941400000000000    0.7185140000000000 V
   0.7873110000000000    0.0123720000000000    0.2766260000000000 Fe
   0.3875719999999990    0.1881940000000000    0.5049279999999990 P
   0.2378489999999990    0.7679070000000000    0.1057960000000000 P
   0.7624449999999990    0.2768350000000000    0.8969140000000000 P
   0.6127739999999990    0.6894890000000000    0.4945250000000000 P
   0.0246739999999990    0.3298400000000000    0.8309190000000000 O
   0.1434160000000000    0.6573249999999990    0.9186249999999990 O
   0.1589769999999990    0.0579509999999990    0.4659370000000000 O
   0.2650560000000000    0.3641820000000000    0.5131300000000001 O
   0.4387589999999990    0.6751340000000000    0.6460629999999991 O
   0.5812170000000000    0.4315310000000000    0.9037759999999990 O
   0.5812070000000000    0.1534760000000000    0.7302379999999991 O
   0.4065709999999990    0.6419870000000000    0.2785920000000000 O
   0.4404150000000000    0.9022289999999999    0.0823790000000000 O
   0.5735049999999990    0.1873679999999990    0.3676540000000000 O
   0.7208080000000000    0.8634269999999999    0.4890009999999990 O
   0.8445150000000000    0.5578800000000000    0.5347689999999991 O
   0.8534020000000000    0.1786700000000000    0.0844360000000000 O
   0.9683320000000000    0.8219569999999990    0.1511210000000000 O
