V  Fe P  O 
 1.0000000000000000
     4.9540980000000001   -0.0063850000000000    0.1144660000000000
    -0.0218820000000000    8.0950270000000000   -0.0353469999999990
    -2.1578840000000001   -0.0039520000000000    6.6925889999999999
 V   Fe  P   O  
   1   1   4  14
Cartesian
 -0.5121548876530964  4.0965141594723047  4.8706220314953974
  3.3063318857692976  0.0549767815854590  1.8860962050248782
  0.8175977201140620  1.5057517936487732  3.4189818354418291
  0.9671902191374575  6.2204239432919461  0.7197122217504768
  1.8342606506397652  2.2072433218280469  6.0434356119992811
  1.9545520634433864  5.5754922180258024  3.3417471857416419
 -1.7244184430134306  2.7238767311095611  5.5299123078437571
 -1.1401046958112668  5.2936950853009428  6.1457394337226274
 -0.2670494286614100  0.5019844349277635  3.1286724597697040
  0.1858636294999286  2.9471250222658170  3.5677130750121564
  0.6832899938221906  5.4215056793369856  4.2377790853705699
  0.8140583268162291  3.4007810216935335  6.0367876674695369
  1.3199981964125367  1.1839704896277308  4.9294684340307002
  1.4974258017254021  5.1640772451249957  1.8602338498771767
  1.9596890680864525  7.3567406092494290  0.5860791654406153
  2.0182310894086544  1.5289092399213369  2.5089672213350815
  2.4626548336384610  6.9915105503709469  3.3357722404947068
  3.0179639044536071  4.5441478293536166  3.7623151522748222
  4.0185759878095091  1.4602172117778240  0.6437877584047552
  4.5032392800742285  6.6121139146491688  1.1478794980532450
