Ca V  O                                 
   1.00000000000000     
    11.0148601532000008    0.0000000000000000    0.0000000000000000
    -0.0001855896000000   10.4011516553999996    0.0000000000000000
     3.6723958583999998   -6.1538260171000001   14.5152821726999992
   Ca   V    O 
    11    36    90
Direct
  0.6485928695279682  0.6346537111283229  0.4751571621046753
  0.0008277987759197  0.6350238982554339  0.4890913005305351
  0.0172962356883208  0.6389197899511385  0.9613080427543882
  0.3438880819287897  0.6906192214769571  0.9739533178259420
  0.6821332115127123  0.6233310106111287  0.9591270854645993
  0.3234586718403127  0.3633585043729580  0.0196258869590180
  0.3320553804877927  0.4155010392794683  0.5192688492026608
  0.6498213242758664  0.3501757830428336  0.0384832669234223
  0.6671266636006097  0.3551345402668130  0.5210578441704514
  0.9819597884627400  0.3523264166900153  0.0309915807303200
  0.0015003865398860  0.3316850053732474  0.5206902034809818
  0.2257468089152908  0.0993539929490859  0.3354741408249144
  0.2197505557909196  0.1186632098314587  0.8327111346535487
  0.5488291686504332  0.1023516522028648  0.3436679271311108
  0.5534451537571419  0.1173036451487451  0.8356797506533201
  0.8873165689294517  0.0967634690562129  0.3373561568048413
  0.8840567010179573  0.1148870103455508  0.8388063798925425
  0.1083166437485714  0.8836156156132653  0.1680306463074534
  0.1155949115971668  0.8970907417672556  0.6570220341299678
  0.4472177890226221  0.8800283998538069  0.1661873564781099
  0.4419455457806970  0.9044100766859121  0.6571581910774191
  0.7793371426895381  0.8781968836309006  0.1607025404803629
  0.7760549708575323  0.8975470202561534  0.6591749417662305
  0.0407123796321576  0.8926091950640012  0.3799650989558415
  0.0407764255122620  0.9127658999357020  0.8788818128236914
  0.3711847015978561  0.8820715635224484  0.3799319040123363
  0.3777241850293079  0.8983409947654997  0.8637448593651091
  0.7043650292657312  0.8959985684437756  0.3799826748392423
  0.7042791198198253  0.9122294656898607  0.8820876510483254
  0.2952063282701721  0.0747956456201624  0.1101634473538235
  0.2922899157048562  0.1175115537340371  0.6165187955140269
  0.6219240792410409  0.0921615277771097  0.1288911497074063
  0.6245043409680686  0.1076532597041571  0.6224903473135599
  0.9566243393040632  0.0946367076828931  0.1263041190990023
  0.9592766124328150  0.1036056501489264  0.6226169019481222
  0.0891014680651294  0.5818445855786432  0.2193422805434227
  0.0939288740181798  0.6016065140736659  0.7131583087135117
  0.4196888835352349  0.5819636032906447  0.2221275238679156
  0.4357313403261823  0.5974374348908948  0.7085882004613746
  0.7539293831936037  0.5868007684918373  0.2244576360973665
  0.7666109532829004  0.6003178825281356  0.7156169421489880
  0.2294081404609263  0.4006410368311594  0.2922787502481692
  0.2465236746441539  0.4190870435199832  0.7766239407531631
  0.5633324409029052  0.3978698630064391  0.2858149463410884
  0.5722657334772302  0.4169002930335428  0.7810423356286366
  0.8982246210812583  0.4016105570360611  0.2891317295104862
  0.9086497797634027  0.4128914681779290  0.7825820876202213
 -0.0005176276637661  0.0207416299936857  0.5015114803157447
  0.9996089507867575  1.0026889956626459  1.0000739787390867
  0.3307831922733530  0.9987028963870990  0.5006174201835017
  0.3336120301437888  0.9521193064571495 -0.0053456906367052
  0.6654546047797053  0.0015747487956707  0.5012321193190374
  0.6649412262838782  0.0110864320687607  1.0015172878245995
  0.0627018388318606  0.0464794807481956  0.3177977785245773
  0.0551515571283016  0.0641929220604141  0.8213790246172810
  0.3965390767490588  0.0402782926304953  0.3133101203482662
  0.3916647339409267  0.0739854967446272  0.8225433564083363
  0.7219324885479377  0.0488162712175274  0.3251045292001618
  0.7273164440881104  0.0563098954502183  0.8163181874197811
  0.2734116290781189  0.9267574887571746  0.1787450129878112
  0.2696346469103159  0.9639346556800166  0.6855580458216759
  0.6080434572726187  0.9333767872523955  0.1815734838000162
  0.6011026018068031  0.9606306482052447  0.6825964394202864
  0.9350550408313386  0.9402462631285662  0.1866718478939121
  0.9403636853703576  0.9504701585147001  0.6763253141340499
  0.1205592220258748  0.0489756701807625  0.1358637165565288
  0.1213250080782281  0.0751958972498402  0.6353702761437532
  0.4526123901072530  0.0473614820675454  0.1352357155242668
  0.4518204315718160  0.0829227044916898  0.6347763194083449
  0.7871355282209200  0.0506436384120184  0.1370691972048576
  0.7873056969207746  0.0674857234146011  0.6361065571344880
  0.2111168413410796  0.9295413107014886  0.3665767063983458
  0.2122312352064343  0.9529575248258643  0.8625281296584125
  0.5413117448678945  0.9273666505610246  0.3678147456713672
  0.5443804597378130  0.9464507174123761  0.8621838023552209
  0.8779011237208049  0.9303909386863470  0.3656900040567218
  0.8781324275962432  0.9390350176970156  0.8621208432576054
  0.2012119176514677  0.2276372714373237  0.4404099545296886
  0.1789269520384177  0.2521124085659191  0.9387488296434511
  0.5110610362124360  0.2301455784557113  0.4490705787150929
  0.5219297325775487  0.2440744977145036  0.9436231847862574
  0.8547532951961756  0.2242712469353032  0.4451475897055761
  0.8426344554990460  0.2341829572680948  0.9486521997500624
  0.1382383264322495  0.7554274332725980  0.0607913450703349
  0.1467933826868425  0.7769633495088670  0.5523695869695464
  0.4920213664292638  0.7525614284928143  0.0588244603521010
  0.4776381219662557  0.7891105667613041  0.5509540568915698
  0.8175922380907208  0.7539083357053263  0.0526987929876099
  0.8022020278668782  0.7674013589463372  0.5540450546206789
  0.0744035581572550  0.4249519891990378  0.2652237331847732
  0.0852132803561977  0.4498284232690201  0.7627622995951898
  0.4018971140109743  0.4225209444856989  0.2643492470349193
  0.4200052075947133  0.4348641169602154  0.7436710900509333
  0.7378524868894027  0.4314244047194943  0.2712002923588164
  0.7416846881923688  0.4513361234362167  0.7774751306233953
  0.2454282578471795  0.5579609104696795  0.2438382071689732
  0.2642945260454489  0.5621051175316685  0.7115688315544377
  0.5782576407367881  0.5579518153572530  0.2447054138862998
  0.5973489362681148  0.5694055775915347  0.7333043260099544
  0.9157178315158692  0.5594988469180263  0.2444202873596019
  0.9175672420319008  0.5795574722617758  0.7476689824529631
  0.2417093873396162  0.2142956604018657  0.2681525447926620
  0.2436916617615005  0.2389736029787694  0.7647109619980293
  0.5734779880388026  0.2063329373751897  0.2737073879921054
  0.5773673321092073  0.2321314353560047  0.7712788914514231
  0.9054647552547085  0.2146172089244782  0.2739656394948051
  0.9074912429036806  0.2272795638102596  0.7769942276105065
  0.0852380348474951  0.7690735248244710  0.2363490501517034
  0.0925319904333683  0.7855206452610546  0.7225030569523618
  0.4201054034163009  0.7672885254146665  0.2338888322754115
  0.4251421314388779  0.7935812663228011  0.7215473266801611
  0.7547234330347451  0.7713772061718244  0.2300218240593905
  0.7590864015310450  0.7779145709768276  0.7243656924133599
  0.1264291881565100  0.5023152043718250  0.1019476200089769
  0.1109315558700922  0.5180798892754293  0.5956213232388868
  0.4603334111228812  0.5011417571872703  0.1042024989873274
  0.4998575284206735  0.5315753695083664  0.5884175742594735
  0.7921577477584208  0.5009452200048433  0.1062149073513004
  0.8176422296628640  0.5082137618846871  0.5985822515537195
  0.1832828977986189  0.4696489221057333  0.4074258519916074
  0.2200441564201450  0.5083034113534617  0.8933344176124747
  0.5214646428721276  0.4633434621360567  0.4026146978598329
  0.5132975750531003  0.5016629042163877  0.8985022863695180
  0.8567643607893358  0.4809737828929876  0.4077635134457933
  0.8768425417638871  0.4866881008478643  0.9038217168150335
  0.2958724031483269  0.2307865354969538  0.1023323729492806
  0.2907597055405582  0.2738549385834379  0.6091001343049731
  0.6161585643145672  0.2657058352131595  0.1423629169799607
  0.6351735880248891  0.2749049199401378  0.6290093534079301
  0.9503499221536872  0.2644527898345609  0.1354933329786271
  0.9506287192648808  0.2803976905758234  0.6415947281535739
  0.0344575149142520  0.7360387197806665  0.3875354305752665
  0.0574636871534435  0.7405959408089774  0.8642860783708364
  0.3690840327439354  0.7244933885875048  0.3803218103988797
  0.3827596900223487  0.7200001875751139  0.8450618791142223
  0.7070419550369890  0.7272778140216178  0.3724447858349194
  0.7028653459997658  0.7451176079238546  0.8746931293185278
 
             NaN             NaN             NaN
             NaN             NaN             NaN
             NaN             NaN             NaN
             NaN             NaN             NaN
             NaN             NaN             NaN
             NaN             NaN             NaN
             NaN             NaN             NaN
             NaN             NaN             NaN
             NaN             NaN             NaN
             NaN             NaN             NaN
             NaN             NaN             NaN
             NaN             NaN             NaN
             NaN             NaN             NaN
             NaN             NaN             NaN
             NaN             NaN             NaN
             NaN             NaN             NaN
             NaN             NaN             NaN
             NaN             NaN             NaN
             NaN             NaN             NaN
             NaN             NaN             NaN
             NaN             NaN             NaN
             NaN             NaN             NaN
             NaN             NaN             NaN
             NaN             NaN             NaN
             NaN             NaN             NaN
             NaN             NaN             NaN
             NaN             NaN             NaN
             NaN             NaN             NaN
             NaN             NaN             NaN
             NaN             NaN             NaN
             NaN             NaN             NaN
             NaN             NaN             NaN
             NaN             NaN             NaN
             NaN             NaN             NaN
             NaN             NaN             NaN
             NaN             NaN             NaN
             NaN             NaN             NaN
             NaN             NaN             NaN
             NaN             NaN             NaN
             NaN             NaN             NaN
             NaN             NaN             NaN
             NaN             NaN             NaN
             NaN             NaN             NaN
             NaN             NaN             NaN
             NaN             NaN             NaN
             NaN             NaN             NaN
             NaN             NaN             NaN
             NaN             NaN             NaN
             NaN             NaN             NaN
             NaN             NaN             NaN
             NaN             NaN             NaN
             NaN             NaN             NaN
             NaN             NaN             NaN
             NaN             NaN             NaN
             NaN             NaN             NaN
             NaN             NaN             NaN
             NaN             NaN             NaN
             NaN             NaN             NaN
             NaN             NaN             NaN
             NaN             NaN             NaN
             NaN             NaN             NaN
             NaN             NaN             NaN
             NaN             NaN             NaN
             NaN             NaN             NaN
             NaN             NaN             NaN
             NaN             NaN             NaN
             NaN             NaN             NaN
             NaN             NaN             NaN
             NaN             NaN             NaN
             NaN             NaN             NaN
             NaN             NaN             NaN
             NaN             NaN             NaN
             NaN             NaN             NaN
             NaN             NaN             NaN
             NaN             NaN             NaN
             NaN             NaN             NaN
             NaN             NaN             NaN
             NaN             NaN             NaN
             NaN             NaN             NaN
             NaN             NaN             NaN
             NaN             NaN             NaN
             NaN             NaN             NaN
             NaN             NaN             NaN
             NaN             NaN             NaN
             NaN             NaN             NaN
             NaN             NaN             NaN
             NaN             NaN             NaN
             NaN             NaN             NaN
             NaN             NaN             NaN
             NaN             NaN             NaN
             NaN             NaN             NaN
             NaN             NaN             NaN
             NaN             NaN             NaN
             NaN             NaN             NaN
             NaN             NaN             NaN
             NaN             NaN             NaN
             NaN             NaN             NaN
             NaN             NaN             NaN
             NaN             NaN             NaN
             NaN             NaN             NaN
             NaN             NaN             NaN
             NaN             NaN             NaN
             NaN             NaN             NaN
             NaN             NaN             NaN
             NaN             NaN             NaN
             NaN             NaN             NaN
             NaN             NaN             NaN
             NaN             NaN             NaN
             NaN             NaN             NaN
             NaN             NaN             NaN
             NaN             NaN             NaN
             NaN             NaN             NaN
             NaN             NaN             NaN
             NaN             NaN             NaN
             NaN             NaN             NaN
             NaN             NaN             NaN
             NaN             NaN             NaN
             NaN             NaN             NaN
             NaN             NaN             NaN
             NaN             NaN             NaN
             NaN             NaN             NaN
             NaN             NaN             NaN
             NaN             NaN             NaN
             NaN             NaN             NaN
             NaN             NaN             NaN
             NaN             NaN             NaN
             NaN             NaN             NaN
             NaN             NaN             NaN
             NaN             NaN             NaN
             NaN             NaN             NaN
             NaN             NaN             NaN
             NaN             NaN             NaN
             NaN             NaN             NaN
             NaN             NaN             NaN
             NaN             NaN             NaN
             NaN             NaN             NaN
             NaN             NaN             NaN
