Ca V  O 
 1.0000000000000000
    11.0148601532000008    0.0000000000000000    0.0000000000000000
    -0.0001855896000000   10.4011516553999996    0.0000000000000000
     3.6723958583999998   -6.1538260171000001   14.5152821726999992
 Ca  V   O  
  11  36  90
Cartesian
  8.7296702863347058  3.6592037976889240  6.9872685454430004
  1.8911719418154160  3.5404705370675988  7.2568241289970077
  3.6897634130494175  0.9918183067904414 14.0799654286448526
  7.3433686051864679  1.2378356133369097 14.1439625824579238
 11.0270474242382317  0.4428470152279784 14.0974570512331763
  3.7027085441338263  3.7746027034761367  0.2598698068723829
  5.5112491417619207  1.1005283097643412  7.4047412648718822
  7.3113420185715796  3.1385164273710915  0.4497448697309001
  9.2452224454566920  0.4306485774590014  7.5192305628954816
 10.9133500812711493  3.6735701730003494  0.2577502961424479
 12.9265175711114395  0.1080966516385094  7.4933306611032044
  3.7186222774769346 -1.0581130336475602  4.8362066146418705
  5.4985840596447275 -3.8801630040058663 12.1003278984762392
  7.3183593195825143 -1.1351306756453903  4.9873394666921556
  9.1716657987970756 -3.9959583577419826 12.0981408252466540
 11.0134005860237725 -1.0848705183738914  4.8379469111042850
 12.8367060786653244 -4.0199894125205242 12.0943407749402603
  1.8288003595621252  8.2046503092815879  2.4707839800231386
  3.7033100086235171  5.3330168031247496  9.5527021360981763
  5.5243913510188882  8.1830464672258376  2.4262372559658281
  7.3021802762839334  5.4544359225238095  9.5978492020014237
  9.1746443288099986  8.1572210018851816  2.4061709969618104
 10.9776087802733322  5.2267502332783220  9.6027912781605274
  1.8440147682675945  6.9154167678867804  5.5290475164386210
  3.7049850515447016  4.0234284271959320 12.7100463143427351
  5.4732114252789055  6.7874247131924426  5.4849366001959226
  7.3247023300034835  4.0093151466437087 12.5241047158808279
  9.1958331849372676  6.9129854335621079  5.4642678011765158
 11.0026309871384793  4.0382147340799888 12.8559153048746602
  3.6545451004652341  0.1653908651911441  1.6081741545431969
  5.4998667704108737 -2.5433002420845359  8.9337067705073423
  7.3530174521320832  0.1766632465258813  1.9332402636056112
  9.2099039801161222 -2.6506031675966022  9.0268853363503965
 11.0237545282816392  0.2524917378058625  1.8146641313284337
 12.8276977971565707 -2.6904959141007212  9.0612866359068018
  1.7958998213219082  4.6964361431559167  3.1129943177488935
  3.6383287561635127  1.8686830596501378 10.2924250650915923
  5.5264505810614031  4.6890796968504498  3.1980696061190379
  7.3869114782021503  1.9094183996854783 10.2539735367488074
  9.1332702060810771  4.6851607285889907  3.2314224385798380
 11.0661805068829757  1.7639081285121114 10.3987424763157748
  3.6244344675370361  2.3989349537671099  4.1861767787497071
  5.5449019080698623 -0.3780746029719070 11.2732438168663851
  7.2641277185093749  2.3352097199483932  4.1840713562718657
  9.1445755920961318 -0.4941678432568872 11.3815984824325742
 10.9886904688106881  2.4276592552118053  4.2794198870787978
 12.9086437343736939 -0.5057908546026957 11.4450558420193325
  1.8488607496972655 -2.6378081739112207  7.3049907409054997
  3.6516077391436017 -6.4880088638240814 14.4495623815909653
  5.4894159868752661 -3.1275849783158551  7.2886998004596153
  7.3422917633162257 -6.7351992588738510 14.5283473705827806
  9.1901300496053331 -2.9135535925259308  7.3137070776906343
 11.0305748305586047 -5.7329068568910229 14.4973949987109432
  1.8731918670039853 -1.5050940038478353  4.5700346624622439
  3.6171594542056846 -4.4016871623234177 11.9111672692402379
  5.5700834917364723 -1.5883784553598148  4.5343014221109330
  7.3438022591257530 -4.3429580943575390 11.8235487312645819
  9.1029860502150388 -1.5509625480764246  4.6213672063484648
 11.0435802715278797 -4.4897817037195091 11.7814906407794417
  3.7389610141766907  8.6425395347493410  2.6898091564634661
  5.4843652636102957  5.8842135344821260  9.9624025257286046
  7.3445362092465061  8.5753613844072731  2.6804770133240967
  9.1070978545190151  5.8459713298010723  9.9292794120080252
 10.9568493857613589  8.6642814781360098  2.7433440322917364
 12.9153424665263934  5.7086007176610263  9.8281143536662565
  1.8235838729210019 -0.2130644517373873  1.9344515522146908
  3.6607759857031610 -3.0970520489067428  9.2235087827872579
  5.5500734188758853 -0.2722836160522665  1.9205441715147620
  7.3214994575387227 -2.9578257040951357  9.2411544816074080
  9.1439601837856550 -0.2956565446464521  1.9189216747459057
 11.0399749614084985 -3.1902364775151586  9.2181080636031805
  3.6900916607058729  7.3654257061200479  5.3462785233208434
  5.4755656316062487  4.5917843240425587 12.5890865108014740
  7.3255069472371996  7.3100366343706868  5.3841519494730194
  9.1981026069573595  4.4728699880191938 12.5628959459486538
 11.0262903676665811  7.3558575061708869  5.3595709759180483
 12.8580860244514810  4.4093161183296541 12.5113605981275473
  3.8641791655641820 -0.2755036347165353  6.3520386021322413
  5.4914441245896519 -3.0953250100136520 13.6270671931508858
  7.2858719726961851 -0.4150557411616592  6.5194934344380622
  9.1604836734903827 -3.2718339794695837 13.6550764004719785
 11.0064928270404305 -0.3473778757449375  6.3988460457846710
 12.8114164056335671 -3.4178498920172453 13.6850115454508199
  1.7970192442945350  7.4668858551326993  0.9096809819043131
  3.7278380337386632  4.7132290779533044  8.0261680688809882
  5.6050805009333589  7.4524196725371885  0.8802926555447501
  7.2757358270484724  4.9619318173688836  8.0154707703408086
  9.1405213745933764  7.4537946432781093  0.8465878151523729
 10.8563407791335127  4.4368105464101601  8.0945655139418129
  1.8203411014527864  2.7777745262727707  3.7591870204086555
  3.7661269406191735 -0.0371553225455763 10.9757804281653222
  5.3915683877558456  2.7400429872701579  3.7736674387523284
  7.3494451819770861 -0.0895747683747466 10.8065171319222966
  9.1841325345714999  2.7927222376073351  4.0570430259930754
 10.9735302729891284 -0.0521303342284124 11.4258747024274019
  3.6170617145446062  4.2847308581594792  3.4083623640923002
  5.5651688880233205  1.4711498353088186 10.2365291979591682
  7.2781784309461397  4.3063658606267117  3.6616421257985521
  9.2386131364370812  1.4156523689830443 10.6850168772723997
 11.0325316600643397  4.3015532939654282  3.5469886647593141
 12.8039208638524205  1.4580748365269329 10.9026009830048540
  3.6483185872700767  0.6704387936126383  3.7593163766531568
  5.4939647872251234 -2.1448207786422095 11.0384902752438787
  7.3380960680168945  0.4036318152998266  3.9934012130778931
  9.2018174161916022 -2.2702822109709477 11.1806249983014112
 10.9982970961305906  0.6813528088711526  3.8538712841218294
 12.8320650926603097 -2.4771419645938173 11.2213735146221314
  1.8252714402310173  6.4373150227817835  3.5137873304461325
  3.7160091796457593  3.8137086280577419 10.5049473476996553
  5.4900850753910406  6.5054076321269108  3.4069028638094210
  7.3578000845814060  3.7878327187207512 10.3906701076856613
  9.1835235865437177  6.5407166600806717  3.4387938946889989
 11.0064353490532785  3.5117403631537321 10.6978530952048398
  1.7565788574016070  4.6373375934210008  1.4119712718759778
  3.3264871451237568  1.7461658958552961  8.5659309587936274
  5.6231865496124653  4.5539324540603960  1.4765887364061046
  7.6722945597396306  1.8673508495179354  8.5049975957622301
  9.0520348486871285  4.4996432220594329  1.5118004908592979
 11.1739598130272952  1.5505834583181244  8.7050253760159464
  3.5648309162509704  2.4463770237369085  5.8596692958050811
  5.6185576043597338 -0.1713202515025765 12.9716988146305603
  7.1313604901974674  2.3180052673668436  5.8986892650298399
  8.8894499711489470 -0.3554742056260587 13.0905206740035229
 11.0772713706197781  2.4977621985727390  5.9721846801670582
 13.1046088292478071 -0.5019736787746037 13.2041610426534142
  3.6834253634799934  1.8281661296860636  1.3591187380592158
  5.4325233812893998 -0.8769611745161511  8.7730321029122535
  7.3962596403431728  1.9232074585220025  2.1845535388935700
  9.3580453478201715 -0.9341416449908856  9.1823987268672269
 10.9380172823824147  1.9254150313671889  1.6022660133641746
 12.7787152306442824 -0.9692665737366958  9.3646766759711539
  1.8361877169538416  5.2570414548932751  5.8115490597822275
  3.8528430448052147  2.3230655234253494 12.3819967778016249
  5.4444899074032813  5.1337667016462198  5.4806782265037812
  7.2558969376280267  2.2478769764606876 12.2387767379383021
  9.2036212390692214  5.2115700812344228  5.5310813855573224
 10.9704280738542153  2.3672860468497481 13.0350501063697699
