Ca V  O                                 
   1.00000000000000     
    10.9655885695999995    0.0000000000000000    0.0000000000000000
    -1.8643554801000000   14.2891268287000006    0.0000000000000000
    -1.8525292359000001    0.1709672118000000    8.2915385771000008
   Ca   V    O 
    19    28    56
Direct
     0.5553369926804308    0.3252535440560536    0.6411511634278639
     0.0033948583386305    0.3189335958938528    0.6443112202659407
     0.0368461545624683    0.8251695188878614    0.6526082537861910
     0.5360729449391073    0.8261725974462522    0.6569752946913638
     0.2500159584690493    0.2500161260163765    0.5000311263947665
     0.2499727145068320    0.7499703382306677    0.4999865949230440
     0.7499884234998291    0.7499789427103991    0.5000008223586718
     0.4966200244792702    0.1810998364854797    0.3556962468400968
     0.4631268864264371    0.6748068394375650    0.3473676778107944
     0.9447043931965595    0.1747803781702189    0.3588715426775408
     0.9639011157782633    0.6738096767736792    0.3430240375807472
     0.3927701964430810    0.0368745198533631    0.0778414538622698
     0.3889891238327081    0.5335026055384375    0.0676868115048919
     0.8963821097830049    0.0324059601786146    0.0747513898474281
     0.8923530232069794    0.5319094186341999    0.0623821421428801
     0.1072360130018666    0.4631401312303254    0.9221739857954532
     0.1110037071138308    0.9664929780115230    0.9322899975760350
     0.6036149768014312    0.4675943583357309    0.9252482727280551
     0.6076451087742427    0.9680886186605733    0.9375824956113732
     0.4250007904806594    0.1032688973000688    0.7111335123559925
     0.4218688042947250    0.6022975288498245    0.7099279440518771
     0.9179293860215694    0.1019339809772291    0.7183465980325394
     0.9179100750120170    0.6020692781846435    0.7053369389511630
     0.0750041342012793    0.3967440268269371    0.2888979212720386
     0.0781127740946133    0.8976827245891812    0.2900487925674469
     0.5820881617178557    0.3980952778737006    0.2817053079184362
     0.5820384504912326    0.8979122336011685    0.2946143940841068
     0.2858538045715733    0.3167267826225242    0.1373075845370479
     0.2924235388394507    0.8201549518813351    0.1437950708326596
     0.7854953841067740    0.3155157909736914    0.1352279651153054
     0.7856250648111072    0.8151829407389783    0.1349846301668336
     0.1433769894883028    0.0344704982661739    0.5670687917245232
     0.1392190714248684    0.5301573278618861    0.5600780842270439
     0.6550808686641147    0.0402347482848100    0.5809464871039154
     0.6498964152713924    0.5403887431997916    0.5675744879411369
     0.0015691796054895    0.2491688509029970    0.0081027611481943
     0.0077653285458723    0.7483393528595030    0.9972652876243089
     0.4984530933428815    0.2508438377287590    0.9919265284957106
     0.4922268387505468    0.7516315212290863    0.0026606244814431
     0.3566613907016674    0.4655463810555318    0.4329515912804140
     0.3607621883332328    0.9698372248135811    0.4399216040553853
     0.8449242893514253    0.4597743383116750    0.4190952713328642
     0.8501017473676313    0.9595913671998275    0.4324110124900784
     0.2141970910007203    0.1832982099299798    0.8627800112994990
     0.2075483473414010    0.6798189395568457    0.8561470306413810
     0.7145157814404541    0.1844992092454518    0.8647955406234757
     0.7143504952754469    0.6847906263846397    0.8649478476207761
     0.3783083627718753    0.2318523443667075    0.7596225435913837
     0.3709689865212198    0.7308690245173182    0.7629706188156078
     0.8782720914212163    0.2275462318340757    0.7896425460800955
     0.8785649324047426    0.7334319017310094    0.7635243402487646
     0.0838875298758026    0.1705675882117674    0.6212493419743055
     0.0846173360467048    0.6685520629898534    0.6116461189110893
     0.5895033048745688    0.1661796851575446    0.6343295465682530
     0.5886421789746024    0.6739337635731601    0.6213779869141263
     0.4161372168517659    0.3294725034142587    0.3787931482934610
     0.4153554606025693    0.8314203840220031    0.3883271220912690
     0.9104998210348469    0.3338427781748052    0.3656901971973667
     0.9113437434533722    0.8260421491163967    0.3786148224817367
     0.3115465294501192    0.0976569648306551    0.4864058136630334
     0.3052341759865058    0.5954572759440779    0.4833435017659298
     0.8079470011715344    0.0870424210864442    0.4926889830118384
     0.8070593078132831    0.5973507690691733    0.4766834508327449
     0.1217263909868507    0.2681790383135976    0.2404694825431903
     0.1290006165222906    0.7691017320278490    0.2369794778181102
     0.6217358800238202    0.2724920409233462    0.2103523666640257
     0.6213993513891651    0.7665470663122633    0.2364455189802825
     0.4938914595906709    0.4803313558711366    0.6556440764740472
     0.4939565129307866    0.9797091885198128    0.6655608086213434
     0.9794768148435082    0.4756195928757094    0.6479684758053423
     0.9877117035902785    0.9769823643912261    0.6592810500966593
     0.4530181393022943    0.3837550263251046    0.0611729203068663
     0.4568183458742112    0.8854287416950726    0.0721985642716163
     0.9571649010881771    0.3827317632668681    0.0623180460124786
     0.9592590895929263    0.8810102293509630    0.0658472363274143
     0.1884767443216973    0.4023684203053435    0.5136413940445053
     0.1947266347143781    0.9045264638303294    0.5166190430355897
     0.6920860139291989    0.4129944730300608    0.5072567870196778
     0.6929254400421883    0.9026213199377580    0.5233228904731888
     0.0061135656687625    0.0196531637655966    0.3443686230102969
     0.0060528289451796    0.5202897520418759    0.3344515174948626
     0.5205218205304902    0.0243927829912636    0.3520010323743819
     0.5123161591219159    0.5230251739325098    0.3407541206354594
     0.3493645999130024    0.1919778855745875    0.0870899311142495
     0.3375273476929550    0.6887417372302380    0.0846273872696415
     0.8436339152059844    0.1889159891928216    0.0923798246563976
     0.8487505208770401    0.6901608277353830    0.0803911893305909
     0.1506852753945083    0.3080587397564187    0.9129553560935051
     0.1624321832385718    0.8112352795938875    0.9153420480913184
     0.6563799055683788    0.3111195270771248    0.9076710942169939
     0.6512478405735180    0.8097901671946346    0.9195394394207312
     0.0470196951799338    0.1162439658946539    0.9388499373037007
     0.0431433293734997    0.6145529181582177    0.9277515395748352
     0.5428386731728239    0.1172974274866760    0.9377341298434558
     0.5407399707313303    0.6189565077042758    0.9341272201199828
     0.2382749026052480    0.4442433560656980    0.1933011823211004
     0.2434789850160470    0.9484490694205476    0.2015792409473391
     0.7372684519583288    0.4466008768374365    0.1823133439003328
     0.7391812705736527    0.9438855448016383    0.1949743299083693
     0.2617371504825385    0.0557741720657603    0.8067673476392514
     0.2564980725268668    0.5515207363746057    0.7983665863958791
     0.7627524635326139    0.0534261556279603    0.8176912823034215
     0.7608048977373443    0.5560963486595298    0.8050041492975453
 
  0.00000000E+00  0.00000000E+00  0.00000000E+00
  0.00000000E+00  0.00000000E+00  0.00000000E+00
  0.00000000E+00  0.00000000E+00  0.00000000E+00
  0.00000000E+00  0.00000000E+00  0.00000000E+00
  0.00000000E+00  0.00000000E+00  0.00000000E+00
  0.00000000E+00  0.00000000E+00  0.00000000E+00
  0.00000000E+00  0.00000000E+00  0.00000000E+00
  0.00000000E+00  0.00000000E+00  0.00000000E+00
  0.00000000E+00  0.00000000E+00  0.00000000E+00
  0.00000000E+00  0.00000000E+00  0.00000000E+00
  0.00000000E+00  0.00000000E+00  0.00000000E+00
  0.00000000E+00  0.00000000E+00  0.00000000E+00
  0.00000000E+00  0.00000000E+00  0.00000000E+00
  0.00000000E+00  0.00000000E+00  0.00000000E+00
  0.00000000E+00  0.00000000E+00  0.00000000E+00
  0.00000000E+00  0.00000000E+00  0.00000000E+00
  0.00000000E+00  0.00000000E+00  0.00000000E+00
  0.00000000E+00  0.00000000E+00  0.00000000E+00
  0.00000000E+00  0.00000000E+00  0.00000000E+00
  0.00000000E+00  0.00000000E+00  0.00000000E+00
  0.00000000E+00  0.00000000E+00  0.00000000E+00
  0.00000000E+00  0.00000000E+00  0.00000000E+00
  0.00000000E+00  0.00000000E+00  0.00000000E+00
  0.00000000E+00  0.00000000E+00  0.00000000E+00
  0.00000000E+00  0.00000000E+00  0.00000000E+00
  0.00000000E+00  0.00000000E+00  0.00000000E+00
  0.00000000E+00  0.00000000E+00  0.00000000E+00
  0.00000000E+00  0.00000000E+00  0.00000000E+00
  0.00000000E+00  0.00000000E+00  0.00000000E+00
  0.00000000E+00  0.00000000E+00  0.00000000E+00
  0.00000000E+00  0.00000000E+00  0.00000000E+00
  0.00000000E+00  0.00000000E+00  0.00000000E+00
  0.00000000E+00  0.00000000E+00  0.00000000E+00
  0.00000000E+00  0.00000000E+00  0.00000000E+00
  0.00000000E+00  0.00000000E+00  0.00000000E+00
  0.00000000E+00  0.00000000E+00  0.00000000E+00
  0.00000000E+00  0.00000000E+00  0.00000000E+00
  0.00000000E+00  0.00000000E+00  0.00000000E+00
  0.00000000E+00  0.00000000E+00  0.00000000E+00
  0.00000000E+00  0.00000000E+00  0.00000000E+00
  0.00000000E+00  0.00000000E+00  0.00000000E+00
  0.00000000E+00  0.00000000E+00  0.00000000E+00
  0.00000000E+00  0.00000000E+00  0.00000000E+00
  0.00000000E+00  0.00000000E+00  0.00000000E+00
  0.00000000E+00  0.00000000E+00  0.00000000E+00
  0.00000000E+00  0.00000000E+00  0.00000000E+00
  0.00000000E+00  0.00000000E+00  0.00000000E+00
  0.00000000E+00  0.00000000E+00  0.00000000E+00
  0.00000000E+00  0.00000000E+00  0.00000000E+00
  0.00000000E+00  0.00000000E+00  0.00000000E+00
  0.00000000E+00  0.00000000E+00  0.00000000E+00
  0.00000000E+00  0.00000000E+00  0.00000000E+00
  0.00000000E+00  0.00000000E+00  0.00000000E+00
  0.00000000E+00  0.00000000E+00  0.00000000E+00
  0.00000000E+00  0.00000000E+00  0.00000000E+00
  0.00000000E+00  0.00000000E+00  0.00000000E+00
  0.00000000E+00  0.00000000E+00  0.00000000E+00
  0.00000000E+00  0.00000000E+00  0.00000000E+00
  0.00000000E+00  0.00000000E+00  0.00000000E+00
  0.00000000E+00  0.00000000E+00  0.00000000E+00
  0.00000000E+00  0.00000000E+00  0.00000000E+00
  0.00000000E+00  0.00000000E+00  0.00000000E+00
  0.00000000E+00  0.00000000E+00  0.00000000E+00
  0.00000000E+00  0.00000000E+00  0.00000000E+00
  0.00000000E+00  0.00000000E+00  0.00000000E+00
  0.00000000E+00  0.00000000E+00  0.00000000E+00
  0.00000000E+00  0.00000000E+00  0.00000000E+00
  0.00000000E+00  0.00000000E+00  0.00000000E+00
  0.00000000E+00  0.00000000E+00  0.00000000E+00
  0.00000000E+00  0.00000000E+00  0.00000000E+00
  0.00000000E+00  0.00000000E+00  0.00000000E+00
  0.00000000E+00  0.00000000E+00  0.00000000E+00
  0.00000000E+00  0.00000000E+00  0.00000000E+00
  0.00000000E+00  0.00000000E+00  0.00000000E+00
  0.00000000E+00  0.00000000E+00  0.00000000E+00
  0.00000000E+00  0.00000000E+00  0.00000000E+00
  0.00000000E+00  0.00000000E+00  0.00000000E+00
  0.00000000E+00  0.00000000E+00  0.00000000E+00
  0.00000000E+00  0.00000000E+00  0.00000000E+00
  0.00000000E+00  0.00000000E+00  0.00000000E+00
  0.00000000E+00  0.00000000E+00  0.00000000E+00
  0.00000000E+00  0.00000000E+00  0.00000000E+00
  0.00000000E+00  0.00000000E+00  0.00000000E+00
  0.00000000E+00  0.00000000E+00  0.00000000E+00
  0.00000000E+00  0.00000000E+00  0.00000000E+00
  0.00000000E+00  0.00000000E+00  0.00000000E+00
  0.00000000E+00  0.00000000E+00  0.00000000E+00
  0.00000000E+00  0.00000000E+00  0.00000000E+00
  0.00000000E+00  0.00000000E+00  0.00000000E+00
  0.00000000E+00  0.00000000E+00  0.00000000E+00
  0.00000000E+00  0.00000000E+00  0.00000000E+00
  0.00000000E+00  0.00000000E+00  0.00000000E+00
  0.00000000E+00  0.00000000E+00  0.00000000E+00
  0.00000000E+00  0.00000000E+00  0.00000000E+00
  0.00000000E+00  0.00000000E+00  0.00000000E+00
  0.00000000E+00  0.00000000E+00  0.00000000E+00
  0.00000000E+00  0.00000000E+00  0.00000000E+00
  0.00000000E+00  0.00000000E+00  0.00000000E+00
  0.00000000E+00  0.00000000E+00  0.00000000E+00
  0.00000000E+00  0.00000000E+00  0.00000000E+00
  0.00000000E+00  0.00000000E+00  0.00000000E+00
  0.00000000E+00  0.00000000E+00  0.00000000E+00
  0.00000000E+00  0.00000000E+00  0.00000000E+00
