Ca V  O                                 
   1.00000000000000     
    11.0148601532000008    0.0000000000000000    0.0000000000000000
    -0.0001855896000000   10.4011516553999996    0.0000000000000000
     3.6723958583999998   -6.1538260171000001   14.5152821726999992
   Ca   V    O 
    11    36    90
Direct
  0.5093981496073010  0.6545191114658617  0.4225592310817972
  0.0116840858356354  0.6351395123676685  0.4894556402750270
  0.0151688398464357  0.6156634038140041  0.9607790610672368
  0.3387019847865899  0.6894567136922153  0.9684923293117389
  0.6732897527038140  0.6602914125445385  0.9727348555406047
  0.3177047315939299  0.3853198842964867  0.0412022824056422
  0.3291299592540216  0.3903252322171737  0.5028120193407259
  0.6568510454796909  0.3392372971867014  0.0324243775086384
  0.6644952393056293  0.4037939310536758  0.5300771140244748
  0.9938784638389095  0.3025548831593344  0.0290231453476304
  0.9926633697648469  0.3357717473278558  0.5064353552429126
  0.2212284251101253  0.0926414011129177  0.3341770677022375
  0.2250256913261208  0.1240421070299524  0.8327154124466264
  0.5526103813604744  0.0929699946785592  0.3456901379786216
  0.5537686109457224  0.1271524180941363  0.8368264226351360
  0.8787326161203458  0.0913633208383925  0.3440991944655259
  0.8877236662005786  0.1211040253720943  0.8343081028546276
  0.1058997106799612  0.8752090441742906  0.1676113894028902
  0.1151671674933447  0.9067156210003132  0.6638331530416713
  0.4428342445898638  0.8768022033876611  0.1666539242374975
  0.4452563518052772  0.9179393298429208  0.6666061983339593
  0.7808624064377785  0.8677911226754484  0.1655890247209736
  0.7812659774648026  0.9052349992014167  0.6583080806749901
  0.0387350188687641  0.8871544951868855  0.3818123538113195
  0.0372776635070692  0.9323072419399250  0.8924790695918292
  0.3669789193250639  0.8888531489851040  0.3808163348454573
  0.3788003418597679  0.9020151397562423  0.8652112503889613
  0.7053482254157947  0.8834309451368669  0.3846041334345898
  0.7080734632674907  0.9108641040745166  0.8744705930967013
  0.2927717802447345  0.0704930130262248  0.1110366722012024
  0.2929020832801054  0.1208010664314007  0.6188025377689743
  0.6257162760832455  0.0726987009563820  0.1230813636805624
  0.6265050354311663  0.1174642592060255  0.6210903531895077
  0.9517617458680023  0.0981026506470581  0.1389558521986246
  0.9611488518177674  0.1131623727911404  0.6222282461965508
  0.0865164467352546  0.5762224529999042  0.2185777235870695
  0.0932477325149236  0.6020252507800059  0.7076723746225854
  0.4259086930200614  0.5784946173531945  0.2180111718152219
  0.4300832944412183  0.6006578827715072  0.7048169531114499
  0.7579879743521306  0.5749907474475103  0.2296626795776542
  0.7667082159008337  0.6080284140895758  0.7142500050846685
  0.2381352013621021  0.3920443103276667  0.2836953788492100
  0.2442862612422570  0.4247389493626314  0.7789616537121377
  0.5708874104050140  0.3700859518626465  0.2736289478881458
  0.5746586324426122  0.4227825114341477  0.7740143917467655
  0.9021718984612737  0.3982572808754250  0.2956302806685937
  0.9039498521232362  0.4215936908635247  0.7819716026950676
  0.0010400725153687  0.0102835354833089  0.5022608463680954
 -0.0025072211189903  0.0547614505779680  1.0072407159718670
  0.3294302233181968  0.9952815216363792  0.5009270483638344
  0.3331069288370737  0.9468121360302245 -0.0048947388234030
  0.6652516689104904  0.0030040342583167  0.5030787812714640
  0.6668028687741104  0.9923956473787274 -0.0012543855694363
  0.0527643463812227  0.0484503028571583  0.3265600891404891
  0.0601947950790011  0.0743294026387958  0.8224101965226438
  0.3971290810382179  0.0348954699993772  0.3175354093657368
  0.3969608286558269  0.0699188328775726  0.8146528870940172
  0.7234872779269725  0.0263726746899640  0.3178309761150453
  0.7246364069267249  0.0747779947783857  0.8241370029295995
  0.2668530530147230  0.9328518565249115  0.1862484414298362
  0.2713708327133217  0.9699947672926214  0.6889932421187438
  0.6102713698626014  0.9102946173290181  0.1698137054274775
  0.6071629077464750  0.9704967837893121  0.6846673027868769
  0.9361764257883257  0.9297837145064199  0.1904090609138832
  0.9382932131117389  0.9658104133237033  0.6861559703000749
  0.1174856128103628  0.0423702435113945  0.1361726630852152
  0.1218086702528665  0.0776031438720772  0.6370588461464920
  0.4510434403084371  0.0440665093665872  0.1356257242363078
  0.4540849505262698  0.0910226779501349  0.6352216209908457
  0.7909532379622827  0.0343027414662538  0.1352610655088576
  0.7902133997624834  0.0806458548063131  0.6353326624227182
  0.2091006687052410  0.9296834409505476  0.3652403546560426
  0.2128993404481905  0.9592642654569067  0.8664731601600729
  0.5406264970822923  0.9153489190108623  0.3708163378024837
  0.5434564047418430  0.9566746109130286  0.8645287215878218
  0.8751822663642924  0.9179433402461916  0.3704485262752926
  0.8803859456275350  0.9512598969699451  0.8648644614417739
  0.1936868114885226  0.2266077200621023  0.4381976759369821
  0.1981095868928913  0.2548292498435922  0.9390261140096334
  0.5230261699802310  0.2238791089785099  0.4482280204131049
  0.5110109400767510  0.2553976455953245  0.9440285993501153
  0.8318068011591839  0.2166832943369834  0.4505816067689000
  0.8511966356607591  0.2469022923407459  0.9429562226922769
  0.1374587445010020  0.7480285545845290  0.0608581763566376
  0.1469650307276192  0.7834166586732761  0.5601152832119387
  0.4732176409283029  0.7509973570005306  0.0585599591299337
  0.4802159932043532  0.8044383570665774  0.5606686818361214
  0.8248634855662269  0.7369304537405760  0.0597436015508540
  0.8251971285440896  0.7839008980279126  0.5543263892942937
  0.0838815902723326  0.4224816381111607  0.2616022567497205
  0.0766113518233869  0.4592179803700105  0.7747239731655722
  0.4085379179531697  0.4086499382109107  0.2470403643239631
  0.4190897198851760  0.4398452992286680  0.7423756089430400
  0.7339714666680516  0.4265725815775714  0.2878039097923414
  0.7486999019156705  0.4468761199598251  0.7538239429223635
  0.2569396604954777  0.5417124911664106  0.2176136601592956
  0.2518255537421859  0.5712273295579864  0.7251530715508335
  0.5792123413912382  0.5557075258937331  0.2561683005464531
  0.5984541805660537  0.5670612527764520  0.7125528217599528
  0.9105712760203334  0.5623423960683011  0.2617334637065581
  0.9231850097943712  0.5875625785003142  0.7464188153950393
  0.2421664533668145  0.2119618069954369  0.2656015592821124
  0.2447671892830293  0.2418337892033647  0.7642094860212915
  0.5798732812844392  0.1843138597897596  0.2682577915154845
  0.5785594254685481  0.2423967497129621  0.7689450948039755
  0.9005487002437041  0.2011919407996289  0.2790220197422804
  0.9093542221868887  0.2374366485814288  0.7719876387726681
  0.0849640469565135  0.7664162989576166  0.2367657824656518
  0.0918909940723511  0.7830029594333600  0.7284211125478317
  0.4206460010257218  0.7647276900222418  0.2314021282083531
  0.4260642466763878  0.7971419021440759  0.7227077444133909
  0.7531450674377246  0.7553968335966584  0.2368833805134352
  0.7580271472634317  0.7955744567269968  0.7256302844941830
  0.1021360678303133  0.4964180750680110  0.1023369224762635
  0.1154077674286033  0.5180991860345067  0.5912337408119841
  0.4858707682670829  0.5058139938593307  0.1004608323586811
  0.4651120262336217  0.5322780814110039  0.5855173694657639
  0.7995361845784966  0.4797280430369295  0.1149672840426533
  0.8301372764837661  0.5255648296279196  0.5970955004791535
  0.2030123616729736  0.4706838622576736  0.3991340654621693
  0.2232554456757362  0.5076028147508321  0.8956411557874600
  0.4935516344176750  0.4292414045811672  0.3898488494076575
  0.5291782913222280  0.5170305508230191  0.8891233830134500
  0.9022086492517672  0.4487713981904249  0.4098549144686525
  0.8517673634756779  0.4979038240519873  0.9000272473500239
  0.2913171534674937  0.2243545943215245  0.1007707036100131
  0.2882733227904404  0.2745137413570159  0.6086115664135480
  0.6261399328038606  0.2536335875201978  0.1393999589353882
  0.6327943713299453  0.2780147450610566  0.6185092773998608
  0.9426097098768446  0.2755084126233309  0.1579802585040509
  0.9629529700215504  0.2816607375340037  0.6294818188092415
  0.0497124640697805  0.7266475324727293  0.3829921732247691
  0.0401512398638341  0.7775475094962309  0.9008702391707181
  0.3579729082928529  0.7205155617230247  0.3729502891944060
  0.3875174524080411  0.7238988034140963  0.8434379707420830
  0.7015100472996951  0.7258610581688848  0.3906238552674043
  0.7068324761900886  0.7361531226541634  0.8609123988093234
 
             NaN             NaN             NaN
             NaN             NaN             NaN
             NaN             NaN             NaN
             NaN             NaN             NaN
             NaN             NaN             NaN
             NaN             NaN             NaN
             NaN             NaN             NaN
             NaN             NaN             NaN
             NaN             NaN             NaN
             NaN             NaN             NaN
             NaN             NaN             NaN
             NaN             NaN             NaN
             NaN             NaN             NaN
             NaN             NaN             NaN
             NaN             NaN             NaN
             NaN             NaN             NaN
             NaN             NaN             NaN
             NaN             NaN             NaN
             NaN             NaN             NaN
             NaN             NaN             NaN
             NaN             NaN             NaN
             NaN             NaN             NaN
             NaN             NaN             NaN
             NaN             NaN             NaN
             NaN             NaN             NaN
             NaN             NaN             NaN
             NaN             NaN             NaN
             NaN             NaN             NaN
             NaN             NaN             NaN
             NaN             NaN             NaN
             NaN             NaN             NaN
             NaN             NaN             NaN
             NaN             NaN             NaN
             NaN             NaN             NaN
             NaN             NaN             NaN
             NaN             NaN             NaN
             NaN             NaN             NaN
             NaN             NaN             NaN
             NaN             NaN             NaN
             NaN             NaN             NaN
             NaN             NaN             NaN
             NaN             NaN             NaN
             NaN             NaN             NaN
             NaN             NaN             NaN
             NaN             NaN             NaN
             NaN             NaN             NaN
             NaN             NaN             NaN
             NaN             NaN             NaN
             NaN             NaN             NaN
             NaN             NaN             NaN
             NaN             NaN             NaN
             NaN             NaN             NaN
             NaN             NaN             NaN
             NaN             NaN             NaN
             NaN             NaN             NaN
             NaN             NaN             NaN
             NaN             NaN             NaN
             NaN             NaN             NaN
             NaN             NaN             NaN
             NaN             NaN             NaN
             NaN             NaN             NaN
             NaN             NaN             NaN
             NaN             NaN             NaN
             NaN             NaN             NaN
             NaN             NaN             NaN
             NaN             NaN             NaN
             NaN             NaN             NaN
             NaN             NaN             NaN
             NaN             NaN             NaN
             NaN             NaN             NaN
             NaN             NaN             NaN
             NaN             NaN             NaN
             NaN             NaN             NaN
             NaN             NaN             NaN
             NaN             NaN             NaN
             NaN             NaN             NaN
             NaN             NaN             NaN
             NaN             NaN             NaN
             NaN             NaN             NaN
             NaN             NaN             NaN
             NaN             NaN             NaN
             NaN             NaN             NaN
             NaN             NaN             NaN
             NaN             NaN             NaN
             NaN             NaN             NaN
             NaN             NaN             NaN
             NaN             NaN             NaN
             NaN             NaN             NaN
             NaN             NaN             NaN
             NaN             NaN             NaN
             NaN             NaN             NaN
             NaN             NaN             NaN
             NaN             NaN             NaN
             NaN             NaN             NaN
             NaN             NaN             NaN
             NaN             NaN             NaN
             NaN             NaN             NaN
             NaN             NaN             NaN
             NaN             NaN             NaN
             NaN             NaN             NaN
             NaN             NaN             NaN
             NaN             NaN             NaN
             NaN             NaN             NaN
             NaN             NaN             NaN
             NaN             NaN             NaN
             NaN             NaN             NaN
             NaN             NaN             NaN
             NaN             NaN             NaN
             NaN             NaN             NaN
             NaN             NaN             NaN
             NaN             NaN             NaN
             NaN             NaN             NaN
             NaN             NaN             NaN
             NaN             NaN             NaN
             NaN             NaN             NaN
             NaN             NaN             NaN
             NaN             NaN             NaN
             NaN             NaN             NaN
             NaN             NaN             NaN
             NaN             NaN             NaN
             NaN             NaN             NaN
             NaN             NaN             NaN
             NaN             NaN             NaN
             NaN             NaN             NaN
             NaN             NaN             NaN
             NaN             NaN             NaN
             NaN             NaN             NaN
             NaN             NaN             NaN
             NaN             NaN             NaN
             NaN             NaN             NaN
             NaN             NaN             NaN
             NaN             NaN             NaN
             NaN             NaN             NaN
             NaN             NaN             NaN
             NaN             NaN             NaN
             NaN             NaN             NaN
             NaN             NaN             NaN
