Ca V  O 
 1.0000000000000000
    11.0148601532000008    0.0000000000000000    0.0000000000000000
    -0.0001855896000000   10.4011516553999996    0.0000000000000000
     3.6723958583999998   -6.1538260171000001   14.5152821726999992
 Ca  V   O  
  11  36  90
Cartesian
  6.5478746703167827  3.9587579715171555  6.7196056701863949
  1.8736888167734664  3.4785665975870574  7.2696177158767687
  3.7097231588183166  0.5195342938903172 14.0766721547743501
  7.3121426835508663  1.2597940727473080 14.1345489624614107
 11.0098874498218198  0.7722306611708556 14.0855911050135703
  3.6591254068915657  3.7840597430054719  0.2139843739799238
  5.4797042212189213  0.7865502686911129  7.3628688972678642
  7.3585221360622839  3.5155675742887609  0.4924680879796967
  9.2899407243475007  0.9827861398210604  7.4698731978500712
 10.9836074953029783  3.1616078620841934  0.4038266443603707
 12.8470888663985630  0.0573477629983023  7.4960452153097386
  3.6778809135364128 -1.0470446941241573  4.8087555433760665
  5.4941171662064496 -3.9227522619837605 12.0830115053134790
  7.3752521546859366 -1.1314117425218755  4.9713769868999256
  9.2148610699780313 -3.8938624924421283 12.1163917621046728
 10.9750392139489499 -1.1731532280026693  4.9274956817505959
 12.8427075715422632 -4.0130164394060674 12.1196226050630891
  1.8168107395238093  8.1486154303429590  2.4675182954654402
  3.7333339261486729  5.2639981545445522  9.5765839889294107
  5.5088816121747239  8.2159327408812697  2.4243419790350029
  7.3949974497341362  5.5289516159832877  9.7297252411711082
  9.2059523978997841  8.1457727143565037  2.3888082872516345
 11.0207285507749084  5.3307368385535367  9.5650649856532528
  1.8426021891876725  6.8921567024430503  5.5620192931323960
  3.7075756170827665  4.0737529140850510 12.8574831232131093
  5.4650336830918196  6.9093680334131928  5.4023214767574022
  7.3527294723143815  4.0283009874928499 12.5429220537528412
  9.1504564323994604  6.7709744331239072  5.4978320678214097
 10.9996367111672679  4.0062547423008468 12.5967285549114258
  3.6501120449188060  0.1786020663506565  1.6129730695764337
  5.5010081258398245 -2.5910725469405635  8.9513784662265738
  7.3539739304913709  0.1230434704009575  1.7310035206349401
  9.1976079053937099 -2.5551453216807509  8.9625552448041628
 11.0310797807111296  0.2196831976189196  1.9824624999583320
 12.8856045329264255 -2.6926868209379862  9.0725004768735804
  1.7821383447031010  4.6622548596709077  3.1526304318576384
  3.6258547231195100  1.8203776134959710 10.3493954480392230
  5.4825871637776453  4.7128587206270760  3.1706371455139579
  7.3404081372175458  1.9412880144349942 10.2355480131652676
  9.1769590426782006  4.6539658411592928  3.2681297425850429
 11.0732296856035966  1.8364370827671979 10.3627526206936338
  3.6805200027237039  2.4192775321815470  4.2382569704442670
  5.5799814139156858 -0.4210353435568882 11.3451498135575246
  7.3068782044912046  2.2290748775841349  4.0020816630429508
  9.1525137059440951 -0.3957080225913234 11.2985389052830865
 10.9928346520389706  2.3495932161661299  4.2615584081925872
 12.8545306665661823 -0.5080113095052501 11.4377181166023512
  1.8649484582213041 -2.6089884701603276  7.3116824462276639
  3.6719262047613066 -5.7639384983477271 14.5063379820304981
  5.5226257000086889 -3.1178746244268565  7.3007755992454575
  7.3210043431970888 -6.7352005059156701 14.5380528632061630
  9.1635126435662624 -3.0874526510181521  7.3096326077576199
 11.0370277849686929 -6.2537111747403111 14.5299114226197794
  1.7799072008158645 -1.5441343201064757  4.6230066695238801
  3.6154981509637958 -4.4587213329435205 11.8313379749034304
  5.5911880545901003 -1.5249662557533634  4.5434059641422602
  7.3715738566426188 -4.2997017836191489 11.8666180490565782
  9.1391304110891856 -1.6173887442686881  4.5685679434414794
 11.0740745857171170 -4.4288372890473173 11.7915410609318716
  3.7078414526237431  8.6510196450754808  2.7033794615756492
  5.5681408617296215  5.8846470591264284  9.9695646158755622
  7.3506752685329459  8.5815392414282936  2.5800363361294654
  9.2117253941005099  5.9181571682444192 10.0057991182410611
 10.9722291557788161  8.6125454794914713  2.7951693867783161
 12.8363526967617858  5.7004267173989236  9.8249184383607009
  1.8017324460584956 -0.2593994684353298  1.9455164625992607
  3.6687819311311491 -3.1534262008964058  9.2180370021989564
  5.5075440490423562 -0.2393255992424374  1.9439825676412201
  7.3594212847578806 -2.8833430121403860  9.2855242387656869
  9.2185689220646427 -0.3067094849221822  1.9273288380770790
 11.0525388936587969 -3.1127560342405096  9.2033434529344156
  3.6786484385962548  7.3816127380047964  5.3393591945432686
  5.5018897598969998  4.5374215756280565 12.5525702449190621
  7.3298846847303682  7.3385006920517961  5.3643851581413484
  9.2256885988184507  4.5737518017466394 12.6063309461153246
 10.9871613614803643  7.2659359659484331  5.3944235938627259
 12.8395653060233670  4.4019551549566929 12.5362850163599102
  3.7638743153641387 -0.3008409833507821  6.3583988689228361
  5.4883871800649215 -3.1664550039899080 13.6278300749923353
  7.4149089993144424 -0.3923017547484227  6.4850283167874201
  9.2448444105058307 -3.1489051715216911 13.6638845709735808
 10.8654082165352150 -0.4311727253826301  6.4617741903284358
 12.7647440259740321 -3.4403288941358290 13.7237031349071454
  1.7422007856852730  7.4172738533240761  0.9087496014915263
  3.8693784373920366  4.5120789761445161  8.0778621721474373
  5.5439049020209987  7.5207506995314111  0.8591057212191953
  7.5495040492445753  5.1325438450305123  8.1361148737439049
  9.2490943779641803  7.4527021144384182  0.8184331726599045
 11.0047639976795857  4.6203436785847192  8.0699997729973170
  1.8546538695973993  2.8015640331125136  3.9169330738266717
  3.7445013970849792 -0.0078247451929331 11.3054882070550207
  5.4407776272968613  2.7321294343761133  3.6869524567506042
  7.3429130007362877 -0.0704252692173083 10.7659919523539518
  9.1570909031770302  2.7235639268881999  3.9859150558093859
 10.9657454311035139 -0.0535555251342554 11.1225445951335189
  3.6231112678945983  4.2835239820310989  3.4493860863290737
  5.4668231848083861  1.4494955160114005 10.5247191496478916
  7.3270832182446535  4.2356005014738107  3.4650625974667997
  9.2014757204035487  1.4555115742849416 10.3636322931251410
 11.0100844680642993  4.3188082963889407  3.7148118978533486
 12.9009058701940003  1.4758966052298559 10.9328735419475027
  3.6314780685193480  0.7103187106353192  3.7499478052587265
  5.4790643278536502 -2.1668589247738050 11.0794968548179522
  7.3846080774509062  0.3991997463578886  3.8294694234699538
  9.2108071875504614 -2.1568640979561104 11.0853242817853541
 11.0045676997086073  0.5060748241360684  4.0223671828270930
 12.8774719617141731 -2.4682042636269217 11.2427949697757228
  1.8336677239596435  6.4076074256486208  3.5442802377264293
  3.6850495620622108  3.5735347018543622 10.6470435153699103
  5.4916760501058768  6.5729737095740557  3.3585708912929926
  7.3580645651388012  3.8383277276676977 10.4175058468629604
  9.1743510713708005  6.4579885107477990  3.4363155453226732
 10.9978251512864151  3.7073372795990758 10.5572354323853794
  1.6823775583387144  4.5455951723283565  1.4498826199561723
  3.4260758602774208  1.6295158563432717  8.6551341901002257
  5.5118985551967130  4.6494415890957459  1.4349795749204144
  7.2553785842122442  1.9479226138826855  8.4634466955413838
  9.2722316521430077  4.4700952671710228  1.5533037556725600
 11.3562699553007054  1.6596390306658668  8.6527877285490007
  3.7731923627605699  2.4798917337062720  5.9243059743604718
  5.7894314597543799 -0.2937849999821311 13.0474318776102454
  7.1196450226189105  2.1193228884820985  5.7182877633422740
  9.0027455183404097 -0.2116565596765572 12.9975876906854690
 11.1072824023450014  2.3453986325811091  5.9599329823990681
 12.7688689260410673 -0.5049675019847826 13.1942151942239541
  3.6247471999537320  1.8319516281933406  1.3207521142980199
  5.3684551406325820 -0.9024656764568799  8.8833065946164176
  7.3925704443737459  1.8669426759810575  1.8977232247829645
  9.3045978132946789 -0.8747009934881779  8.8757467935893608
 11.0120606413093576  1.9669030252508104  2.1689359486976190
 12.9115550452727152 -0.9643945316757487  9.3940452520265545
  1.9082584354020000  5.2477914921665905  5.8867806745581648
  3.7941342971485135  2.3900204275995334 12.9421378273621084
  5.4628166863341221  5.1733698492810580  5.3282124262671910
  7.3882197052969536  2.2686468566925133 12.2301637370463769
  8.9592290247369011  5.1051823725425249  5.5416561493272853
 10.8722014171515315  2.2873998121264161 12.5489764696787898
