Ca2 V6 O15
1.0
  -0.0000310000000000   -3.6716199999999999    0.0000850000000000
  10.3995920000000002    0.0000920000000000   -0.1801340000000000
  -2.9507740000000000   -1.8360040000000000    7.3098830000000001
Ca V O
2 6 15
direct
   0.0077069999999990    0.6808820000000000    0.9847490000000000 Ca
   0.9922820000000000    0.3191340000000000    0.0152780000000000 Ca
   0.6623340000000000    0.1035229999999990    0.6753410000000000 V
   0.3376719999999990    0.8964789999999990    0.3246520000000000 V
   0.1215069999999990    0.8880230000000000    0.7568210000000000 V
   0.8784879999999990    0.1119980000000000    0.2431859999999990 V
   0.2887720000000000    0.5857939999999990    0.4226450000000000 V
   0.7112170000000000    0.4142039999999990    0.5773750000000000 V
   0.0000000000000000    0.0000100000000000    0.9999950000000000 O
   0.1858139999999990    0.0397390000000000    0.6283700000000001 O
   0.8142000000000000    0.9602459999999990    0.3716029999999990 O
   0.3665069999999990    0.0731300000000000    0.2670610000000000 O
   0.6334930000000000    0.9268700000000001    0.7329359999999990 O
   0.5575400000000000    0.2354540000000000    0.8847400000000001 O
   0.4425070000000000    0.7645149999999999    0.1152089999999990 O
   0.2405600000000000    0.4314619999999990    0.5187820000000000 O
   0.7594310000000000    0.5685420000000000    0.4812309999999990 O
   0.7335090000000000    0.2301820000000000    0.5329159999999999 O
   0.2664920000000000    0.7698100000000001    0.4670760000000000 O
   0.4010400000000000    0.5087250000000000    0.1981750000000000 O
   0.5989540000000000    0.4912539999999990    0.8018259999999990 O
   0.8841460000000000    0.2682710000000000    0.2315239999999990 O
   0.1158260000000000    0.7317530000000000    0.7685100000000000 O
