Ca V  O 
 1.0000000000000000
    -0.0000310000000000   -3.6716199999999999    0.0000850000000000
    10.3995920000000002    0.0000920000000000   -0.1801340000000000
    -2.9507740000000000   -1.8360040000000000    7.3098830000000001
 Ca  V   O  
   2   6  15
Cartesian
  3.8865719208780303 -1.8359035446545506  6.8490521474144934
  3.5722726079454850 -3.6716312231526667  0.2660308597961856
 -0.8963696339033365 -3.6717504338832097  4.8942652290798190
  8.3207138828446272 -1.8357790802683311  2.2172174515160261
  7.1173441254347614 -1.8358408088697542  5.3982404337582546
  0.3739390069268647 -3.6716979308815292  1.8864780754197588
  4.8845207276215774 -1.8358579867572455  3.0238269455502329
  2.6113035490796452 -3.6716745610469808  4.0959693299504547
 -2.9739973486886675 -1.8359759502073072  7.2703422882378632
 -1.3780095349922530 -1.8359483981126012  4.6498872689093806
  8.7662607866141116 -3.6715901389908439  2.5138935093215742
 -0.1293320643508070 -1.8358793350193432  1.9467606063587071
  7.5258666087650044 -3.6716562508846109  5.1321097052119278
 -0.2343116456061821 -3.6718102371134322  6.4745286112418299
  7.6701531236535194 -1.8357224552988420  0.6303543297976758
  2.9558529265809521 -1.8358624932466454  3.7717851213874130
  4.5143692034979139 -3.6716687795917604  3.3643661362188375
  0.7100435298748377 -3.6716743703411034  3.9054618117444884
  6.7394491354987158 -1.8358578132589902  3.1998946113755391
  4.7357430824406892 -1.8358905894618904  1.2799154729570452
  2.7179742003931255 -3.6716404146598776  5.8410503555139419
  2.0831517774793160 -3.6717184658755238  1.8423202060683204
  5.4123700813000708 -1.8358192311869084  5.2843138028832044
