Ca V  Fe P  O 
1.0
        7.3103647232         0.0000000000         0.0000000000
       -3.2546685204         9.5061080214         0.0000000000
       -0.0145946512        -0.0109387765         8.4518636363
   Ca    V   Fe    P    O
    3    2    2    8   28
Direct
     0.262077600         0.382358700         0.406478345
     0.736947477         0.115621388         0.908806086
     0.736958981         0.615613043         0.908800423
     0.730251312         0.610392153         0.492257535
     0.730230093         0.110368550         0.492249250
     0.262717545         0.889371276         0.988427818
     0.262715936         0.389373183         0.988426030
     0.496092588         0.191839337         0.191831172
     0.496007681         0.691828609         0.191802070
     0.109277546         0.109190494         0.766129375
     0.109258883         0.609158814         0.766110420
     0.891260922         0.392468631         0.269202948
     0.891276538         0.892482340         0.269196212
     0.505166233         0.307704121         0.691848457
     0.505144775         0.807707667         0.691815376
     0.827442884         0.020291753         0.291243494
     0.827470541         0.520265341         0.291235030
     0.922093928         0.081140555         0.672025204
     0.922094703         0.581132889         0.672017515
     0.459687710         0.092358202         0.049913138
     0.459713757         0.592369854         0.049952529
     0.480327606         0.115232669         0.350965858
     0.480334312         0.615228295         0.350998819
     0.615686297         0.201897979         0.691142619
     0.615731359         0.701873064         0.691167295
     0.913887143         0.315864325         0.423178464
     0.913886070         0.815820038         0.423234791
     0.726221800         0.279620528         0.158233449
     0.726216495         0.779611588         0.158221424
     0.274312794         0.223538339         0.657795668
     0.274316519         0.723530114         0.657775164
     0.084137857         0.184830874         0.920309603
     0.084140986         0.684838891         0.920317471
     0.380488217         0.293969572         0.191753730
     0.380533814         0.793945312         0.191750616
     0.525729358         0.384336352         0.850650787
     0.525738657         0.884357452         0.850678623
     0.541726768         0.405354112         0.548726618
     0.541742027         0.905365705         0.548715353
     0.079390921         0.420481920         0.176891074
     0.079452671         0.920484543         0.176839054
     0.175017729         0.482221991         0.787784576
     0.175006106         0.982203543         0.787782311
