Ca5 V18 O44
1.0
       11.0205535889         0.0000000000         0.0000000000
        0.0000000000        10.3704185486         0.0000000000
        0.0000000000         3.8037199015        21.0831015463
   Ca    V    O
   14   54  132
Direct
     0.333333343         0.465618014         0.161082000
     0.166666672         0.534101009         0.838414013
     0.500000000         0.534101009         0.838414013
     0.833333313         0.534101009         0.838414013
     0.166666672         0.893903017         0.817443013
     0.500000000         0.893903017         0.817443013
     0.833333313         0.893903017         0.817443013
     0.000000000         0.016561000         0.516417980
     0.333333343         0.016561000         0.516417980
     0.666666687         0.016561000         0.516417980
     0.000000000         0.107754998         0.181508005
     0.333333343         0.107754998         0.181508005
     0.666666687         0.107754998         0.181508005
     0.000000000         0.465618014         0.161082000
     0.000000000         0.618722022         0.973910987
     0.333333343         0.618722022         0.973910987
     0.666666687         0.618722022         0.973910987
     0.166666672         0.220581993         0.913706005
     0.500000000         0.220581993         0.913706005
     0.833333313         0.220581993         0.913706005
     0.000000000         0.969949007         0.938452005
     0.333333343         0.969949007         0.938452005
     0.666666687         0.969949007         0.938452005
     0.000000000         0.453588992         0.717499971
     0.333333343         0.453588992         0.717499971
     0.666666687         0.453588992         0.717499971
     0.166666672         0.205932006         0.746371984
     0.500000000         0.205932006         0.746371984
     0.833333313         0.205932006         0.746371984
     0.000000000         0.804278016         0.685415983
     0.333333343         0.804278016         0.685415983
     0.666666687         0.804278016         0.685415983
     0.166666672         0.044326000         0.635959983
     0.500000000         0.044326000         0.635959983
     0.833333313         0.044326000         0.635959983
     0.000000000         0.652455986         0.570540011
     0.333333343         0.652455986         0.570540011
     0.666666687         0.652455986         0.570540011
     0.166666672         0.399158001         0.595622003
     0.500000000         0.399158001         0.595622003
     0.833333313         0.399158001         0.595622003
     0.000000000         0.605077982         0.404309005
     0.333333343         0.605077982         0.404309005
     0.666666687         0.605077982         0.404309005
     0.166666672         0.352124006         0.429466993
     0.500000000         0.352124006         0.429466993
     0.833333313         0.352124006         0.429466993
     0.000000000         0.957086980         0.363415003
     0.333333343         0.957086980         0.363415003
     0.666666687         0.957086980         0.363415003
     0.166666672         0.195649996         0.314159006
     0.500000000         0.195649996         0.314159006
     0.833333313         0.195649996         0.314159006
     0.000000000         0.795059979         0.253789008
     0.333333343         0.795059979         0.253789008
     0.666666687         0.795059979         0.253789008
     0.166666672         0.545962989         0.282822013
     0.500000000         0.545962989         0.282822013
     0.833333313         0.545962989         0.282822013
     0.166666672         0.029743001         0.061702002
     0.500000000         0.029743001         0.061702002
     0.833333313         0.029743001         0.061702002
     0.000000000         0.779673994         0.086961001
     0.333333343         0.779673994         0.086961001
     0.666666687         0.779673994         0.086961001
     0.166666672         0.381796002         0.026122000
     0.500000000         0.381796002         0.026122000
     0.833333313         0.381796002         0.026122000
     0.166666672         0.576777995         0.992860019
     0.500000000         0.576777995         0.992860019
     0.833333313         0.576777995         0.992860019
     0.000000000         0.169961005         0.918874979
     0.333333343         0.169961005         0.918874979
     0.666666687         0.169961005         0.918874979
     0.000000000         0.785713017         0.987926006
     0.333333343         0.785713017         0.987926006
     0.666666687         0.785713017         0.987926006
     0.166666672         0.383194000         0.908137023
     0.500000000         0.383194000         0.908137023
     0.833333313         0.383194000         0.908137023
     0.166666672         0.008154000         0.955740988
     0.500000000         0.008154000         0.955740988
     0.833333313         0.008154000         0.955740988
     0.000000000         0.634819984         0.896395028
     0.333333343         0.634819984         0.896395028
     0.666666687         0.634819984         0.896395028
     0.166666672         0.210822001         0.827740014
     0.500000000         0.210822001         0.827740014
     0.833333313         0.210822001         0.827740014
     0.000000000         0.925548017         0.866899014
     0.333333343         0.925548017         0.866899014
     0.666666687         0.925548017         0.866899014
     0.000000000         0.497756988         0.789143980
     0.333333343         0.497756988         0.789143980
     0.666666687         0.497756988         0.789143980
     0.000000000         0.784507990         0.763087988
     0.333333343         0.784507990         0.763087988
     0.666666687         0.784507990         0.763087988
     0.166666672         0.413091004         0.698951006
     0.500000000         0.413091004         0.698951006
     0.833333313         0.413091004         0.698951006
     0.166666672         0.043368001         0.746343017
     0.500000000         0.043368001         0.746343017
     0.833333313         0.043368001         0.746343017
     0.000000000         0.639458001         0.668398023
     0.333333343         0.639458001         0.668398023
     0.666666687         0.639458001         0.668398023
     0.000000000         0.255237013         0.735669017
     0.333333343         0.255237013         0.735669017
     0.666666687         0.255237013         0.735669017
     0.000000000         0.431338012         0.612038016
     0.333333343         0.431338012         0.612038016
     0.666666687         0.431338012         0.612038016
     0.166666672         0.846311986         0.667638004
     0.500000000         0.846311986         0.667638004
     0.833333313         0.846311986         0.667638004
     0.000000000         0.000840000         0.653051019
     0.333333343         0.000840000         0.653051019
     0.666666687         0.000840000         0.653051019
     0.166666672         0.595668972         0.574642003
     0.500000000         0.595668972         0.574642003
     0.833333313         0.595668972         0.574642003
     0.166666672         0.213082001         0.643335998
     0.500000000         0.213082001         0.643335998
     0.833333313         0.213082001         0.643335998
     0.000000000         0.813757002         0.564984024
     0.333333343         0.813757002         0.564984024
     0.666666687         0.813757002         0.564984024
     0.166666672         0.052675001         0.557977021
     0.500000000         0.052675001         0.557977021
     0.833333313         0.052675001         0.557977021
     0.000000000         0.639792979         0.479052007
     0.333333343         0.639792979         0.479052007
     0.666666687         0.639792979         0.479052007
     0.166666672         0.362596005         0.520662010
     0.500000000         0.362596005         0.520662010
     0.833333313         0.362596005         0.520662010
     0.000000000         0.945343971         0.439947993
     0.333333343         0.945343971         0.439947993
     0.666666687         0.945343971         0.439947993
     0.166666672         0.191503003         0.435707986
     0.500000000         0.191503003         0.435707986
     0.833333313         0.191503003         0.435707986
     0.000000000         0.787378013         0.354321003
     0.333333343         0.787378013         0.354321003
     0.666666687         0.787378013         0.354321003
     0.000000000         0.405515999         0.425455987
     0.333333343         0.405515999         0.425455987
     0.666666687         0.405515999         0.425455987
     0.166666672         0.000992000         0.344260991
     0.500000000         0.000992000         0.344260991
     0.833333313         0.000992000         0.344260991
     0.000000000         0.155463994         0.332563996
     0.333333343         0.155463994         0.332563996
     0.666666687         0.155463994         0.332563996
     0.166666672         0.570200026         0.387257010
     0.500000000         0.570200026         0.387257010
     0.833333313         0.570200026         0.387257010
     0.166666672         0.744109988         0.263408989
     0.500000000         0.744109988         0.263408989
     0.833333313         0.744109988         0.263408989
     0.166666672         0.361586988         0.331925988
     0.500000000         0.361586988         0.331925988
     0.833333313         0.361586988         0.331925988
     0.000000000         0.957674026         0.251634002
     0.333333343         0.957674026         0.251634002
     0.666666687         0.957674026         0.251634002
     0.000000000         0.581655979         0.300179005
     0.333333343         0.581655979         0.300179005
     0.666666687         0.581655979         0.300179005
     0.166666672         0.216903001         0.236463994
     0.500000000         0.216903001         0.236463994
     0.833333313         0.216903001         0.236463994
     0.166666672         0.502250016         0.211188003
     0.500000000         0.502250016         0.211188003
     0.833333313         0.502250016         0.211188003
     0.166666672         0.074653998         0.133202001
     0.500000000         0.074653998         0.133202001
     0.833333313         0.074653998         0.133202001
     0.000000000         0.787653983         0.171951994
     0.333333343         0.787653983         0.171951994
     0.666666687         0.787653983         0.171951994
     0.166666672         0.365370989         0.103634000
     0.500000000         0.365370989         0.103634000
     0.833333313         0.365370989         0.103634000
     0.000000000         0.989843011         0.044135001
     0.333333343         0.989843011         0.044135001
     0.666666687         0.989843011         0.044135001
     0.000000000         0.617094994         0.091576003
     0.333333343         0.617094994         0.091576003
     0.666666687         0.617094994         0.091576003
     0.166666672         0.214509994         0.011814000
     0.500000000         0.214509994         0.011814000
     0.833333313         0.214509994         0.011814000
     0.166666672         0.829639018         0.080976002
     0.500000000         0.829639018         0.080976002
     0.833333313         0.829639018         0.080976002
     0.000000000         0.423106015         0.007129000
     0.333333343         0.423106015         0.007129000
     0.666666687         0.423106015         0.007129000
