Ca   Sc   V    O                        
   1.00000000000000     
     9.9049829603324095   -0.0301229695628006   -0.0129457506867362
     2.1481777057479698    9.5490776317493502   -0.0108068645068965
    -5.9828403261164196   -4.7511346492178603   15.5438516020715998
   Ca   Sc   V    O 
     7    16    16    64
Direct
  0.4900209351601858  0.6054746377488440  0.4821084735428665
  0.4958622542392713  0.0802019799450959  0.9832852719578663
  0.4917378038152445  0.5844987789461552  0.9830090008022643
  0.9902932872766831  0.1058253074714858  0.4839132970305679
  0.9928208451861630  0.0807595593517292  0.9829629597555671
  0.9904474286302236  0.6059572962223915  0.4830236605219428
  0.9898291193409663  0.5851781705564988  0.9838895009143288
  0.3480220808766633  0.4360067733881067  0.1697653977527938
  0.3188660507536374  0.4466406525657973  0.6741089173282457
  0.3496603626421701  0.9369089742132936  0.1719539231992132
  0.3222247409958552  0.9409294240476137  0.6697690996083066
  0.8481585014960290  0.4363683598842765  0.1698905708432372
  0.8203481601833709  0.4383093622585206  0.6693115378464108
  0.8502615636634371  0.9378612315827715  0.1725437124570796
  0.8275864221330809  0.9374234855716826  0.6736631510106356
  0.1708654807960107  0.0153995597819681  0.3157249409341948
  0.1445839625247322  0.0128897096620370  0.8124493166140129
  0.1681228777281769  0.5055409620555965  0.3100767481338108
  0.1413970776241676  0.5106872609566612  0.8127230158100395
  0.6710056673106632  0.0010184836905457  0.3134997041575442
  0.6428326414412390  0.0122379031398023  0.8110696399365256
  0.6671227634310798  0.5062763316800520  0.3102157306120907
  0.6416540231382267  0.5098785348957404  0.8110731451945653
  0.1051322122098695  0.1918645560499326  0.1803182083703827
  0.0766684307110869  0.1954014053285999  0.6809347855535034
  0.1052869755090420  0.6920135921319247  0.1809137524509229
  0.0763594601910908  0.6955877893183983  0.6812938598634196
  0.6035872234972551  0.1917264422243718  0.1804779293554081
  0.5713982755598456  0.1894360936654557  0.6701570050579306
  0.6035961350443088  0.6905776029616763  0.1804615005141023
  0.5758474580479447  0.6947289609903410  0.6796632045537716
  0.4296893646689472  0.2539912477133949  0.3164047740053617
  0.3933817844675397  0.2628044418602071  0.8132040167799552
  0.4142092007976690  0.7638213995330139  0.3153616031369263
  0.3926926516133600  0.7624585780566274  0.8125445911900119
  0.9182980288164878  0.2584768772638975  0.3123508480687899
  0.8909806899427379  0.2597007582442170  0.8128267343818769
  0.9219603774895965  0.7573538799703015  0.3121899976495174
  0.8908124903640731  0.7595283334785705  0.8124640618877214
  0.2314861933814957  0.3282354431898263  0.2078162550528307
  0.2105689881731366  0.3327111004248966  0.7135417865679452
  0.2421064983913571  0.8294195541026697  0.2159019956602327
  0.2112339869494070  0.8319072320943802  0.7130680394918447
  0.7383078830999734  0.3250362915888521  0.2114355524944245
  0.7055868702652818  0.3295241054062530  0.7102409351477622
  0.7393392908693899  0.8291401889793315  0.2144206944232117
  0.7107701003028946  0.8311895421985332  0.7126764287372932
  0.5015494948881410  0.0880434880422272  0.2154387272916064
  0.4764484522018523  0.0916959757046118  0.7109537934015474
  0.5032974221527698  0.5818688699366251  0.2083077217833057
  0.4736747174833859  0.5920368266411293  0.7125399572891258
  0.0047489065992081  0.0871189930111652  0.2152941147238320
  0.9745603551969221  0.0912121977754218  0.7129325475764833
  0.0008524769389500  0.5886258705921228  0.2115951734920520
  0.9735211577815183  0.5918323772732348  0.7130569813580684
  0.0582788319048209  0.1739484646476339  0.3905289970010913
  0.0345535485085669  0.1744302987235592  0.8902783280320513
  0.0629400068497507  0.6688424578792912  0.3889985233329974
  0.0328672264475766  0.6738175796041957  0.8901638374579676
  0.5700227621531826  0.1864325089289660  0.3878745910816233
  0.5334586337783408  0.1737090063473698  0.8892488935897771
  0.5588801370096580  0.6678663111753895  0.3859556171791804
  0.5341267801051390  0.6749832007890961  0.8893243843131104
  0.3550859266499248  0.4203451693250227  0.3853557011253713
  0.3259608226925655  0.4252379178523045  0.8909019607837692
  0.3473142794053614  0.9031841034314348  0.3879883509446611
  0.3277339665394015  0.9260758338595553  0.8902746858196965
  0.8532456649371942  0.4234037695332659  0.3888031914841382
  0.8266378327694976  0.4248044034231750  0.8891731114841973
  0.8580130431476043  0.9198791378229342  0.3903254665617272
  0.8261904140889736  0.9243722700512144  0.8893868996004424
  0.2856936303279995  0.1248687659016091  0.2791606870046168
  0.2572164039560906  0.1252379520043792  0.7763642144506436
  0.2845551965918701  0.6177893445891017  0.2753771363173936
  0.2558828078339295  0.6254256660434595  0.7777934617767465
  0.7832658467884422  0.1223187817291052  0.2789044058920129
  0.7587638608220119  0.1240912654404882  0.7781448931284319
  0.7850144576819404  0.6201243088944749  0.2766660725378399
  0.7558329345307084  0.6236460352925289  0.7764636521275248
  0.0184385933691231  0.3588009393508280  0.2760172914330272
  0.9908716996375050  0.3620068145081074  0.7771285187541038
  0.0236628246474811  0.8593129341194151  0.2788263664619866
  0.9933066605341482  0.8633546973724633  0.7783620192436501
  0.5178393936496898  0.3581139242926594  0.2746291703289626
  0.4913996287834861  0.3663085359617505  0.7804986639132149
  0.5215800493734714  0.8561506071575807  0.2782425628938867
  0.4927387109985957  0.8636172832481980  0.7775516267612718
  0.4497632091657858  0.2556315230612208  0.0985476981277676
  0.4284392315270655  0.2677170576790920  0.6047589766955775
  0.4521699620330714  0.7623122214501524  0.0997365118379798
  0.4239858842247621  0.7632547345760390  0.5982654244973227
  0.9486210584886445  0.2565810660992464  0.0988140107053042
  0.9271744889401469  0.2663830026895519  0.5991242866013028
  0.9520894476989920  0.7632110078798358  0.1002472392990073
  0.9251412060430956  0.7647287744896429  0.5988633659119830
  0.1725910064710202  0.0374180311636862  0.0994458587568630
  0.1480796181446427  0.0448305151877470  0.5993257112018731
  0.1740460424301256  0.5431849289294671  0.0983378536853156
  0.1486860486631531  0.5460085519662066  0.5993450590267975
  0.6740953345011212  0.0379193410095022  0.0997288380605118
  0.6466188203335368  0.0451381827354573  0.6039375997024354
  0.6753748032991779  0.5422557872152075  0.0981067138988251
  0.6497651845705132  0.5474543857619767  0.5986430128824578
 
             NaN             NaN             NaN
             NaN             NaN             NaN
             NaN             NaN             NaN
             NaN             NaN             NaN
             NaN             NaN             NaN
             NaN             NaN             NaN
             NaN             NaN             NaN
             NaN             NaN             NaN
             NaN             NaN             NaN
             NaN             NaN             NaN
             NaN             NaN             NaN
             NaN             NaN             NaN
             NaN             NaN             NaN
             NaN             NaN             NaN
             NaN             NaN             NaN
             NaN             NaN             NaN
             NaN             NaN             NaN
             NaN             NaN             NaN
             NaN             NaN             NaN
             NaN             NaN             NaN
             NaN             NaN             NaN
             NaN             NaN             NaN
             NaN             NaN             NaN
             NaN             NaN             NaN
             NaN             NaN             NaN
             NaN             NaN             NaN
             NaN             NaN             NaN
             NaN             NaN             NaN
             NaN             NaN             NaN
             NaN             NaN             NaN
             NaN             NaN             NaN
             NaN             NaN             NaN
             NaN             NaN             NaN
             NaN             NaN             NaN
             NaN             NaN             NaN
             NaN             NaN             NaN
             NaN             NaN             NaN
             NaN             NaN             NaN
             NaN             NaN             NaN
             NaN             NaN             NaN
             NaN             NaN             NaN
             NaN             NaN             NaN
             NaN             NaN             NaN
             NaN             NaN             NaN
             NaN             NaN             NaN
             NaN             NaN             NaN
             NaN             NaN             NaN
             NaN             NaN             NaN
             NaN             NaN             NaN
             NaN             NaN             NaN
             NaN             NaN             NaN
             NaN             NaN             NaN
             NaN             NaN             NaN
             NaN             NaN             NaN
             NaN             NaN             NaN
             NaN             NaN             NaN
             NaN             NaN             NaN
             NaN             NaN             NaN
             NaN             NaN             NaN
             NaN             NaN             NaN
             NaN             NaN             NaN
             NaN             NaN             NaN
             NaN             NaN             NaN
             NaN             NaN             NaN
             NaN             NaN             NaN
             NaN             NaN             NaN
             NaN             NaN             NaN
             NaN             NaN             NaN
             NaN             NaN             NaN
             NaN             NaN             NaN
             NaN             NaN             NaN
             NaN             NaN             NaN
             NaN             NaN             NaN
             NaN             NaN             NaN
             NaN             NaN             NaN
             NaN             NaN             NaN
             NaN             NaN             NaN
             NaN             NaN             NaN
             NaN             NaN             NaN
             NaN             NaN             NaN
             NaN             NaN             NaN
             NaN             NaN             NaN
             NaN             NaN             NaN
             NaN             NaN             NaN
             NaN             NaN             NaN
             NaN             NaN             NaN
             NaN             NaN             NaN
             NaN             NaN             NaN
             NaN             NaN             NaN
             NaN             NaN             NaN
             NaN             NaN             NaN
             NaN             NaN             NaN
             NaN             NaN             NaN
             NaN             NaN             NaN
             NaN             NaN             NaN
             NaN             NaN             NaN
             NaN             NaN             NaN
             NaN             NaN             NaN
             NaN             NaN             NaN
             NaN             NaN             NaN
             NaN             NaN             NaN
             NaN             NaN             NaN
             NaN             NaN             NaN
