Ca   Sc   V    O                        
   1.00000000000000     
     9.9049829603324095   -0.0301229695628006   -0.0129457506867362
     2.1481777057479698    9.5490776317493502   -0.0108068645068965
    -5.9828403261164196   -4.7511346492178603   15.5438516020715998
   Ca   Sc   V    O 
     7    16    16    64
Direct
  0.4900250149256541  0.6054840427402451  0.4821137842402065
  0.4958657899192611  0.0801754704051326  0.9832869706249654
  0.4917454112131570  0.5844720731083132  0.9830139165585091
  0.9902996841509962  0.1058345790983131  0.4839169691628781
  0.9928202271602913  0.0807321099547860  0.9829653325046355
  0.9904485043734856  0.6059690852658993  0.4830245659962005
  0.9898264105439030  0.5851542174571243  0.9838923313051002
  0.3480370115637492  0.4359962891328811  0.1697731372164244
  0.3188478845388943  0.4466279501801371  0.6740970409656247
  0.3496736184362046  0.9369032703452155  0.1719552463276418
  0.3222137388635208  0.9408858213845855  0.6697595776143231
  0.8481755399192408  0.4363711214821801  0.1698937594976865
  0.8203229451615708  0.4382905364483626  0.6693079674967928
  0.8502836840691025  0.9378525294566071  0.1725474560778918
  0.8275631346402320  0.9374035146575267  0.6736573814273946
  0.1708980073043160  0.0153909829094752  0.3157332578540106
  0.1445681298440606  0.0128711206017856  0.8124466610737494
  0.1681405959316168  0.5055358143082204  0.3100795533976320
  0.1413804385978635  0.5106749903641205  0.8127246717824876
  0.6710409757459598  0.0009834257567179  0.3134896782276522
  0.6428095130198064  0.0122084748137983  0.8110699756680528
  0.6671447489349133  0.5062685186713877  0.3102213086814657
  0.6416268831202109  0.5098734402621680  0.8110684888790064
  0.1051701400645735  0.1918510709323445  0.1803195751006861
  0.0766384674144953  0.1953881219995147  0.6809292124533324
  0.1053150592545607  0.6920016760876837  0.1809297814389481
  0.0763401225708783  0.6955930006261759  0.6812937603637206
  0.6036188692416961  0.1917138741263901  0.1804780613550395
  0.5713136427512575  0.1894729891953228  0.6701379626417459
  0.6036508203826543  0.6905605069631452  0.1804733392725643
  0.5757902194294844  0.6947279717519627  0.6796561161047692
  0.4296410830278265  0.2539991035915792  0.3163734215740788
  0.3933574825623873  0.2628065867655515  0.8132006090729845
  0.4142202143461837  0.7637934299548798  0.3153602055514064
  0.3926670610999147  0.7624650166297483  0.8125303587904936
  0.9183257762425479  0.2584698491997167  0.3123563151099668
  0.8909595613672108  0.2596900601203697  0.8128209623844012
  0.9219805799687084  0.7573211884800700  0.3121811421148913
  0.8907832292012957  0.7595438376910614  0.8124609922186719
  0.2315141507722223  0.3282262232576930  0.2078166492672014
  0.2105336496993890  0.3327045027121601  0.7135372955805965
  0.2421267840738988  0.8294068923966120  0.2159026936594406
  0.2112056684575012  0.8318994237287197  0.7130647601433996
  0.7383374197480931  0.3250278007332544  0.2114399222154503
  0.7055687218195525  0.3295254333887939  0.7102393088112690
  0.7393567352227266  0.8291343486759113  0.2144258678022153
  0.7107374695147605  0.8311778530061580  0.7126704519482361
  0.5015712360476753  0.0880292063261977  0.2154418474473210
  0.4764240618716216  0.0916706131885819  0.7109492000418935
  0.5033282924158289  0.5818595582320053  0.2083121854864985
  0.4736623766242654  0.5920339806744690  0.7125380412666188
  1.0047663983939927  0.0871014640202367  0.2152973936561522
 -0.0254613854090731  0.0912039167776120  0.7129290442308182
  1.0008853382352174  0.5886164568777705  0.2115928312381063
 -0.0265096041247059  0.5918173178498315  0.7130561924722386
  0.0583012071078573  0.1739442987991273  0.3905330090649882
  0.0345349276881447  0.1744162966779569  0.8902856477636131
  0.0629703997271501  0.6688325060009139  0.3890018240151472
  0.0328520548264666  0.6738040403424000  0.8901721147336803
  0.5701109981193285  0.1864009972205782  0.3879148347804686
  0.5334469561158137  0.1736866051807131  0.8892561782107496
  0.5589074809238853  0.6678413896475599  0.3859603648376563
  0.5341127230086269  0.6749726276385809  0.8893283750109570
  0.3551141931226349  0.4203308673390773  0.3853647074901793
  0.3259310785953090  0.4252396934114639  0.8909072525979308
  0.3473420927861197  0.9031789781875029  0.3879894209543113
  0.3277110159645853  0.9260722485665590  0.8902756319671936
  0.8532760428742004  0.4233929429353510  0.3888087329839314
  0.8266095588311176  0.4248074892525723  0.8891792301720582
  0.8580270994860991  0.9198875173034552  0.3903330569703234
  0.8261634539040764  0.9243676368227409  0.8893878590151564
  0.2857207666117689  0.1248571164159105  0.2791616804855935
  0.2571803639783927  0.1252150604410237  0.7763581062132232
  0.2845863565955902  0.6177845392284297  0.2753810350467193
  0.2558572194034875  0.6254224299063585  0.7777944085454161
  0.7832858033325175  0.1223097419640341  0.2789082899232424
  0.7587331875900584  0.1240772956831787  0.7781412301817561
  0.7850453875996813  0.6201171554552224  0.2766724737844203
  0.7557938770989401  0.6236303070147933  0.7764600451197297
  1.0184668429701476  0.3587878530369142  0.2760176140533587
 -0.0091526161671307  0.3620015981962652  0.7771296037051131
  1.0236886666462341  0.8593084193621512  0.2788262308666023
 -0.0067213830704907  0.8633445664150610  0.7783612329788326
  0.5178734416384468  0.3581119397019675  0.2746326825894663
  0.4913817245312001  0.3663035651604553  0.7805018845250448
  0.5216126716167369  0.8561529357005033  0.2782460641898804
  0.4927123424668968  0.8635929523354339  0.7775464469779765
  0.4497814903348276  0.2556164752213856  0.0985466365597249
  0.4284349560608967  0.2677041589761942  0.6047657753170635
  0.4521790542712046  0.7623067447036452  0.0997333930471662
  0.4239761171222437  0.7632281809611323  0.5982652575260802
  0.9486379728722540  0.2565663186837565  0.0988095307814997
  0.9271485478844860  0.2663735626083963  0.5991170227075557
  0.9521055133020754  0.7632040650525397  0.1002452077944565
  0.9251144567562897  0.7647153881471671  0.5988544861855524
  0.1726058890089054  0.0374037634229191  0.0994409127265734
  0.1480528570048298  0.0448197729304549  0.5993185852066186
  0.1740631858873896  0.5431656586544433  0.0983320638727757
  0.1486616111712105  0.5459991388438832  0.5993377394205646
  0.6741194525144347  0.0379074164126480  0.0997273360933406
  0.6466137599029863  0.0451004384194700  0.6039236104656202
  0.6753963907286933  0.5422455038490958  0.0981085055057576
  0.6497468020294607  0.5474344829907219  0.5986418706231342
 
             NaN             NaN             NaN
             NaN             NaN             NaN
             NaN             NaN             NaN
             NaN             NaN             NaN
             NaN             NaN             NaN
             NaN             NaN             NaN
             NaN             NaN             NaN
             NaN             NaN             NaN
             NaN             NaN             NaN
             NaN             NaN             NaN
             NaN             NaN             NaN
             NaN             NaN             NaN
             NaN             NaN             NaN
             NaN             NaN             NaN
             NaN             NaN             NaN
             NaN             NaN             NaN
             NaN             NaN             NaN
             NaN             NaN             NaN
             NaN             NaN             NaN
             NaN             NaN             NaN
             NaN             NaN             NaN
             NaN             NaN             NaN
             NaN             NaN             NaN
             NaN             NaN             NaN
             NaN             NaN             NaN
             NaN             NaN             NaN
             NaN             NaN             NaN
             NaN             NaN             NaN
             NaN             NaN             NaN
             NaN             NaN             NaN
             NaN             NaN             NaN
             NaN             NaN             NaN
             NaN             NaN             NaN
             NaN             NaN             NaN
             NaN             NaN             NaN
             NaN             NaN             NaN
             NaN             NaN             NaN
             NaN             NaN             NaN
             NaN             NaN             NaN
             NaN             NaN             NaN
             NaN             NaN             NaN
             NaN             NaN             NaN
             NaN             NaN             NaN
             NaN             NaN             NaN
             NaN             NaN             NaN
             NaN             NaN             NaN
             NaN             NaN             NaN
             NaN             NaN             NaN
             NaN             NaN             NaN
             NaN             NaN             NaN
             NaN             NaN             NaN
             NaN             NaN             NaN
             NaN             NaN             NaN
             NaN             NaN             NaN
             NaN             NaN             NaN
             NaN             NaN             NaN
             NaN             NaN             NaN
             NaN             NaN             NaN
             NaN             NaN             NaN
             NaN             NaN             NaN
             NaN             NaN             NaN
             NaN             NaN             NaN
             NaN             NaN             NaN
             NaN             NaN             NaN
             NaN             NaN             NaN
             NaN             NaN             NaN
             NaN             NaN             NaN
             NaN             NaN             NaN
             NaN             NaN             NaN
             NaN             NaN             NaN
             NaN             NaN             NaN
             NaN             NaN             NaN
             NaN             NaN             NaN
             NaN             NaN             NaN
             NaN             NaN             NaN
             NaN             NaN             NaN
             NaN             NaN             NaN
             NaN             NaN             NaN
             NaN             NaN             NaN
             NaN             NaN             NaN
             NaN             NaN             NaN
             NaN             NaN             NaN
             NaN             NaN             NaN
             NaN             NaN             NaN
             NaN             NaN             NaN
             NaN             NaN             NaN
             NaN             NaN             NaN
             NaN             NaN             NaN
             NaN             NaN             NaN
             NaN             NaN             NaN
             NaN             NaN             NaN
             NaN             NaN             NaN
             NaN             NaN             NaN
             NaN             NaN             NaN
             NaN             NaN             NaN
             NaN             NaN             NaN
             NaN             NaN             NaN
             NaN             NaN             NaN
             NaN             NaN             NaN
             NaN             NaN             NaN
             NaN             NaN             NaN
             NaN             NaN             NaN
             NaN             NaN             NaN
