Ca V  Cr P  O 
 1.0000000000000000
     9.8034191132000004    0.0000000000000000    0.0000000000000000
     0.0310846032000000    8.1394794092999998    0.0000000000000000
    -2.1279917691999999   -0.0524358375000000    6.8508461865000001
 Ca  V   Cr  P   O  
   1   2   2   8  28
Selective dynamics
Cartesian
  1.9259332724746363  7.2554891125676857  5.6400623412662236   T   T   T
 -0.5317121969082254  4.0267805443937545  4.9537373485431981   T   T   T
  4.4936183671644088  4.0258503531780168  4.9567132205671456   T   T   T
  3.2485034198194960  0.0370997520391071  1.8723573881951634   T   T   T
  8.1596690137186361  0.0254967145970275  1.8361063370053292   T   T   T
  0.8218612277925980  1.5693780703375968  3.3344737195257750   T   T   T
  5.7285308341928900  1.4625662948765819  3.4695392408521659   T   T   T
  0.9530360697552984  6.2429521197598961  0.6712575262402819   T   T   T
  5.8997922041826056  6.2222886424860997  0.7455995466109810   T   T   T
  1.8733316126578679  2.2016207768633298  6.0877328884146964   T   T   T
  6.7681359983034639  2.1186093095298109  6.1093454377530083   T   T   T
  1.9818948720148801  5.4950732605535482  3.2919635454263707   T   T   T
  6.8605516545901262  5.5903949545440632  3.3725927931737467   T   T   T
 -1.6411905744010771  2.5866638264586963  5.6677975555926130   T   T   T
  3.2844083410884064  2.6548697458601866  5.7407456647936250   T   T   T
 -1.1389786289824986  5.3289238997490918  6.2572820942337790   T   T   T
  3.6649835532593005  5.4126591987637021  6.2509732905670612   T   T   T
 -0.2186110299059318  0.4896864929306657  3.1515928666593647   T   T   T
  4.6004227233206967  0.4771138588544139  3.2227951965583954   T   T   T
  0.2654594197757669  2.9909184383081184  3.5204761627076300   T   T   T
  5.1663760731410830  2.9156297230008050  3.5871252691154347   T   T   T
  0.8085309819815487  5.4944493738140796  4.3193551633835856   T   T   T
  5.6288907722650148  5.4778187633947368  4.2862847018827139   T   T   T
  0.8734380617575053  3.3459053960047331  6.1993840058746486   T   T   T
  5.8033240438743334  3.3563440801971534  6.1406177465718574   T   T   T
  1.4014134908254992  1.2201952026193916  4.8473138919886880   T   T   T
  6.2216513579224424  1.1201569140738192  4.9725044349558480   T   T   T
  1.5024565928428004  5.1842070527649158  1.8153881427151757   T   T   T
  6.3656936409680425  5.1810275342489227  1.8614427008621799   T   T   T
  1.9883299224579807  7.3827910084671338  0.5227909983143253   T   T   T
  6.8210278918168417  7.4216701597533845  0.5955603889792611   T   T   T
  2.0228235919585380  1.5188809461965527  2.4070261371686361   T   T   T
  6.8914715930181396  1.4349141467316873  2.5079722942461449   T   T   T
  2.5087842326929604  6.9596996266368247  3.3208028956106350   T   T   T
  7.4234592524080014  6.9867681973566551  3.2902972744616026   T   T   T
  3.0486098135922624  4.4848469575435521  3.6644985342344167   T   T   T
  7.9136081386177812  4.5239901217918597  3.7076809482659518   T   T   T
  4.0072581501912872  1.1971139174845746  0.3483581270309850   T   T   T
  8.9111804939932426  1.3901166217706733  0.5362258079450292   T   T   T
  4.4536822981154298  6.6866979286115837  1.0493514894878546   T   T   T
  9.3784387119292667  6.6648196193652147  1.0934887030413483   T   T   T
