Ca Sc Mn O                              
   1.00000000000000     
    11.5374555587999996    0.0000000000000000    0.0000000000000000
    -8.6585401879999999    7.6251270536000000    0.0000000000000000
     0.0000000000000000    0.0000000000000000   10.1281061171999998
Ca Sc Mn O               
7               8              16              40
Selective dynamics
Direct
  0.2614199173422236  0.2385792179562856  0.7500221188545595   T   T   T
  0.2431178286883835  0.7609540466553568  0.2499878176985888   T   T   T
  0.7390425951660049  0.2568821268787218  0.2499866033528946   T   T   T
  0.7373492384206983  0.7626590554170960  0.2500069588716727   T   T   T
  0.2671713680303469  0.7451154364499786  0.7499977543122398   T   T   T
  0.7548839744761935  0.2328292646976635  0.7500005195381902   T   T   T
  0.7627893221998221  0.7372094130804427  0.7499911231541816   T   T   T
  0.3813704554646051  0.1186263686054616  0.2499738188110499   T   T   T
  0.3765529564574166  0.5949270285133821  0.2500053037792611   T   T   T
  0.9050724115242943  0.1234398374293875  0.2500074267153209   T   T   T
  0.8825346307815067  0.6174660311112987  0.2500297040358817   T   T   T
  0.1148246889362881  0.3851759796209464  0.7499989862159069   T   T   T
  0.1160844250898592  0.8856092207112169  0.7499902444049553   T   T   T
  0.6143942894467074  0.3839173864507188  0.7499889989448363   T   T   T
  0.6160364619110297  0.8839633432145177  0.7499711252366197   T   T   T
  0.4275492247189376  0.0724518044651603  0.5530489716010010   T   T   T
  0.4363433400535470  0.5674165753944322  0.5640545610809369   T   T   T
  0.9325762802855380  0.0636540015369533  0.5640583880316541   T   T   T
  0.9331858813487344  0.5668146902035289  0.5630299498953377   T   T   T
  0.4275082894264131  0.0724938333196263  0.9467650683955782   T   T   T
  0.4363558826101936  0.5674400147022425  0.9359304230369432   T   T   T
  0.9325624399412362  0.0636372315551839  0.9359436848809182   T   T   T
  0.9332415536138612  0.5667555346600608  0.9371110662759179   T   T   T
  0.0633155411377686  0.4366853477252874  0.0625374408211457   T   T   T
  0.0665970875984385  0.9440360542062720  0.0649666588728550   T   T   T
  0.5559483062382142  0.4334006771441068  0.0649543559629322   T   T   T
  0.5671216145359992  0.9328821988373264  0.0651914355546168   T   T   T
  0.0633003173689275  0.4367019004985906  0.4374959547569333   T   T   T
  0.0666189174503842  0.9440596094351363  0.4350479105196072   T   T   T
  0.5559601043842974  0.4333846840389128  0.4350408094769094   T   T   T
  0.5670954723315162  0.9329032330271829  0.4347481169717469   T   T   T
  0.4637327273590941  0.0362691006760727  0.1236703927574254   T   T   T
  0.4772933139673938  0.5506931539744713  0.1145969078312277   T   T   T
  0.9493076047676112  0.0227065468419099  0.1146059397977552   T   T   T
  0.9620281089046188  0.5379711669462282  0.1204915010821708   T   T   T
  0.4638119806687584  0.0361864060605228  0.3759900017962821   T   T   T
  0.4772736504956185  0.5506591523905868  0.3853888895982891   T   T   T
  0.9493393968124977  0.0227285933514310  0.3854054915116976   T   T   T
  0.9619911600332713  0.5380105162953370  0.3797770224219832   T   T   T
  0.3356178357466888  0.1644059185675886  0.4354142776067107   T   T   T
  0.3243211090962959  0.6773178098478922  0.4102740967660239   T   T   T
  0.8226774426981649  0.1756777426565961  0.4102745867097752   T   T   T
  0.8219250678251910  0.6780416114375925  0.4114482165271127   T   T   T
  0.3355164486331077  0.1644539824395821  0.0646705772626106   T   T   T
  0.3243167317430888  0.6773030214200162  0.0897219188670419   T   T   T
  0.8226979335219227  0.1756833236043605  0.0897221681883096   T   T   T
  0.8219800388046039  0.6780537091350638  0.0885729023784094   T   T   T
  0.1025673872552346  0.3974414442744774  0.2500073420559303   T   T   T
  0.1095600233496015  0.8946338120016435  0.2500090657006950   T   T   T
  0.6053690414948036  0.3904432827158786  0.2500109975555915   T   T   T
  0.6147650355530132  0.8852345135299018  0.2499959669376608   T   T   T
  0.0364526020547018  0.4635505287899377  0.6208442863099677   T   T   T
  0.0374144610872307  0.9644292951778155  0.6210740199316689   T   T   T
  0.5355765298801316  0.4625853631114296  0.6210477151665899   T   T   T
  0.5401363625519338  0.9598625394727165  0.6186845127803977   T   T   T
  0.1780076968148663  0.3219813246415058  0.5907345323104209   T   T   T
  0.1762587427103384  0.8193923347169161  0.5912750247057019   T   T   T
  0.6806071655485511  0.3237387166217829  0.5912731260484989   T   T   T
  0.6801907244139969  0.8198193982044231  0.5933663833069645   T   T   T
  0.3856978190228730  0.1142990998196680  0.7501213651481820   T   T   T
  0.3868036972142193  0.6119573685593593  0.7499911921520521   T   T   T
  0.8880443604346056  0.1131959266157239  0.7499925653827617   T   T   T
  0.8850706915358941  0.6149310819835421  0.7499627096705410   T   T   T
  0.0364182133694726  0.4635785063842164  0.8792101217646362   T   T   T
  0.0373641373398073  0.9643813698156123  0.8789535685673613   T   T   T
  0.5356173652384015  0.4626370549750192  0.8789281464460004   T   T   T
  0.5401797192803315  0.9598223738846414  0.8812672272938045   T   T   T
  0.1780138200124455  0.3219960534153614  0.9092721404014199   T   T   T
  0.1765215289544031  0.8196594910371999  0.9087318166328942   T   T   T
  0.6803337014122377  0.3234756644598278  0.9087335069551159   T   T   T
  0.6801729694135972  0.8198197166037176  0.9066039626111504   T   T   T
 
  0.00000000E+00  0.00000000E+00  0.00000000E+00
  0.00000000E+00  0.00000000E+00  0.00000000E+00
  0.00000000E+00  0.00000000E+00  0.00000000E+00
  0.00000000E+00  0.00000000E+00  0.00000000E+00
  0.00000000E+00  0.00000000E+00  0.00000000E+00
  0.00000000E+00  0.00000000E+00  0.00000000E+00
  0.00000000E+00  0.00000000E+00  0.00000000E+00
  0.00000000E+00  0.00000000E+00  0.00000000E+00
  0.00000000E+00  0.00000000E+00  0.00000000E+00
  0.00000000E+00  0.00000000E+00  0.00000000E+00
  0.00000000E+00  0.00000000E+00  0.00000000E+00
  0.00000000E+00  0.00000000E+00  0.00000000E+00
  0.00000000E+00  0.00000000E+00  0.00000000E+00
  0.00000000E+00  0.00000000E+00  0.00000000E+00
  0.00000000E+00  0.00000000E+00  0.00000000E+00
  0.00000000E+00  0.00000000E+00  0.00000000E+00
  0.00000000E+00  0.00000000E+00  0.00000000E+00
  0.00000000E+00  0.00000000E+00  0.00000000E+00
  0.00000000E+00  0.00000000E+00  0.00000000E+00
  0.00000000E+00  0.00000000E+00  0.00000000E+00
  0.00000000E+00  0.00000000E+00  0.00000000E+00
  0.00000000E+00  0.00000000E+00  0.00000000E+00
  0.00000000E+00  0.00000000E+00  0.00000000E+00
  0.00000000E+00  0.00000000E+00  0.00000000E+00
  0.00000000E+00  0.00000000E+00  0.00000000E+00
  0.00000000E+00  0.00000000E+00  0.00000000E+00
  0.00000000E+00  0.00000000E+00  0.00000000E+00
  0.00000000E+00  0.00000000E+00  0.00000000E+00
  0.00000000E+00  0.00000000E+00  0.00000000E+00
  0.00000000E+00  0.00000000E+00  0.00000000E+00
  0.00000000E+00  0.00000000E+00  0.00000000E+00
  0.00000000E+00  0.00000000E+00  0.00000000E+00
  0.00000000E+00  0.00000000E+00  0.00000000E+00
  0.00000000E+00  0.00000000E+00  0.00000000E+00
  0.00000000E+00  0.00000000E+00  0.00000000E+00
  0.00000000E+00  0.00000000E+00  0.00000000E+00
  0.00000000E+00  0.00000000E+00  0.00000000E+00
  0.00000000E+00  0.00000000E+00  0.00000000E+00
  0.00000000E+00  0.00000000E+00  0.00000000E+00
  0.00000000E+00  0.00000000E+00  0.00000000E+00
  0.00000000E+00  0.00000000E+00  0.00000000E+00
  0.00000000E+00  0.00000000E+00  0.00000000E+00
  0.00000000E+00  0.00000000E+00  0.00000000E+00
  0.00000000E+00  0.00000000E+00  0.00000000E+00
  0.00000000E+00  0.00000000E+00  0.00000000E+00
  0.00000000E+00  0.00000000E+00  0.00000000E+00
  0.00000000E+00  0.00000000E+00  0.00000000E+00
  0.00000000E+00  0.00000000E+00  0.00000000E+00
  0.00000000E+00  0.00000000E+00  0.00000000E+00
  0.00000000E+00  0.00000000E+00  0.00000000E+00
  0.00000000E+00  0.00000000E+00  0.00000000E+00
  0.00000000E+00  0.00000000E+00  0.00000000E+00
  0.00000000E+00  0.00000000E+00  0.00000000E+00
  0.00000000E+00  0.00000000E+00  0.00000000E+00
  0.00000000E+00  0.00000000E+00  0.00000000E+00
  0.00000000E+00  0.00000000E+00  0.00000000E+00
  0.00000000E+00  0.00000000E+00  0.00000000E+00
  0.00000000E+00  0.00000000E+00  0.00000000E+00
  0.00000000E+00  0.00000000E+00  0.00000000E+00
  0.00000000E+00  0.00000000E+00  0.00000000E+00
  0.00000000E+00  0.00000000E+00  0.00000000E+00
  0.00000000E+00  0.00000000E+00  0.00000000E+00
  0.00000000E+00  0.00000000E+00  0.00000000E+00
  0.00000000E+00  0.00000000E+00  0.00000000E+00
  0.00000000E+00  0.00000000E+00  0.00000000E+00
  0.00000000E+00  0.00000000E+00  0.00000000E+00
  0.00000000E+00  0.00000000E+00  0.00000000E+00
  0.00000000E+00  0.00000000E+00  0.00000000E+00
  0.00000000E+00  0.00000000E+00  0.00000000E+00
  0.00000000E+00  0.00000000E+00  0.00000000E+00
  0.00000000E+00  0.00000000E+00  0.00000000E+00
