Ca Mn V  P  O 
1.0
       10.0595607758         0.0000000000         0.0000000000
        0.0015657664         8.5208014003         0.0000000000
        2.1762108293         0.0262605184        20.8143382361
   Ca   Mn    V    P    O
   11    6    6   24   84
Direct
     0.326978952         0.594031453         0.420299649
     0.495669305         0.590727329         0.754122913
     0.995669305         0.590727329         0.754122913
     0.338225424         0.094155677         0.911454618
     0.838225424         0.094155677         0.911454618
     0.173412383         0.097574160         0.578188539
     0.673412383         0.097574160         0.578188539
     0.161761791         0.595862150         0.088841639
     0.661761761         0.595862150         0.088841639
     0.006382755         0.091882072         0.246501580
     0.506382763         0.091882072         0.246501580
     0.487065852         0.008634267         0.752315879
     0.987065852         0.008634267         0.752315879
     0.320606470         0.012307882         0.420000702
     0.820606470         0.012307882         0.420000702
     0.011834493         0.511563778         0.246735409
     0.511834502         0.511563778         0.246735409
     0.345765442         0.505780458         0.911357820
     0.845765471         0.505780458         0.911357820
     0.179079220         0.508703351         0.576805830
     0.679079235         0.508703351         0.576805830
     0.153307110         0.006750327         0.088696450
     0.653307080         0.006750327         0.088696450
     0.422667682         0.727601647         0.631219685
     0.922667682         0.727601647         0.631219685
     0.444059908         0.310729444         0.501255333
     0.944059908         0.310729444         0.501255333
     0.389353096         0.810039878         0.165165350
     0.889353096         0.810039878         0.165165350
     0.408882678         0.229227468         0.034873340
     0.908882678         0.229227468         0.034873340
     0.224472120         0.804562211         0.833217561
     0.724472106         0.804562211         0.833217561
     0.243560284         0.237051725         0.702072382
     0.743560314         0.237051725         0.702072382
     0.254186869         0.736452579         0.297268897
     0.754186869         0.736452579         0.297268897
     0.275324047         0.304774910         0.166702315
     0.775324047         0.304774910         0.166702315
     0.090655811         0.729082346         0.965122581
     0.590655804         0.729082346         0.965122581
     0.109795496         0.307510495         0.834891498
     0.609795511         0.307510495         0.834891498
     0.057017252         0.807297468         0.500021219
     0.557017267         0.807297468         0.500021219
     0.078747191         0.236315846         0.369200587
     0.578747213         0.236315846         0.369200587
     0.452178538         0.701863647         0.945368946
     0.952178538         0.701863647         0.945368946
     0.505356491         0.839177072         0.576441109
     0.005356491         0.839177072         0.576441109
     0.405944526         0.323939562         0.972993255
     0.905944526         0.323939562         0.972993255
     0.426375985         0.818940341         0.693916082
     0.926375985         0.818940341         0.693916082
     0.503228605         0.080460742         0.361859918
     0.003228605         0.080460742         0.361859918
     0.381612986         0.217332706         0.723531067
     0.881613016         0.217332706         0.723531067
     0.437060118         0.804416299         0.461070985
     0.937060118         0.804416299         0.461070985
     0.481337041         0.951914668         0.152786642
     0.981337070         0.951914668         0.152786642
     0.461400121         0.651854515         0.157724902
     0.961400151         0.651854515         0.157724902
     0.315998256         0.946897268         0.821007609
     0.815998256         0.946897268         0.821007609
     0.371763498         0.152743965         0.509185553
     0.871763468         0.152743965         0.509185553
     0.300605029         0.647778571         0.828879833
     0.800605059         0.647778571         0.828879833
     0.352022409         0.452531248         0.513451755
     0.852022409         0.452531248         0.513451755
     0.395236909         0.301523298         0.205555692
     0.895236909         0.301523298         0.205555692
     0.329781920         0.580673635         0.304909468
     0.829781890         0.580673635         0.304909468
     0.234105080         0.310162365         0.871296644
     0.734105110         0.310162365         0.871296644
     0.283772469         0.703350306         0.611398578
     0.783772469         0.703350306         0.611398578
     0.343631446         0.842867017         0.241958186
     0.843631446         0.842867017         0.241958186
     0.173157126         0.578471959         0.973686278
     0.673157096         0.578471959         0.973686278
     0.237884745         0.332577825         0.640613914
     0.737884760         0.332577825         0.640613914
     0.326704353         0.338505477         0.090218686
     0.826704383         0.338505477         0.090218686
     0.173337489         0.838327348         0.909592032
     0.673337460         0.838327348         0.909592032
     0.260751724         0.828050077         0.359639108
     0.760751724         0.828050077         0.359639108
     0.326485306         0.078516200         0.026609283
     0.826485276         0.078516200         0.026609283
     0.155009225         0.341315687         0.757995486
     0.655009210         0.341315687         0.757995486
     0.216923118         0.221014485         0.390972048
     0.716923118         0.221014485         0.390972048
     0.265085906         0.812703192         0.128580287
     0.765085936         0.812703192         0.128580287
     0.167060539         0.082501292         0.692908823
     0.667060554         0.082501292         0.692908823
     0.104421198         0.802209735         0.794393659
     0.604421198         0.802209735         0.794393659
     0.148446560         0.949908614         0.488377839
     0.648446560         0.949908614         0.488377839
     0.198650926         0.148283616         0.171106949
     0.698650956         0.148283616         0.171106949
     0.133821055         0.650791705         0.494885266
     0.633821070         0.650791705         0.494885266
     0.183939442         0.447161198         0.178636402
     0.683939457         0.447161198         0.178636402
     0.037538253         0.149298623         0.841789782
     0.537538230         0.149298623         0.841789782
     0.017975077         0.449370861         0.847375035
     0.517975092         0.449370861         0.847375035
     0.068540856         0.313269943         0.537636518
     0.568540871         0.313269943         0.537636518
     0.116116703         0.720758796         0.275278330
     0.616116703         0.720758796         0.275278330
     0.005058103         0.576056957         0.638164401
     0.505058110         0.576056957         0.638164401
     0.072079204         0.327136457         0.306559682
     0.572079182         0.327136457         0.306559682
     0.093554839         0.824729145         0.026695883
     0.593554854         0.824729145         0.026695883
     0.989457309         0.342996150         0.424329787
     0.489457309         0.342996150         0.424329787
     0.047775831         0.202262580         0.054286566
     0.547775805         0.202262580         0.054286566
