Ca V  Fe P  O 
 1.0000000000000000
    14.8499546051000006    0.0000000000000000    0.0000000000000000
    -0.0125117168000000    8.2040796242000003    0.0000000000000000
     3.6964733550000002   -0.0852234029000000    9.1101353430999996
 Ca  V   Fe  P   O  
   3   4   4  16  56
Selective dynamics
Cartesian
 11.1712945495908986  7.3272543577709230  5.6687808398365664   T   T   T
  4.5214872512075459  7.5784268040078917  2.3873596905349084   T   T   T
 17.4567827503552131  7.5653093059140257  7.1293773159538212   T   T   T
  9.9802197884743418  4.0377550426977198  6.9762827175324258   T   T   T
 17.4561145195748679  4.0430471029145538  6.9382572579685933   T   T   T
  4.4206496597767311  4.0671538668782246  2.4180114845989498   T   T   T
 11.9152782975906923  4.1562347805044926  2.3013528742072724   T   T   T
  1.0356419262338663  0.0896816885407827  2.2200331017014583   T   T   T
  8.5205186402317015  0.0972367483003120  2.2525801065120716   T   T   T
  6.7022136596425730  0.0179038282476151  6.8150417282336715   T   T   T
 14.0722411217729100  0.0880266122806572  6.8459159833587533   T   T   T
  3.4631143381061933  1.6819499143242438  0.5199364140501501   T   T   T
 10.9597998031368178  1.5690335387501526  0.5927872087283016   T   T   T
  8.9896935873208061  1.6149036737076587  5.0983103686925260   T   T   T
 16.4750273450564642  1.6082948736864111  5.0791809174704188   T   T   T
  4.7881267134378200  6.2241107139797887  8.6168807653431845   T   T   T
 12.1528078235044603  6.2673511181272747  8.5998379992170548   T   T   T
  6.6173634280548885  6.2732511324680127  4.0699097592374374   T   T   T
 14.0102242877516918  6.3417879971737605  3.9939799208552116   T   T   T
  6.3631851626092093  2.2391645054406308  0.6301440638960606   T   T   T
 13.7980867805340939  2.1929691023377034  0.5652656746439856   T   T   T
  4.5163234255865889  2.1310157251323965  5.1590377829057763   T   T   T
 11.9372515565434050  2.2752673963577434  5.1270881716741208   T   T   T
  7.5982524604584629  5.6506883525556715  8.6470469173681401   T   T   T
 15.0399205597110868  5.5972754881361508  8.6215468027696769   T   T   T
  2.0704801923681155  5.7086506006623932  4.1173719641193953   T   T   T
  9.4167575544845050  5.5855114590860984  4.0117315387731827   T   T   T
  4.6198918144060626  2.4311769943526866  3.6623619917856565   T   T   T
 12.1777549456684930  2.7433015830234853  3.7068925726373978   T   T   T
 10.2069678801430666  2.5581965141401053  8.2704938849825584   T   T   T
 17.6471370028604326  2.4565803962460468  8.1919336748111196   T   T   T
  5.3635591287622892  5.5433401867593091  3.5640737577012604   T   T   T
 12.8742714499861108  5.4483877103353242  3.4993218195643720   T   T   T
  3.5352423255626535  5.4773483055106373  8.1263708975294140   T   T   T
 11.0170393167009415  5.4502369200041931  7.9904614488503238   T   T   T
  2.8342857749195334  0.5990608558970233  1.4267325692376820   T   T   T
 10.2613063186972422  0.5476000398639956  1.4665672810307371   T   T   T
  8.4910847631797619  0.4930967398300893  6.0088034188244634   T   T   T
 15.8106622861158712  0.5199810989895912  5.9751807696985990   T   T   T
  3.3238397069436432  3.0841051229042278  1.0837824316612721   T   T   T
 10.8847723852485299  3.0029678573936889  1.1535495500886033   T   T   T
  8.8884927181565683  3.0146811256228099  5.7028066342101003   T   T   T
 16.3416771679266972  3.0063538795020710  5.6374657505048233   T   T   T
  4.2248745284619469  5.7025538235788655  1.0527353895574927   T   T   T
 11.7076071627154956  5.6183579326007660  1.0036096196690596   T   T   T
  9.8190711236272534  5.5027679749063347  5.5224744537872619   T   T   T
  2.4277632843143566  5.7397594020763041  5.6283910087695839   T   T   T
  6.0588757284150248  3.4496264662703089  1.5264106480498298   T   T   T
 13.5006250969150816  3.4176955146551666  1.4529518171580509   T   T   T
  4.2332815302878535  3.3701337268450167  6.0166123147126980   T   T   T
 11.6215928013041925  3.4150033804955680  6.1053656313803932   T   T   T
  5.0500068278502628  1.2411800503195232  0.7212910572221491   T   T   T
 12.5365072756165521  1.1665899599458402  0.6386020233945945   T   T   T
  3.1935115926219506  1.1298781303819856  5.3093689608024288   T   T   T
 10.6179921249554354  1.2898452684094970  5.0971621763948196   T   T   T
  6.0386153540688943  5.2300207442886784  8.4457185929490013   T   T   T
 13.4602475811004947  5.3187960775372662  8.4804953837545458   T   T   T
  7.8524868170221671  5.2430850026498890  3.8699717025812981   T   T   T
 15.3355839013847035  5.4118770110540568  4.0336716631576151   T   T   T
  4.9468718430887009  7.4475557760128694  7.6693514525525854   T   T   T
 12.3837717169909016  7.4859704469283237  7.6522853345474227   T   T   T
  6.8052396435733575  7.4914188961080459  3.1233695522329783   T   T   T
 14.2994217251506619  7.5337554620975489  3.0942298165363198   T   T   T
  6.7867905024305335  1.4898086792123457  8.1724849444654275   T   T   T
 14.2315012427389025  1.4498402883505570  8.2359440688562859   T   T   T
  8.5462463559609958  1.5334608498282072  3.6554928503427622   T   T   T
 16.1102753070942200  1.4916105506360049  3.6232856106365561   T   T   T
  7.7478619483454141  7.0683570187181228  8.1235953348826744   T   T   T
 15.2879437380659926  7.0070091183113012  8.0178234597854523   T   T   T
  2.3507373455988350  7.0841680249704213  3.4734850772111252   T   T   T
  9.6199729023380591  7.0599665310656636  3.6239912545696189   T   T   T
  8.3673538400049612  4.5904854546252700  7.8702137354431194   T   T   T
 15.7404408559642590  4.5266113626555251  7.8093275197225154   T   T   T
  2.7545688511764923  4.5769025120253684  3.3753182547061997   T   T   T
 10.1687269648518956  4.5782359659253835  3.1748121889125396   T   T   T
  5.6359250699769827  1.2296400373320480  5.6353372734671199   T   T   T
 12.9628157160640782  1.2608036648533387  5.6289434330764072   T   T   T
  7.4792230580280172  1.3432614821971083  1.1067984957047960   T   T   T
 14.9642787967345168  1.3453104201815476  1.0255690659550778   T   T   T
  6.5332311654263835  6.6611760039401640  5.5268481482670637   T   T   T
 13.6464093240308468  6.7945084445469783  5.4277427272231318   T   T   T
  0.9790930621252618  6.7156397249405195  0.9601926916139082   T   T   T
  8.2497575032109651  6.7613265353705918  0.9276668163644689   T   T   T
