Ca V  C  S  O 
1.0
        9.3183593750         0.0000000000         0.0000000000
       -0.0015747658        13.3630398776         0.0000000000
        0.4791341905         0.0000693493        10.7415852208
   Ca    V    C    S    O
    7    8    8    8   56
Direct
     0.783091545         0.493430972         0.378015250
     0.216977999         0.243446797         0.122027799
     0.216977999         0.243446797         0.622027814
     0.216977999         0.743446827         0.122027799
     0.216977999         0.743446827         0.622027814
     0.783091545         0.993430972         0.378015250
     0.783091545         0.993430972         0.878015280
     0.359648019         0.380865633         0.397604287
     0.359648019         0.380865633         0.897604287
     0.359648019         0.880865633         0.397604287
     0.359648019         0.880865633         0.897604287
     0.640338123         0.130911693         0.102483399
     0.640338123         0.130911693         0.602483392
     0.640338123         0.630911708         0.102483399
     0.640338123         0.630911708         0.602483392
     0.091055274         0.368082345         0.375340581
     0.091055274         0.368082345         0.875340581
     0.091055274         0.868082345         0.375340581
     0.091055274         0.868082345         0.875340581
     0.908911824         0.118183129         0.124668248
     0.908911824         0.118183129         0.624668241
     0.908911824         0.618183136         0.124668248
     0.908911824         0.618183136         0.624668241
     0.423664570         0.128451481         0.360117912
     0.423664570         0.128451481         0.860117912
     0.423664570         0.628451467         0.360117912
     0.423664570         0.628451467         0.860117912
     0.576312602         0.378452659         0.139884427
     0.576312602         0.378452659         0.639884412
     0.576312602         0.878452659         0.139884427
     0.576312602         0.878452659         0.639884412
     0.040891010         0.133504301         0.137323588
     0.040891010         0.133504301         0.637323618
     0.040891010         0.633504272         0.137323588
     0.040891010         0.633504272         0.637323618
     0.149845362         0.366110057         0.483825237
     0.149845362         0.366110057         0.983825207
     0.149845362         0.866110086         0.483825237
     0.149845362         0.866110086         0.983825207
     0.183048517         0.355742693         0.279615819
     0.183048517         0.355742693         0.779615819
     0.183048517         0.855742693         0.279615819
     0.183048517         0.855742693         0.779615819
     0.332673311         0.040995009         0.390278548
     0.332673311         0.040995009         0.890278578
     0.332673311         0.540995002         0.390278548
     0.332673311         0.540995002         0.890278578
     0.355367631         0.217439577         0.423664659
     0.355367631         0.217439577         0.923664689
     0.355367631         0.717439592         0.423664659
     0.355367631         0.717439592         0.923664689
     0.428756893         0.366019785         0.093578398
     0.428756893         0.366019785         0.593578398
     0.428756893         0.866019785         0.093578398
     0.428756893         0.866019785         0.593578398
     0.433831960         0.148109004         0.222042829
     0.433831960         0.148109004         0.722042799
     0.433831960         0.648109019         0.222042829
     0.433831960         0.648109019         0.722042799
     0.566126108         0.398109108         0.277979910
     0.566126108         0.398109108         0.777979910
     0.566126108         0.898109078         0.277979910
     0.566126108         0.898109078         0.777979910
     0.571234941         0.116106555         0.406392097
     0.571234941         0.116106555         0.906392097
     0.571234941         0.616106570         0.406392097
     0.571234941         0.616106570         0.906392097
     0.644567430         0.467417955         0.076328613
     0.644567430         0.467417955         0.576328635
     0.644567430         0.967417955         0.076328613
     0.644567430         0.967417955         0.576328635
     0.667360365         0.291065216         0.109691545
     0.667360365         0.291065216         0.609691560
     0.667360365         0.791065216         0.109691545
     0.667360365         0.791065216         0.609691560
     0.817036510         0.105849378         0.220420331
     0.817036510         0.105849378         0.720420361
     0.817036510         0.605849385         0.220420331
     0.817036510         0.605849385         0.720420361
     0.850110769         0.116055690         0.016152253
     0.850110769         0.116055690         0.516152263
     0.850110769         0.616055667         0.016152253
     0.850110769         0.616055667         0.516152263
     0.959148228         0.383503497         0.362563819
     0.959148228         0.383503497         0.862563848
     0.959148228         0.883503497         0.362563819
     0.959148228         0.883503497         0.862563848
