Ca4 V8 P8 O40
1.0
       10.3415279388         0.0000000000         0.0000000000
        0.0000000000         7.9584398270         0.0000000000
       -0.8277138180         0.0000000000        17.1898081625
    Ca   V    P    O
    7    16   16   80
Direct
     0.54636             0.27749             0.68361
     0.046361271         0.277493805         0.683613241
     0.953638732         0.777492821         0.816385746
     0.453638732         0.722507179         0.316386729
     0.953638732         0.722507179         0.316386729
     0.046361271         0.222506195         0.183613271
     0.546361268         0.222506195         0.183613271
     0.230019256         0.465797067         0.851978600
     0.730019271         0.465797067         0.851978600
     0.269980252         0.965797067         0.648020387
     0.769980252         0.965797067         0.648020387
     0.078607768         0.874931931         0.068575539
     0.578607798         0.874931931         0.068575539
     0.230020255         0.034201931         0.351979613
     0.730020285         0.034201931         0.351979613
     0.078607269         0.625067055         0.568574548
     0.578607261         0.625067055         0.568574548
     0.421392739         0.125068069         0.931424439
     0.921392739         0.125068069         0.931424439
     0.421392739         0.374931931         0.431424469
     0.921392739         0.374931931         0.431424469
     0.269980252         0.534201920         0.148020387
     0.769980252         0.534201920         0.148020387
     0.168263867         0.063025840         0.815378666
     0.668263853         0.063025840         0.815378666
     0.331736147         0.563025832         0.684621334
     0.831736147         0.563025832         0.684621334
     0.331735641         0.936975181         0.184621304
     0.831735611         0.936975181         0.184621304
     0.168263867         0.436975151         0.315378696
     0.668263853         0.436975151         0.315378696
     0.179854065         0.232423156         0.515718758
     0.679854035         0.232423156         0.515718758
     0.320145935         0.732423186         0.984281242
     0.820145965         0.732423186         0.984281242
     0.320145428         0.767576814         0.484282225
     0.820145428         0.767576814         0.484282225
     0.179855064         0.267576844         0.015717760
     0.679855049         0.267576844         0.015717760
     0.163041428         0.392865241         0.949741781
     0.663041413         0.392865241         0.949741781
     0.336958587         0.892865241         0.550258219
     0.836958587         0.892865241         0.550258219
     0.336959571         0.607134759         0.050258219
     0.836959600         0.607134759         0.050258219
     0.163040921         0.107134767         0.449741781
     0.663040936         0.107134767         0.449741781
     0.336660832         0.643729687         0.904986143
     0.836660862         0.643729687         0.904986143
     0.163339153         0.143729672         0.595013857
     0.663339138         0.143729672         0.595013857
     0.163338661         0.356270343         0.095013857
     0.663338661         0.356270343         0.095013857
     0.336660832         0.856270313         0.404986143
     0.836660862         0.856270313         0.404986143
     0.349600583         0.479102522         0.764124572
     0.849600554         0.479102522         0.764124572
     0.150399432         0.979102492         0.735875428
     0.650399446         0.979102492         0.735875428
     0.150398925         0.520898461         0.235876411
     0.650398910         0.520898461         0.235876411
     0.349600583         0.020897491         0.264124602
     0.849600554         0.020897491         0.264124602
     0.162716463         0.254505128         0.800312102
     0.662716448         0.254505128         0.800312102
     0.337283522         0.754505157         0.699687898
     0.837283492         0.754505157         0.699687898
     0.205992162         0.507649779         0.642127037
     0.705992162         0.507649779         0.642127037
     0.162715971         0.245494857         0.300311089
     0.662715971         0.245494857         0.300311089
     0.116309911         0.592990458         0.816674352
     0.616309881         0.592990458         0.816674352
     0.383690089         0.092990480         0.683324635
     0.883690119         0.092990480         0.683324635
     0.383690089         0.407010525         0.183324620
     0.883690119         0.407010525         0.183324620
     0.116309911         0.907010496         0.316675395
     0.616309881         0.907010496         0.316675395
     0.103026107         0.693567574         0.110417470
     0.603026092         0.693567574         0.110417470
     0.396973401         0.193567589         0.389582545
     0.896973372         0.193567589         0.389582545
     0.396973401         0.306432396         0.889583528
     0.896973372         0.306432396         0.889583528
     0.103026606         0.806432426         0.610417485
     0.603026628         0.806432426         0.610417485
     0.431799918         0.863629878         0.988572478
     0.931799889         0.863629878         0.988572478
     0.068199597         0.363629878         0.511427522
     0.568199575         0.363629878         0.511427522
     0.068199597         0.136369109         0.011427540
     0.568199575         0.136369109         0.011427540
     0.431799918         0.636369109         0.488572448
     0.931799889         0.636369109         0.488572448
     0.451306671         0.987606883         0.139664754
     0.951306701         0.987606883         0.139664754
     0.048693813         0.487606853         0.360335261
     0.548693836         0.487606853         0.360335261
     0.048693314         0.012392140         0.860335231
     0.548693299         0.012392140         0.860335231
     0.451306671         0.512392163         0.639663756
     0.951306701         0.512392163         0.639663756
     0.191137895         0.822647870         0.984411657
     0.691137910         0.822647870         0.984411657
     0.308862597         0.322646856         0.515588343
     0.808862567         0.322646856         0.515588343
     0.308862597         0.177353144         0.015588320
     0.808862567         0.177353144         0.015588320
     0.191137895         0.677353144         0.484412670
     0.691137910         0.677353144         0.484412670
     0.205991656         0.992349267         0.142127037
     0.705991626         0.992349267         0.142127037
     0.294007838         0.492349237         0.357872963
     0.794007838         0.492349237         0.357872963
     0.294007838         0.007650750         0.857872963
     0.794007838         0.007650750         0.857872963
     0.337284535         0.745494843         0.199688926
     0.837284565         0.745494843         0.199688926
