Ca V  Fe P  O 
1.0
        9.9783544540         0.0000000000         0.0000000000
       -0.0331118352         8.3472424851         0.0000000000
       -4.1261593044         0.2250098166        13.5439389870
   Ca    V   Fe    P    O
    3    4    4   16   56
Direct
     0.332711101         0.875810027         0.420892060
     0.332711101         0.875810027         0.920892060
     0.832711101         0.875810027         0.920892060
     0.104763821         0.488665283         0.365583628
     0.104763821         0.488665283         0.865583658
     0.604763806         0.488665283         0.365583628
     0.604763806         0.488665283         0.865583658
     0.396941811         0.006388511         0.148819759
     0.396941811         0.006388511         0.648819745
     0.896941781         0.006388511         0.148819759
     0.896941781         0.006388511         0.648819745
     0.189266860         0.186373487         0.252406418
     0.189266860         0.186373487         0.752406418
     0.689266860         0.186373487         0.252406418
     0.689266860         0.186373487         0.752406418
     0.121213339         0.764306784         0.054533344
     0.121213339         0.764306784         0.554533362
     0.621213317         0.764306784         0.054533344
     0.621213317         0.764306784         0.554533362
     0.381462634         0.267869443         0.452411085
     0.381462634         0.267869443         0.952411056
     0.881462634         0.267869443         0.452411085
     0.881462634         0.267869443         0.952411056
     0.309339345         0.671275079         0.246398583
     0.309339345         0.671275079         0.746398568
     0.809339345         0.671275079         0.246398583
     0.809339345         0.671275079         0.746398568
     0.009629544         0.320218533         0.422955006
     0.009629544         0.320218533         0.922955036
     0.509629548         0.320218533         0.422955006
     0.509629548         0.320218533         0.922955036
     0.069381490         0.674696684         0.457506567
     0.069381490         0.674696684         0.957506537
     0.569381475         0.674696684         0.457506567
     0.569381475         0.674696684         0.957506537
     0.078403756         0.054248437         0.243233457
     0.078403756         0.054248437         0.743233442
     0.578403771         0.054248437         0.243233457
     0.578403771         0.054248437         0.743233442
     0.138118133         0.355361164         0.255249828
     0.138118133         0.355361164         0.755249858
     0.638118148         0.355361164         0.255249828
     0.638118148         0.355361164         0.755249858
     0.225150436         0.662080705         0.322680354
     0.225150436         0.662080705         0.822680354
     0.725150466         0.662080705         0.322680354
     0.725150466         0.662080705         0.822680354
     0.284981370         0.403801829         0.460413665
     0.284981370         0.403801829         0.960413694
     0.784981370         0.403801829         0.460413665
     0.784981370         0.403801829         0.960413694
     0.294323236         0.144690037         0.363780946
     0.294323236         0.144690037         0.863780975
     0.794323206         0.144690037         0.363780946
     0.794323206         0.144690037         0.863780975
     0.204261750         0.639188468         0.138559729
     0.204261750         0.639188468         0.638559699
     0.704261780         0.639188468         0.138559729
     0.704261780         0.639188468         0.638559699
     0.225176126         0.896776617         0.045120832
     0.225176126         0.896776617         0.545120835
     0.725176096         0.896776617         0.045120832
     0.725176096         0.896776617         0.545120835
     0.276567549         0.165700629         0.181413338
     0.276567549         0.165700629         0.681413352
     0.776567578         0.165700629         0.181413338
     0.776567578         0.165700629         0.681413352
     0.359795630         0.847608864         0.251132607
     0.359795630         0.847608864         0.751132607
     0.859795630         0.847608864         0.251132607
     0.859795630         0.847608864         0.751132607
     0.425621092         0.550345719         0.262127072
     0.425621092         0.550345719         0.762127042
     0.925621092         0.550345719         0.262127072
     0.925621092         0.550345719         0.762127042
     0.419356793         0.144326538         0.036964353
     0.419356793         0.144326538         0.536964357
     0.919356823         0.144326538         0.036964353
     0.919356823         0.144326538         0.536964357
     0.493838698         0.830170095         0.080705881
     0.493838698         0.830170095         0.580705881
     0.993838668         0.830170095         0.080705881
     0.993838668         0.830170095         0.580705881
