Ca V  Fe P  O 
1.0
        7.3182806969         0.0000000000         0.0000000000
        0.0019419382         8.4396455438         0.0000000000
       -2.4365691201        -0.0071846942        14.2517082694
   Ca    V   Fe    P    O
    5    3    3   12   42
Direct
     0.661485076         0.405230045         0.923331797
     0.337020069         0.909024894         0.074975364
     0.990824938         0.410172045         0.253271222
     0.674461663         0.911240757         0.412066847
     0.007195801         0.906960189         0.744898200
     0.991105795         0.994136989         0.259847909
     0.674251497         0.494319469         0.406368703
     0.010759776         0.491122901         0.740859330
     0.335282981         0.487034112         0.072955191
     0.333065957         0.988099337         0.594099879
     0.662996113         0.986158609         0.925951421
     0.632412434         0.191430137         0.128161713
     0.962209463         0.766785502         0.072061568
     0.368168503         0.268696457         0.260778695
     0.700449049         0.694307029         0.205030054
     0.298027694         0.769607663         0.406345010
     0.033243388         0.693185329         0.538421392
     0.965616047         0.195704430         0.461422324
     0.703695655         0.269864112         0.594649315
     0.298899263         0.189680964         0.794653714
     0.630170882         0.763376534         0.738868058
     0.038328864         0.263790697         0.928267479
     0.367808312         0.689118087         0.872035265
     0.189239815         0.281200260         0.013218584
     0.132878944         0.675240934         0.054058880
     0.034589168         0.922160566         0.122386932
     0.603427172         0.048642065         0.062711261
     0.601548493         0.351150721         0.077624254
     0.518485129         0.696257532         0.136188090
     0.291279167         0.421496958         0.209030911
     0.459952116         0.159245327         0.186153486
     0.873944283         0.657097220         0.148265198
     0.200967416         0.173477545         0.279516578
     0.150009498         0.794987857         0.321146756
     0.814913750         0.191085577         0.197913796
     0.738864720         0.852525115         0.257149935
     0.727903366         0.551105857         0.270483494
     0.515956700         0.293675840         0.346183151
     0.464892238         0.674199581         0.387235343
     0.206297681         0.660564959         0.481069058
     0.375573903         0.922011197         0.458359838
     0.148631603         0.197050497         0.529570520
     0.936821878         0.052618310         0.395830750
     0.927606702         0.353883237         0.409299254
     0.064110659         0.852210939         0.589681447
     0.062501378         0.549889147         0.603501022
     0.851141214         0.692416668         0.468515843
     0.629564226         0.423721641         0.543294191
     0.793489635         0.159544423         0.519270718
     0.534184694         0.177467510         0.613336504
     0.479555607         0.782368898         0.653910100
     0.270918578         0.047677625         0.728251815
     0.262518287         0.349364340         0.743923068
     0.186306924         0.689191997         0.801692665
     0.852331877         0.291925400         0.679978371
     0.799291849         0.669486582         0.721127093
     0.125359520         0.153564692         0.851619840
     0.541968465         0.655014038         0.815513730
     0.704156280         0.918852746         0.788273633
     0.481081247         0.190684676         0.863613904
     0.399091899         0.849117100         0.922306716
     0.395615250         0.546486437         0.937654912
     0.967376649         0.419899911         0.878568530
     0.866760850         0.173387289         0.945925832
     0.812242746         0.785862029         0.986900508
