V  P  O 
 1.0000000000000000
    10.2391030000000001    0.0000000000000000    0.0000000000000000
     0.0000000000000000    7.0945799999999997    0.0000000000000000
     0.0000000000000000    2.9927039999999998    7.5238379999999996
 V   P   O  
   4   8  28
Cartesian
  6.2337285769464952  7.4011381893318084  5.5845031648765611
  9.1249259230535138  5.9047861893317881  1.8225841648765373
  1.1141770769465007  4.1824978106682096  5.7012538351234658
  4.0053744230534862  2.6861458106681870  1.9393348351234383
  8.7958487037712256  9.2232132281181283  5.9970717816935366
  6.5628057962281181  7.7268612281184597  2.2351527816938503
  9.2673306625194627  6.5491722490329716  5.1375621392502193
  6.0913238374797753  5.0528202490327194  1.3756431392498651
  4.1477791625198837  5.0344637509672081  6.1481948607503130
  0.9717723374808764  3.5381117509669613  2.3862758607498908
  3.6762972037716626  2.3604227718817756  5.2886852183059965
  1.4432542962289983  0.8640707718820779  1.5267662183063659
  7.3344664486962250  2.0424754225263317  5.5774860750872479
  8.9811208184101332  8.8521919015928177  7.4898430927027766
  4.3748524656958878  8.1451638614270951  5.5656484956853607
  9.6188131162357191  8.1209050047018412  5.1388192922485256
  8.0241880513041615  0.5461234225262485  1.8155670750871253
  6.3775336815899255  7.3558399015928391  3.7279240927024455
  6.1491157881857221  4.6103868696168222 -0.0974905048667035
  0.7446990343038909  6.6488118614268190  1.8037294956853964
  5.7398413837643298  6.6245530047018439  1.3769002922485321
  7.9199895369380773  6.3670803042344488  5.8178465080693540
  9.2095387118142877  6.1067388696167351  3.6644284951329604
  0.2126162462669208  5.9004644336580547  5.8162655914003860
  5.3321677462667987  5.6831715663418638  5.4694914085996400
  7.4386649630623776  4.8707283042344587  2.0559275080695567
  2.8004380369377588  5.2165556957655426  5.4679104919304873
  4.9069352537333835  4.4041124336582449  2.0543465914002610
 10.0264867537329110  4.1868195663420407  1.7075724085995334
  1.0295642881856892  3.9805451303832400  3.8594095048669121
  2.3191134630617531  3.7202036957655480  1.7059914919306958
  4.4992616162356907  3.4627309952981356  6.1469377077514622
  9.4944039656959855  3.4384721385730193  5.7201085043146325
  4.0899872118142930  5.4768971303831249  7.6213285048665176
  3.8615693184100666  2.7314440984071200  3.7959139072977166
  2.2149149486959443  9.5411605774737218  5.7082709249128447
  0.6202898837642475  1.9663789952981394  2.3850187077514762
  5.8642505343042410  1.9421201385727176  1.9581895043146798
  1.2579821815898624  1.2350920984071527  0.0339949072973327
  2.9046365513036396  8.0448085774736207  1.9463519249127226
