V4 P8 O28
1.0
  10.2391030000000001    0.0000000000000000    0.0000000000000000
   0.0000000000000000    7.0945799999999997    0.0000000000000000
   0.0000000000000000    2.9927039999999998    7.5238379999999996
V P O
4 8 28
direct
   0.6064039999999991    0.7306809999999990    0.7433000000000001 V
   0.8935959999999999    0.7306809999999990    0.2433000000000000 V
   0.1064040000000000    0.2693190000000000    0.7567000000000000 V
   0.3935960000000000    0.2693190000000000    0.2567000000000000 V
   0.8510139999999990    0.9714269999999990    0.7938870000000000 P
   0.6489860000000000    0.9714269999999990    0.2938870000000000 P
   0.9057679999999990    0.6383270000000000    0.6861929999999991 P
   0.5942320000000000    0.6383270000000000    0.1861930000000000 P
   0.4057679999999990    0.3616729999999990    0.8138069999999999 P
   0.0942320000000000    0.3616729999999990    0.3138070000000000 P
   0.3510140000000000    0.0285729999999990    0.7061130000000000 P
   0.1489859999999990    0.0285729999999990    0.2061130000000000 P
   0.7074349999999990    0.0014169999999990    0.7355640000000000 O
   0.8722400000000000    0.8196249999999990    0.9833480000000000 O
   0.4216850000000000    0.8287390000000000    0.7398910000000000 O
   0.9237170000000000    0.8721470000000000    0.6656679999999990 O
   0.7925650000000000    0.0014169999999990    0.2355640000000000 O
   0.6277600000000001    0.8196249999999990    0.4833480000000000 O
   0.6016589999999991    0.6275900000000001    0.0046440000000000 O
   0.0783150000000000    0.8287390000000000    0.2398910000000000 O
   0.5762830000000000    0.8721470000000000    0.1656679999999990 O
   0.7792789999999991    0.5591929999999991    0.7940750000000000 O
   0.8983409999999999    0.6275900000000001    0.5046440000000000 O
   0.0252590000000000    0.5264610000000000    0.7936600000000000 O
   0.5252590000000000    0.4735390000000000    0.7063400000000001 O
   0.7207209999999999    0.5591929999999991    0.2940750000000000 O
   0.2792790000000000    0.4408070000000000    0.7059249999999990 O
   0.4747409999999990    0.5264610000000000    0.2936600000000000 O
   0.9747410000000000    0.4735390000000000    0.2063400000000000 O
   0.1016590000000000    0.3724100000000000    0.4953559999999990 O
   0.2207210000000000    0.4408070000000000    0.2059250000000000 O
   0.4237169999999990    0.1278530000000000    0.8343320000000000 O
   0.9216850000000000    0.1712610000000000    0.7601089999999990 O
   0.3983410000000000    0.3724100000000000    0.9953559999999991 O
   0.3722400000000000    0.1803749999999990    0.5166520000000000 O
   0.2074349999999990    0.9985830000000000    0.7644360000000000 O
   0.0762829999999990    0.1278530000000000    0.3343319999999990 O
   0.5783150000000000    0.1712610000000000    0.2601090000000000 O
   0.1277600000000000    0.1803749999999990    0.0166520000000000 O
   0.2925649999999990    0.9985830000000000    0.2644360000000000 O
