Ca V  O 
 1.0000000000000000
     2.9560439999999999    0.0018280000000000    0.6074689999999990
     1.5104670000000000    6.3427819999999997    0.1510290000000000
    -0.0162760000000000   -0.1804500000000000    7.6241880000000002
 Ca  V   O  
   1   4   8
Cartesian
  1.5879807966937300 -0.0247200022728916  7.3015881093205239
  2.1935031652417507  1.1754603563102348  4.3423937058350699
  1.2409173069194883  2.9806810036762847  1.4715616701296503
  3.1936560535071639  3.1821896239014027  6.9860281058654250
  2.2483846354175658  4.9657891382512558  4.0859882810958901
  3.5179293220057941  4.2845157511672491  5.4053279170123183
  1.8748006234459740  2.1541122826021297  5.9084059071338251
  2.5447193931851109  3.9206294009867402  2.6250774218064246
  0.9083154417200203  1.8755139277281243  3.0986085429832539
  0.4948422082410919  0.1438019952085721  5.1171804392932208
  2.9111428206869716  1.8846901692041318  0.8274466447107908
  3.9101872012055829  5.9789263185600925  3.4923612487671392
  1.5367858673097261  4.2838336792606597  7.5620875768294642
