Ca V  Cu Ni O 
1.0
       13.9501752853         0.0000000000         0.0000000000
        2.2661267571        13.7648869675         0.0000000000
        2.9522884540         2.5059913154        10.8550525823
   Ca    V   Cu   Ni    O
   15   32    8    8   96
Direct
     0.146910295         0.353089660         0.500000000
     0.351660699         0.148338854         0.750000477
     0.351660699         0.648338854         0.250000507
     0.351660699         0.648338854         0.750000477
     0.851660728         0.148338854         0.250000507
     0.851660728         0.148338854         0.750000477
     0.851660728         0.648338854         0.250000507
     0.851660728         0.648338854         0.750000477
     0.146910295         0.353089660         0.000000000
     0.146910295         0.853089690         0.000000000
     0.146910295         0.853089690         0.500000000
     0.646910310         0.353089660         0.000000000
     0.646910310         0.353089660         0.500000000
     0.646910310         0.853089690         0.000000000
     0.646910310         0.853089690         0.500000000
     0.407479018         0.308740139         0.983578622
     0.407479018         0.308740139         0.483578622
     0.407479018         0.808740139         0.983578622
     0.407479018         0.808740139         0.483578622
     0.907479048         0.308740139         0.983578622
     0.907479048         0.308740139         0.483578622
     0.907479048         0.808740139         0.983578622
     0.907479048         0.808740139         0.483578622
     0.307228893         0.407276034         0.236380249
     0.307228893         0.407276034         0.736380219
     0.307228893         0.907276034         0.236380249
     0.307228893         0.907276034         0.736380219
     0.807228923         0.407276034         0.236380249
     0.807228923         0.407276034         0.736380219
     0.807228923         0.907276034         0.236380249
     0.807228923         0.907276034         0.736380219
     0.191266924         0.092519417         0.516418874
     0.191266924         0.092519417         0.016418874
     0.191266924         0.592519403         0.516418874
     0.191266924         0.592519403         0.016418874
     0.691266894         0.092519417         0.516418874
     0.691266894         0.092519417         0.016418874
     0.691266894         0.592519403         0.516418874
     0.691266894         0.592519403         0.016418874
     0.092723787         0.192774028         0.263618648
     0.092723787         0.192774028         0.763618648
     0.092723787         0.692774057         0.263618648
     0.092723787         0.692774057         0.763618648
     0.592723787         0.192774028         0.263618648
     0.592723787         0.192774028         0.763618648
     0.592723787         0.692774057         0.263618648
     0.592723787         0.692774057         0.763618648
     0.460210592         0.039788790         0.000000000
     0.460210592         0.039788790         0.500000000
     0.460210592         0.539788783         0.000000000
     0.460210592         0.539788783         0.500000000
     0.960210562         0.039788790         0.000000000
     0.960210562         0.039788790         0.500000000
     0.960210562         0.539788783         0.000000000
     0.960210562         0.539788783         0.500000000
     0.038827665         0.461171746         0.250000328
     0.038827665         0.461171746         0.750000358
     0.038827665         0.961171746         0.250000328
     0.038827665         0.961171746         0.750000358
     0.538827658         0.461171746         0.250000328
     0.538827658         0.461171746         0.750000358
     0.538827658         0.961171746         0.250000328
     0.538827658         0.961171746         0.750000358
     0.495344281         0.400588214         0.439172059
     0.495344281         0.400588214         0.939172029
     0.495344281         0.900588214         0.439172059
     0.495344281         0.900588214         0.939172029
     0.995344281         0.400588214         0.439172059
     0.995344281         0.400588214         0.939172029
     0.995344281         0.900588214         0.439172059
     0.995344281         0.900588214         0.939172029
     0.458909541         0.186541587         0.022349305
     0.458909541         0.186541587         0.522349298
     0.458909541         0.686541557         0.022349305
     0.458909541         0.686541557         0.522349298
     0.958909512         0.186541587         0.022349305
     0.958909512         0.186541587         0.522349298
     0.958909512         0.686541557         0.022349305
     0.958909512         0.686541557         0.522349298
     0.397963792         0.492617726         0.205078140
     0.397963792         0.492617726         0.705078125
     0.397963792         0.992617726         0.205078140
     0.397963792         0.992617726         0.705078125
     0.897963762         0.492617726         0.205078140
     0.897963762         0.492617726         0.705078125
     0.897963762         0.992617726         0.205078140
     0.897963762         0.992617726         0.705078125
     0.317679703         0.317286581         0.384932369
     0.317679703         0.317286581         0.884932399
     0.317679703         0.817286611         0.384932369
     0.317679703         0.817286611         0.884932399
     0.817679703         0.317286581         0.384932369
     0.817679703         0.317286581         0.884932399
     0.817679703         0.817286611         0.384932369
     0.817679703         0.817286611         0.884932399
     0.313453108         0.041092668         0.477652371
     0.313453108         0.041092668         0.977652371
     0.313453108         0.541092694         0.477652371
     0.313453108         0.541092694         0.977652371
     0.813453078         0.041092668         0.477652371
     0.813453078         0.041092668         0.977652371
     0.813453078         0.541092694         0.477652371
     0.813453078         0.541092694         0.977652371
     0.321715623         0.318736106         0.135100976
     0.321715623         0.318736106         0.635100961
     0.321715623         0.818736076         0.135100976
     0.321715623         0.818736076         0.635100961
     0.821715593         0.318736106         0.135100976
     0.821715593         0.318736106         0.635100961
     0.821715593         0.818736076         0.135100976
     0.821715593         0.818736076         0.635100961
     0.182713345         0.182320312         0.115067616
     0.182713345         0.182320312         0.615067601
     0.182713345         0.682320297         0.115067616
     0.182713345         0.682320297         0.615067601
     0.682713330         0.182320312         0.115067616
     0.682713330         0.182320312         0.615067601
     0.682713330         0.682320297         0.115067616
     0.682713330         0.682320297         0.615067601
     0.182145908         0.454289854         0.278256476
     0.182145908         0.454289854         0.778256476
     0.182145908         0.954289854         0.278256476
     0.182145908         0.954289854         0.778256476
     0.682145894         0.454289854         0.278256476
     0.682145894         0.454289854         0.778256476
     0.682145894         0.954289854         0.278256476
     0.682145894         0.954289854         0.778256476
     0.181263626         0.178284422         0.364899039
     0.181263626         0.178284422         0.864899039
     0.181263626         0.678284407         0.364899039
     0.181263626         0.678284407         0.864899039
     0.681263626         0.178284422         0.364899039
     0.681263626         0.178284422         0.864899039
     0.681263626         0.678284407         0.364899039
     0.681263626         0.678284407         0.864899039
     0.099410743         0.004655514         0.060828194
     0.099410743         0.004655514         0.560828209
     0.099410743         0.504655540         0.060828194
     0.099410743         0.504655540         0.560828209
     0.599410772         0.004655514         0.060828194
     0.599410772         0.004655514         0.560828209
     0.599410772         0.504655540         0.060828194
     0.599410772         0.504655540         0.560828209
     0.045710903         0.317852110         0.221744120
     0.045710903         0.317852110         0.721744120
     0.045710903         0.817852139         0.221744120
     0.045710903         0.817852139         0.721744120
     0.545710921         0.317852110         0.221744120
     0.545710921         0.317852110         0.721744120
     0.545710921         0.817852139         0.221744120
     0.545710921         0.817852139         0.721744120
     0.007382091         0.102035828         0.294921845
     0.007382091         0.102035828         0.794921875
     0.007382091         0.602035820         0.294921845
     0.007382091         0.602035820         0.794921875
     0.507382095         0.102035828         0.294921845
     0.507382095         0.102035828         0.794921875
     0.507382095         0.602035820         0.294921845
     0.507382095         0.602035820         0.794921875
