Ca Mn V  P  O 
1.0
       10.0652313232         0.0000000000         0.0000000000
        0.0000271197         8.4860506057         0.0000000000
        2.1560486698         0.0297525919        20.8383051064
   Ca   Mn    V    P    O
   11    6    6   24   84
Direct
     0.326679409         0.591501534         0.420920789
     0.492763191         0.589269400         0.754927635
     0.992763162         0.589269400         0.754927635
     0.340947598         0.089349039         0.911497295
     0.840947628         0.089349039         0.911497295
     0.172901005         0.094192311         0.579262555
     0.672901034         0.094192311         0.579262555
     0.162557557         0.595501900         0.086631954
     0.662557542         0.595501900         0.086631954
     0.006581987         0.095790327         0.246117190
     0.506581962         0.095790327         0.246117190
     0.486972272         0.009671126         0.752914906
     0.986972272         0.009671126         0.752914906
     0.345621049         0.510119855         0.913366497
     0.845621049         0.510119855         0.913366497
     0.320204496         0.010675929         0.419703960
     0.820204496         0.010675929         0.419703960
     0.178236425         0.507567644         0.577064276
     0.678236425         0.507567644         0.577064276
     0.155386806         0.007737160         0.090176709
     0.655386806         0.007737160         0.090176709
     0.011372572         0.508401930         0.242857337
     0.511372566         0.508401930         0.242857337
     0.422264129         0.727767229         0.630649507
     0.922264099         0.727767229         0.630649507
     0.443315685         0.308221042         0.501425147
     0.943315685         0.308221042         0.501425147
     0.390625626         0.809412539         0.166676998
     0.890625596         0.809412539         0.166676998
     0.410916299         0.229521707         0.036108620
     0.910916328         0.229521707         0.036108620
     0.222252354         0.805921972         0.831739366
     0.722252369         0.805921972         0.831739366
     0.244114503         0.235925347         0.701798558
     0.744114518         0.235925347         0.701798558
     0.256017029         0.730297565         0.297275096
     0.756017029         0.730297565         0.297275096
     0.276481658         0.308854342         0.166711017
     0.776481628         0.308854342         0.166711017
     0.088707767         0.736092269         0.965120316
     0.588707745         0.736092269         0.965120316
     0.110387854         0.305596590         0.835105240
     0.610387862         0.305596590         0.835105240
     0.056759927         0.806722879         0.499526501
     0.556759953         0.806722879         0.499526501
     0.076886699         0.238077477         0.368771344
     0.576886714         0.238077477         0.368771344
     0.448562354         0.718472004         0.946121335
     0.948562384         0.718472004         0.946121335
     0.505154014         0.839528441         0.575650156
     0.005154014         0.839528441         0.575650156
     0.408595294         0.321732968         0.973680735
     0.908595324         0.321732968         0.973680735
     0.425727457         0.820162833         0.692887366
     0.925727487         0.820162833         0.692887366
     0.500940740         0.082347430         0.359990269
     0.000940740         0.082347430         0.359990269
     0.384005934         0.218440592         0.721151412
     0.884005904         0.218440592         0.721151412
     0.437313318         0.804033458         0.460231215
     0.937313318         0.804033458         0.460231215
     0.483399659         0.951059759         0.154641315
     0.983399630         0.951059759         0.154641315
     0.464139432         0.650982857         0.160138205
     0.964139462         0.650982857         0.160138205
     0.312105924         0.949975491         0.819274843
     0.812105894         0.949975491         0.819274843
     0.370988578         0.149632484         0.508639157
     0.870988607         0.149632484         0.508639157
     0.298161715         0.648927093         0.826047540
     0.798161745         0.648927093         0.826047540
     0.351139069         0.450432956         0.513867021
     0.851139069         0.450432956         0.513867021
     0.398050338         0.309311241         0.205005661
     0.898050308         0.309311241         0.205005661
     0.337471902         0.578045070         0.304787308
     0.837471902         0.578045070         0.304787308
     0.233201414         0.303716630         0.872201741
     0.733201385         0.303716630         0.872201741
     0.283748299         0.703558266         0.610075414
     0.783748269         0.703558266         0.610075414
     0.342354596         0.842188239         0.242959425
     0.842354596         0.842188239         0.242959425
     0.164426848         0.579947472         0.973677218
     0.664426863         0.579947472         0.973677218
     0.235372961         0.331149369         0.640229642
     0.735372961         0.331149369         0.640229642
     0.325418502         0.341732323         0.090617336
     0.825418472         0.341732323         0.090617336
     0.175230637         0.839677334         0.908912063
     0.675230622         0.839677334         0.908912063
     0.257983029         0.822210133         0.359926909
     0.757983029         0.822210133         0.359926909
     0.329270124         0.077282973         0.028988106
     0.829270124         0.077282973         0.028988106
     0.157465756         0.339371204         0.757985890
     0.657465756         0.339371204         0.757985890
     0.215124071         0.220203325         0.390153915
     0.715124071         0.220203325         0.390153915
     0.268399656         0.810189605         0.128917620
     0.768399656         0.810189605         0.128917620
     0.168643445         0.079892702         0.693003654
     0.668643475         0.079892702         0.693003654
     0.099160336         0.803848803         0.794930160
     0.599160314         0.803848803         0.794930160
     0.148548648         0.949332535         0.487709373
     0.648548663         0.949332535         0.487709373
     0.202786013         0.150267556         0.172995910
     0.702786028         0.150267556         0.172995910
     0.132786930         0.649022460         0.494796216
     0.632786930         0.649022460         0.494796216
     0.183724120         0.450365007         0.178630754
     0.683724105         0.450365007         0.178630754
     0.034664117         0.148447409         0.840889037
     0.534664094         0.148447409         0.840889037
     0.020518744         0.449685484         0.847425699
     0.520518720         0.449685484         0.847425699
     0.068109110         0.310620725         0.537416518
     0.568109095         0.310620725         0.537416518
     0.119026013         0.707992136         0.275089860
     0.619026005         0.707992136         0.275089860
     0.004438812         0.575616121         0.637614369
     0.504438818         0.575616121         0.637614369
     0.071001478         0.332378358         0.306956828
     0.571001470         0.332378358         0.306956828
     0.097877100         0.830576360         0.026794868
     0.597877085         0.830576360         0.026794868
     0.987851679         0.342180967         0.424424618
     0.487851679         0.342180967         0.424424618
     0.048154920         0.206537634         0.058216885
     0.548154950         0.206537634         0.058216885
