Ca V  Ni O 
1.0
       14.1237688065         0.0000000000         0.0000000000
        2.8117531073        13.8410367063         0.0000000000
        3.2883373689         2.6874777154        10.1207741500
   Ca    V   Ni    O
   15   32   16   96
Direct
     0.344089150         0.655912042         0.874996483
     0.344089150         0.155912042         0.374996483
     0.344089150         0.155912042         0.874996483
     0.344089150         0.655912042         0.374996483
     0.844089150         0.155912042         0.374996483
     0.844089150         0.155912042         0.874996483
     0.844089150         0.655912042         0.374996483
     0.844089150         0.655912042         0.874996483
     0.155902192         0.344085813         0.125008851
     0.155902192         0.344085813         0.625008821
     0.155902192         0.844085813         0.125008851
     0.655902207         0.344085813         0.125008851
     0.655902207         0.344085813         0.625008821
     0.655902207         0.844085813         0.125008851
     0.655902207         0.844085813         0.625008821
     0.417770654         0.314508140         0.068199635
     0.417770654         0.314508140         0.568199635
     0.417770654         0.814508140         0.068199635
     0.417770654         0.814508140         0.568199635
     0.917770624         0.314508140         0.068199635
     0.917770624         0.314508140         0.568199635
     0.917770624         0.814508140         0.068199635
     0.917770624         0.814508140         0.568199635
     0.314404577         0.417764336         0.318311065
     0.314404577         0.417764336         0.818311095
     0.314404577         0.917764306         0.318311065
     0.314404577         0.917764306         0.818311095
     0.814404607         0.417764336         0.318311065
     0.814404607         0.417764336         0.818311095
     0.814404607         0.917764306         0.318311065
     0.814404607         0.917764306         0.818311095
     0.185523599         0.082253635         0.181829318
     0.185523599         0.082253635         0.681829333
     0.185523599         0.582253635         0.181829318
     0.185523599         0.582253635         0.681829333
     0.685523629         0.082253635         0.181829318
     0.685523629         0.082253635         0.681829333
     0.685523629         0.582253635         0.181829318
     0.685523629         0.582253635         0.681829333
     0.082168810         0.185564265         0.431623578
     0.082168810         0.185564265         0.931623578
     0.082168810         0.685564280         0.431623578
     0.082168810         0.685564280         0.931623578
     0.582168818         0.185564265         0.431623578
     0.582168818         0.185564265         0.931623578
     0.582168818         0.685564280         0.431623578
     0.582168818         0.685564280         0.931623578
     0.463104963         0.036893886         0.124984302
     0.463104963         0.036893886         0.624984324
     0.463104963         0.536893904         0.124984302
     0.463104963         0.536893904         0.624984324
     0.963104963         0.036893886         0.124984302
     0.963104963         0.036893886         0.624984324
     0.963104963         0.536893904         0.124984302
     0.963104963         0.536893904         0.624984324
     0.036914840         0.463079035         0.375009120
     0.036914840         0.463079035         0.875009120
     0.036914840         0.963079035         0.375009120
     0.036914840         0.963079035         0.875009120
     0.536914825         0.463079035         0.375009120
     0.536914825         0.463079035         0.875009120
     0.536914825         0.963079035         0.375009120
     0.536914825         0.963079035         0.875009120
     0.496920317         0.399322748         0.076331295
     0.496920317         0.399322748         0.576331317
     0.496920317         0.899322748         0.076331295
     0.496920317         0.899322748         0.576331317
     0.996920347         0.399322748         0.076331295
     0.996920347         0.399322748         0.576331317
     0.996920347         0.899322748         0.076331295
     0.996920347         0.899322748         0.576331317
     0.466959625         0.186303034         0.122832447
     0.466959625         0.186303034         0.622832417
     0.466959625         0.686303020         0.122832447
     0.466959625         0.686303020         0.622832417
     0.966959596         0.186303034         0.122832447
     0.966959596         0.186303034         0.622832417
     0.966959596         0.686303020         0.122832447
     0.966959596         0.686303020         0.622832417
     0.399354488         0.496990114         0.326323330
     0.399354488         0.496990114         0.826323330
     0.399354488         0.996990085         0.326323330
     0.399354488         0.996990085         0.826323330
     0.899354458         0.496990114         0.326323330
     0.899354458         0.496990114         0.826323330
     0.899354458         0.996990085         0.326323330
     0.899354458         0.996990085         0.826323330
     0.320239216         0.321878076         0.982785285
     0.320239216         0.321878076         0.482785285
     0.320239216         0.821878076         0.982785285
     0.320239216         0.821878076         0.482785285
     0.820239186         0.321878076         0.982785285
     0.820239186         0.321878076         0.482785285
     0.820239186         0.821878076         0.982785285
     0.820239186         0.821878076         0.482785285
     0.313671827         0.033056907         0.127163664
     0.313671827         0.033056907         0.627163649
     0.313671827         0.533056915         0.127163664
     0.313671827         0.533056915         0.627163649
     0.813671827         0.033056907         0.127163664
     0.813671827         0.033056907         0.627163649
     0.813671827         0.533056915         0.127163664
     0.813671827         0.533056915         0.627163649
     0.321905464         0.320190698         0.232692227
     0.321905464         0.320190698         0.732692242
     0.321905464         0.820190668         0.232692227
     0.321905464         0.820190668         0.732692242
     0.821905494         0.320190698         0.232692227
     0.821905494         0.320190698         0.732692242
     0.821905494         0.820190668         0.232692227
     0.821905494         0.820190668         0.732692242
     0.178103760         0.179730624         0.267226428
     0.178103760         0.179730624         0.767226458
     0.178103760         0.679730654         0.267226428
     0.178103760         0.679730654         0.767226458
     0.678103745         0.179730624         0.267226428
     0.678103745         0.179730624         0.767226458
     0.678103745         0.679730654         0.267226428
     0.678103745         0.679730654         0.767226458
     0.186360255         0.466970086         0.372768134
     0.186360255         0.466970086         0.872768164
     0.186360255         0.966970086         0.372768134
     0.186360255         0.966970086         0.872768164
     0.686360240         0.466970086         0.372768134
     0.686360240         0.466970086         0.872768164
     0.686360240         0.966970086         0.372768134
     0.686360240         0.966970086         0.872768164
     0.179830089         0.178101435         0.517332196
     0.179830089         0.178101435         0.017332196
     0.179830089         0.678101420         0.517332196
     0.179830089         0.678101420         0.017332196
     0.679830074         0.178101435         0.517332196
     0.679830074         0.178101435         0.017332196
     0.679830074         0.678101420         0.517332196
     0.679830074         0.678101420         0.017332196
     0.100670271         0.003083540         0.173668817
     0.100670271         0.003083540         0.673668802
     0.100670271         0.503083527         0.173668817
     0.100670271         0.503083527         0.673668802
     0.600670278         0.003083540         0.173668817
     0.600670278         0.003083540         0.673668802
     0.600670278         0.503083527         0.173668817
     0.600670278         0.503083527         0.673668802
     0.033045482         0.313625604         0.377228290
     0.033045482         0.313625604         0.877228260
     0.033045482         0.813625574         0.377228290
     0.033045482         0.813625574         0.877228260
     0.533045471         0.313625604         0.377228290
     0.533045471         0.313625604         0.877228260
     0.533045471         0.813625574         0.377228290
     0.533045471         0.813625574         0.877228260
     0.003060399         0.100685932         0.423685670
     0.003060399         0.100685932         0.923685670
     0.003060399         0.600685954         0.423685670
     0.003060399         0.600685954         0.923685670
     0.503060400         0.100685932         0.423685670
     0.503060400         0.100685932         0.923685670
     0.503060400         0.600685954         0.423685670
     0.503060400         0.600685954         0.923685670
