Ca   Sc   V    O                        
   1.00000000000000     
     9.9045556956223209   -0.0302495973615105   -0.0132447410356597
     2.1479492430151801    9.5498750727440296   -0.0105084898282720
    -5.9827868664502697   -4.7510305872984597   15.5395810450911007
   Ca   Sc   V    O 
     7    16    16    64
Direct
  0.4829588323152136  0.1488508449305987  0.4815358004517181
  0.4976122472602372  0.1157040219888145  0.9819271097528636
  0.5023877175339659  0.6106385314822229  0.9822066138032587
  0.9834596102633595  0.1470625007069836  0.4823403727314803
  0.9968932771344691  0.1163476878390667  0.9831170172540249
  0.9820793784758983  0.6472479410590010  0.4833032464043912
  0.9993565113667711  0.6118927258759508  0.9822269038125393
  0.3554788455541363  0.4641379239732888  0.1716505632571752
  0.3164709188193078  0.4877631266364501  0.6701228933555626
  0.3532290181550375  0.9628795044781484  0.1692174874189257
  0.3133922075772373  0.9932566343218550  0.6747536911331465
  0.8563675730137382  0.4653057720781646  0.1721816607471842
  0.8220906455661349  0.4834404939988189  0.6737318361671411
  0.8533483616363975  0.9637774641460382  0.1695200641514046
  0.8144710236322726  0.9849504949551238  0.6694579760036125
  0.1727012557080058  0.0325312600132769  0.3096946760018078
  0.1361300648639733  0.0579187607667351  0.8130438721183793
  0.1768337657488063  0.5425777695188049  0.3164383818691367
  0.1393426979591552  0.5600034795570628  0.8126878604302172
  0.6720558657830286  0.0327984605286402  0.3099482710290922
  0.6366649551922841  0.0572057070870550  0.8115836057825007
  0.6760830023196696  0.5276424609976408  0.3122789747891352
  0.6377845726111644  0.5593074895058074  0.8114614356172922
  0.1109777129135551  0.2190178880440417  0.1806554194136184
  0.0707005780099507  0.2422603012443214  0.6813661485437665
  0.1107566402948729  0.7187123866147969  0.1800121898156294
  0.0707969759009472  0.7423029567234134  0.6810665336060350
  0.6091903998562516  0.2172873134139416  0.1800189646148386
  0.5699584596643520  0.2415353027791118  0.6798382822364076
  0.6090164712471841  0.7183219410232741  0.1797911985664921
  0.5668544926067313  0.7351775558741795  0.6706590784627732
  0.4195287324021578  0.2905525929941141  0.3143515958481564
  0.3870470277160499  0.3084127651248000  0.8130513952715768
  0.4351479252028911  0.7826785161557417  0.3168768829739622
  0.3877819612125840  0.8090312084702741  0.8140752123817060
  0.9274979157726692  0.2856256304502829  0.3119913793125728
  0.8850774297871450  0.3053108805989989  0.8127134767259426
  0.9239797628441099  0.7866667781961897  0.3121646968185308
  0.8853057495640673  0.8057284984395661  0.8130747030012881
  0.2481994167822594  0.3564317002110071  0.2158312207670107
  0.2053035893299106  0.3786067851325330  0.7132350901488923
  0.2373230344709177  0.8550836521417087  0.2078517963198474
  0.2046799322024216  0.8795244260206858  0.7139315989608034
  0.7457607805614145  0.3558035726889163  0.2139186909217740
  0.7046790830325649  0.3779344453173938  0.7128331521673693
  0.7439609599970360  0.8521150698339885  0.2111300551769889
  0.6997723462785114  0.8765228366061505  0.7107154153552859
  0.5085544742611019  0.1087466519492623  0.2079632175667284
  0.4678812433775978  0.1391220952657026  0.7131648937175809
  0.5074551390356651  0.6145325902819403  0.2146587633790067
  0.4706901690787946  0.6390161636469104  0.7115928639138998
  0.0064149302838398  0.1156814625325811  0.2113401893916195
  0.9675666095673462  0.1386423098872628  0.7133483896005867
  0.0115677922036203  0.6139431086083826  0.2152895355425026
  0.9685215382515922  0.6380525700292174  0.7132175374420556
  0.0688488970553355  0.1964667968680027  0.3888735032024367
  0.0267971220182291  0.2201949945904397  0.8907842785467502
  0.0633254001885089  0.7013601027992636  0.3902457556487987
  0.0277942250209194  0.7201343618681127  0.8907045951882636
  0.5657145950471142  0.1951946518131522  0.3857566126514657
  0.5283252224430405  0.2219084914727017  0.8902261702599175
  0.5767601500402024  0.7138335940477959  0.3873734507260161
  0.5274258633704173  0.7197340799923382  0.8900762733401858
  0.3530311210147090  0.4285599160466748  0.3879529803652070
  0.3208620478544641  0.4719951781191030  0.8906612460313597
  0.3624486756308634  0.9490066894122421  0.3854244452898819
  0.3184835664445433  0.9708867244400232  0.8916543336103565
  0.8638703555925472  0.4482804546254908  0.3903585033396071
  0.8198405230915154  0.4704832541464022  0.8896978178899581
  0.8595542637388576  0.9515076650562529  0.3888759382438223
  0.8204699494903093  0.9708125173777954  0.8895575824774712
  0.2902426284005225  0.1439904756993425  0.2751510132219613
  0.2498164144308384  0.1721269011131611  0.7779672804716308
  0.2926575978635610  0.6524639398029246  0.2798181272775754
  0.2511051773238875  0.6717424120741082  0.7763237424614738
  0.7906517618285021  0.1475793623995532  0.2767222117065820
  0.7496940192571595  0.1701510771976857  0.7762752509117057
  0.7893372688479563  0.6495776868187521  0.2786482925068707
  0.7518036014595303  0.6705996588492735  0.7773734473586481
  0.0297505593506484  0.3862703696751161  0.2783500101737403
  0.9874384322913690  0.4103246701253440  0.7789769713685243
  0.0239081290695797  0.8858936695091660  0.2754741333367356
  0.9850913520163372  0.9091677288589599  0.7779672267361503
  0.5275397255873311  0.3830499770115761  0.2775614887010296
  0.4870885270001112  0.4109298731546986  0.7786695069410100
  0.5231957721336942  0.8841353257493951  0.2738361808260578
  0.4856992769277103  0.9148714386940209  0.7830344142243510
  0.4578365418608764  0.2895940934175437  0.0994244559373324
  0.4182014520343155  0.3098843845485101  0.5985807390060827
  0.4555161894275415  0.7827065979819907  0.0980162075963957
  0.4235077898291154  0.8148973708102211  0.6060642970104562
  0.9582760769436748  0.2906434326828334  0.1000097619472274
  0.9193967092424258  0.3104567350010385  0.5987642940927993
  0.9546940776102484  0.7841437483767841  0.0987096713769058
  0.9209121992948369  0.8124744870971873  0.5991532487703848
  0.1795719021678735  0.0705312753078295  0.0979842917097982
  0.1429324401278919  0.0919997213012540  0.5996579793432358
  0.1782226344418939  0.5648701857257710  0.0991803159188152
  0.1419699401870826  0.5912628620526044  0.5995376874313130
  0.6806522217310365  0.0696676285326976  0.0975291834555777
  0.6433824847039762  0.0939079848449414  0.5987111385687953
  0.6800717039730332  0.5654164002790993  0.0991796986096164
  0.6408333193895467  0.5913548427849972  0.6037240991157222
 
             NaN             NaN             NaN
             NaN             NaN             NaN
             NaN             NaN             NaN
             NaN             NaN             NaN
             NaN             NaN             NaN
             NaN             NaN             NaN
             NaN             NaN             NaN
             NaN             NaN             NaN
             NaN             NaN             NaN
             NaN             NaN             NaN
             NaN             NaN             NaN
             NaN             NaN             NaN
             NaN             NaN             NaN
             NaN             NaN             NaN
             NaN             NaN             NaN
             NaN             NaN             NaN
             NaN             NaN             NaN
             NaN             NaN             NaN
             NaN             NaN             NaN
             NaN             NaN             NaN
             NaN             NaN             NaN
             NaN             NaN             NaN
             NaN             NaN             NaN
             NaN             NaN             NaN
             NaN             NaN             NaN
             NaN             NaN             NaN
             NaN             NaN             NaN
             NaN             NaN             NaN
             NaN             NaN             NaN
             NaN             NaN             NaN
             NaN             NaN             NaN
             NaN             NaN             NaN
             NaN             NaN             NaN
             NaN             NaN             NaN
             NaN             NaN             NaN
             NaN             NaN             NaN
             NaN             NaN             NaN
             NaN             NaN             NaN
             NaN             NaN             NaN
             NaN             NaN             NaN
             NaN             NaN             NaN
             NaN             NaN             NaN
             NaN             NaN             NaN
             NaN             NaN             NaN
             NaN             NaN             NaN
             NaN             NaN             NaN
             NaN             NaN             NaN
             NaN             NaN             NaN
             NaN             NaN             NaN
             NaN             NaN             NaN
             NaN             NaN             NaN
             NaN             NaN             NaN
             NaN             NaN             NaN
             NaN             NaN             NaN
             NaN             NaN             NaN
             NaN             NaN             NaN
             NaN             NaN             NaN
             NaN             NaN             NaN
             NaN             NaN             NaN
             NaN             NaN             NaN
             NaN             NaN             NaN
             NaN             NaN             NaN
             NaN             NaN             NaN
             NaN             NaN             NaN
             NaN             NaN             NaN
             NaN             NaN             NaN
             NaN             NaN             NaN
             NaN             NaN             NaN
             NaN             NaN             NaN
             NaN             NaN             NaN
             NaN             NaN             NaN
             NaN             NaN             NaN
             NaN             NaN             NaN
             NaN             NaN             NaN
             NaN             NaN             NaN
             NaN             NaN             NaN
             NaN             NaN             NaN
             NaN             NaN             NaN
             NaN             NaN             NaN
             NaN             NaN             NaN
             NaN             NaN             NaN
             NaN             NaN             NaN
             NaN             NaN             NaN
             NaN             NaN             NaN
             NaN             NaN             NaN
             NaN             NaN             NaN
             NaN             NaN             NaN
             NaN             NaN             NaN
             NaN             NaN             NaN
             NaN             NaN             NaN
             NaN             NaN             NaN
             NaN             NaN             NaN
             NaN             NaN             NaN
             NaN             NaN             NaN
             NaN             NaN             NaN
             NaN             NaN             NaN
             NaN             NaN             NaN
             NaN             NaN             NaN
             NaN             NaN             NaN
             NaN             NaN             NaN
             NaN             NaN             NaN
             NaN             NaN             NaN
             NaN             NaN             NaN
