Ca   Sc   V    O                        
   1.00000000000000     
     9.9045556956223209   -0.0302495973615105   -0.0132447410356597
     2.1479492430151801    9.5498750727440296   -0.0105084898282720
    -5.9827868664502697   -4.7510305872984597   15.5395810450911007
   Ca   Sc   V    O 
     7    16    16    64
Direct
  0.4829584980634234  0.1488539702401575  0.4815347205905497
  0.4976098757957263  0.1156834916366856  0.9819234576363550
  0.5023869701512428  0.6106244488275310  0.9822083959295846
  0.9834609784800672  0.1470587202518192  0.4823382050898186
  0.9968943582044325  0.1163234370296128  0.9831137594985928
  0.9820767116002077  0.6472512349480581  0.4833036965430388
  0.9993548533953941  0.6118775140784075  0.9822241778939731
  0.3554967351029368  0.4641220476664588  0.1716521531072890
  0.3164694586453676  0.4877606724575844  0.6701262512109548
  0.3532383170442558  0.9628625860103919  0.1692185534503360
  0.3133852317483382  0.9932519108693868  0.6747568929812851
  0.8563829250407721  0.4652898576386650  0.1721844912972129
  0.8220950534732641  0.4834336880177250  0.6737395825331466
  0.8533606583082155  0.9637639461724886  0.1695226260153752
  0.8144723645518713  0.9849426749283287  0.6694642509181548
  0.1727114216139717  0.0325115102549798  0.3096890907588295
  0.1361182159791020  0.0579095274625410  0.8130445749927983
  0.1768366371973437  0.5425667535806922  0.3164327483435056
  0.1393248710960981  0.5600042011681318  0.8126846101051379
  0.6720701665135450  0.0327681852785601  0.3099456251383791
  0.6366598421510153  0.0571965585699396  0.8115795359863383
  0.6760929917834336  0.5276332255117687  0.3122752470854974
  0.6377743204561087  0.5592971615583812  0.8114574127913097
  0.1109927408830008  0.2190025504337345  0.1806507554504431
  0.0706817230378649  0.2422520923758192  0.6813683695138231
  0.1107786028193701  0.7187169343392339  0.1800169902569153
  0.0707724790719283  0.7423087290703833  0.6810673731039693
  0.6091971368015981  0.2172713936834887  0.1800080849209406
  0.5699397866190014  0.2415270601547747  0.6798425720307311
  0.6090270306495025  0.7183190316755805  0.1797900498942104
  0.5668106467513500  0.7351993733147044  0.6706584343874834
  0.4195351588880591  0.2905367232575550  0.3143374630401301
  0.3870258650922579  0.3083978090087797  0.8130489606192984
  0.4351517174680402  0.7826831794079275  0.3168652729105403
  0.3877604296168674  0.8090328290370925  0.8140773691252737
  0.9275160725468556  0.2856150177343040  0.3119839925747868
  0.8850582813412351  0.3052955052806072  0.8127100476498419
  0.9239913244436420  0.7866710373890462  0.3121585751027671
  0.8852961782197869  0.8057359968520866  0.8130779673269338
  0.2482056227554716  0.3564229827904309  0.2158349809635177
  0.2052950126388005  0.3786051878403925  0.7132352885057868
  0.2373308530247280  0.8550664178345243  0.2078535521794792
  0.2046704942144775  0.8795143008850015  0.7139314036728265
  0.7457806678534122  0.3558007546970016  0.2139226364520304
  0.7046626871151382  0.3779225673456052  0.7128316654862802
  0.7439684645335218  0.8520989006894817  0.2111328148345105
  0.6997671943829795  0.8765193195779832  0.7107184449977865
  0.5085670590665919  0.1087276876502752  0.2079649717189581
  0.4678804056637723  0.1391236359038220  0.7131657081736668
  0.5074707008398178  0.6145306320681487  0.2146620463225195
  0.4706785383228890  0.6390173440403117  0.7115972993819248
  0.0064288394040821  0.1156746562826389  0.2113438748338392
  0.9675526604078587  0.1386362906913806  0.7133500032258859
  0.0115806358738409  0.6139374163514287  0.2152940084548060
  0.9685086587736840  0.6380562613237831  0.7132228569661131
  0.0688578385583461  0.1964547074718648  0.3888709671478361
  0.0267837426405420  0.2201889072419615  0.8907823918478812
  0.0633357532841362  0.7013488519860910  0.3902456561067382
  0.0277757253597760  0.7201318690622879  0.8907015673227680
  0.5657279770897927  0.1951801250270169  0.3857586878698365
  0.5283112322866232  0.2219010157184331  0.8902248566617545
  0.5767758633683884  0.7138241217045209  0.3873745594630887
  0.5274101496369921  0.7197296647575497  0.8900757308015179
  0.3530405767511611  0.4285491104859744  0.3879528766311043
  0.3208503215034865  0.4719905097677235  0.8906620575872704
  0.3624602584453776  0.9489864253149263  0.3854222312786531
  0.3184753807307253  0.9708748420011188  0.8916523640719255
  0.8638799721124452  0.4482678344582216  0.3903562179173424
  0.8198338528871901  0.4704761797097518  0.8896969522162979
  0.8595632801452628  0.9514883454189548  0.3888716181821892
  0.8204669959448151  0.9707953989753229  0.8895531624660222
  0.2902512105857804  0.1439825938322506  0.2751520746028575
  0.2498059886411736  0.1721231033151542  0.7779663849331286
  0.2926680767219632  0.6524564792416079  0.2798197719918967
  0.2510872732763458  0.6717399834862013  0.7763217148802962
  0.7906653769925314  0.1475720682579937  0.2767236486978686
  0.7496816434724833  0.1701449305672762  0.7762726097276389
  0.7893423140361233  0.6495698958047854  0.2786462743103329
  0.7517937335826238  0.6705984198052336  0.7773725442595046
  0.0297610624664883  0.3862516807965757  0.2783492987753228
  0.9874263734697435  0.4103217564646778  0.7789780100233710
  0.0239183707821493  0.8858741337161663  0.2754738116552736
  0.9850772252402726  0.9091527409192705  0.7779679680262449
  0.5275519937596467  0.3830363820493420  0.2775633259026685
  0.4870802759180638  0.4109259222814604  0.7786691721547556
  0.5232090146669368  0.8841138013832004  0.2738348977476634
  0.4856887031504451  0.9148679054054829  0.7830385962503623
  0.4578512549640275  0.2895860938620506  0.0994311207346988
  0.4181986032115477  0.3098776933730480  0.5985843780298460
  0.4555381454962711  0.7826890954233890  0.0980209438433180
  0.4234957610426144  0.8148945786892130  0.6060678614035070
  0.9582936818467270  0.2906323071565994  0.1000161555796538
  0.9193855301541461  0.3104556918604144  0.5987664874234108
  0.9547093915731898  0.7841291545624262  0.0987117338124358
  0.9209100759074307  0.8124667107471452  0.5991573886251852
  0.1795773065806366  0.0705273635565445  0.0979885006640973
  0.1429211970258498  0.0919925817422702  0.5996559097259443
  0.1782304219206142  0.5648624153316799  0.0991815339712497
  0.1419600544724594  0.5912581847804199  0.5995371734655421
  0.6806652482644030  0.0696549962785711  0.0975332689668361
  0.6433733463909674  0.0939029292288444  0.5987116561326362
  0.6800771605032750  0.5654130629772298  0.0991837495916881
  0.6408316646165184  0.5913310456511496  0.6037159795163143
 
             NaN             NaN             NaN
             NaN             NaN             NaN
             NaN             NaN             NaN
             NaN             NaN             NaN
             NaN             NaN             NaN
             NaN             NaN             NaN
             NaN             NaN             NaN
             NaN             NaN             NaN
             NaN             NaN             NaN
             NaN             NaN             NaN
             NaN             NaN             NaN
             NaN             NaN             NaN
             NaN             NaN             NaN
             NaN             NaN             NaN
             NaN             NaN             NaN
             NaN             NaN             NaN
             NaN             NaN             NaN
             NaN             NaN             NaN
             NaN             NaN             NaN
             NaN             NaN             NaN
             NaN             NaN             NaN
             NaN             NaN             NaN
             NaN             NaN             NaN
             NaN             NaN             NaN
             NaN             NaN             NaN
             NaN             NaN             NaN
             NaN             NaN             NaN
             NaN             NaN             NaN
             NaN             NaN             NaN
             NaN             NaN             NaN
             NaN             NaN             NaN
             NaN             NaN             NaN
             NaN             NaN             NaN
             NaN             NaN             NaN
             NaN             NaN             NaN
             NaN             NaN             NaN
             NaN             NaN             NaN
             NaN             NaN             NaN
             NaN             NaN             NaN
             NaN             NaN             NaN
             NaN             NaN             NaN
             NaN             NaN             NaN
             NaN             NaN             NaN
             NaN             NaN             NaN
             NaN             NaN             NaN
             NaN             NaN             NaN
             NaN             NaN             NaN
             NaN             NaN             NaN
             NaN             NaN             NaN
             NaN             NaN             NaN
             NaN             NaN             NaN
             NaN             NaN             NaN
             NaN             NaN             NaN
             NaN             NaN             NaN
             NaN             NaN             NaN
             NaN             NaN             NaN
             NaN             NaN             NaN
             NaN             NaN             NaN
             NaN             NaN             NaN
             NaN             NaN             NaN
             NaN             NaN             NaN
             NaN             NaN             NaN
             NaN             NaN             NaN
             NaN             NaN             NaN
             NaN             NaN             NaN
             NaN             NaN             NaN
             NaN             NaN             NaN
             NaN             NaN             NaN
             NaN             NaN             NaN
             NaN             NaN             NaN
             NaN             NaN             NaN
             NaN             NaN             NaN
             NaN             NaN             NaN
             NaN             NaN             NaN
             NaN             NaN             NaN
             NaN             NaN             NaN
             NaN             NaN             NaN
             NaN             NaN             NaN
             NaN             NaN             NaN
             NaN             NaN             NaN
             NaN             NaN             NaN
             NaN             NaN             NaN
             NaN             NaN             NaN
             NaN             NaN             NaN
             NaN             NaN             NaN
             NaN             NaN             NaN
             NaN             NaN             NaN
             NaN             NaN             NaN
             NaN             NaN             NaN
             NaN             NaN             NaN
             NaN             NaN             NaN
             NaN             NaN             NaN
             NaN             NaN             NaN
             NaN             NaN             NaN
             NaN             NaN             NaN
             NaN             NaN             NaN
             NaN             NaN             NaN
             NaN             NaN             NaN
             NaN             NaN             NaN
             NaN             NaN             NaN
             NaN             NaN             NaN
             NaN             NaN             NaN
             NaN             NaN             NaN
