Ca Mn V  P  O                           
   1.00000000000000     
     7.3615770339999997    0.0000000000000000    0.0000000000000000
     0.1764880905000000    8.2527450794000003    0.0000000000000000
     0.4044067635000000    0.4538283880000000   18.2490875539999990
   Ca   Mn   V    P    O 
     3     4     4    16    56
Selective dynamics
Direct
  0.7277817114913997  0.8993283686353450  0.4424108233347316   T   T   T
  0.1385291557488124  0.9089045906748998  0.1224970818147147   T   T   T
  0.8685953340329861  0.4107664633838090  0.8718145320046631   T   T   T
  0.6144331277298546  0.0111214555204448  0.1297283738792819   T   T   T
  0.3368141773838275  0.9963566197589990  0.3769263937330625   T   T   T
  0.1085801202402869  0.0129800406390906  0.6323961310513390   T   T   T
  0.8452357705632869  0.9842074836349314  0.8766198168514449   T   T   T
  0.1534740241477378  0.4852659766616090  0.1232102893149798   T   T   T
  0.9098715750015184  0.4933384060226011  0.3715820695327496   T   T   T
  0.6547455774997647  0.5057211550617708  0.6233432556964421   T   T   T
  0.3995012497711947  0.5080298455917126  0.8707907848192046   T   T   T
  0.8554727320829021  0.7554847925107536  0.0285546483431423   T   T   T
  0.4640734712236432  0.6801205041327604  0.0290182993601914   T   T   T
  0.8851372300181121  0.2722427743512038  0.2216647734866818   T   T   T
  0.2728539095013396  0.1855836439763680  0.2248736519491068   T   T   T
  0.6128553194545181  0.7627522399485610  0.2802031170032506   T   T   T
  0.2247567333734562  0.6843682730618712  0.2761572672506181   T   T   T
  0.6449376575981111  0.2773450290092853  0.4737369510945405   T   T   T
  0.9762045692445311  0.6830267943059872  0.5275675971088029   T   T   T
  0.0434155083073069  0.1930739678569721  0.4761059338695587   T   T   T
  0.3606216806739390  0.7719931272566792  0.5352804905033975   T   T   T
  0.7779830033384961  0.1946426904782431  0.7206603759407387   T   T   T
  0.3917820624904088  0.2819360164126247  0.7216573175781007   T   T   T
  0.7225246912856779  0.7016744116231648  0.7719291211777862   T   T   T
  0.1113652433940472  0.7738306507400016  0.7814457738883911   T   T   T
  0.5357707397274121  0.1832300192050877  0.9681353892829281   T   T   T
  0.1474292977216385  0.2687365962068011  0.9721873812182620   T   T   T
  0.6786648284088165  0.6465637992095613  0.0431309030013736   T   T   T
  0.8402428982021054  0.9118150682654993  0.0735217005934385   T   T   T
  0.5775469965832647  0.1793210497207999  0.0488829254540406   T   T   T
  0.4114249216985705  0.8461684858381592  0.0581034734404668   T   T   T
  0.3735632829791426  0.5423313522678254  0.0736015150807909   T   T   T
  0.9352355491127885  0.4195072747853303  0.1707981109144202   T   T   T
  0.1342117391335506  0.3016989254118753  0.0544816133344201   T   T   T
  0.0173011869521905  0.6558921887404756  0.0590360651905721   T   T   T
  0.7253210036374753  0.1803222005992309  0.1972975821716091   T   T   T
  0.6548149451483724  0.8199473376977001  0.2022718740286845   T   T   T
  0.3607921630981499  0.0538567619024071  0.1769288469368884   T   T   T
  0.2959048615163072  0.3573837555717894  0.1936080148419152   T   T   T
  0.1773677102876257  0.6742029466431938  0.1932433964053657   T   T   T
  0.8794767771239305  0.3206361912002605  0.3019161963522314   T   T   T
  0.7655134204449798  0.6616881096014904  0.3153009895520215   T   T   T
  0.0576872192540405  0.1419417622300078  0.2132671358165634   T   T   T
  0.4398585212190557  0.6442407799410422  0.2818785643992738   T   T   T
  0.5668061586600137  0.9075727371832700  0.3316957220529820   T   T   T
  0.3176977623939488  0.1742877072646601  0.3055988673251492   T   T   T
  0.1866226496069705  0.8533099522541240  0.3033074788852684   T   T   T
  0.1314848512448230  0.5504257301139276  0.3215410466377370   T   T   T
  0.9279956414757031  0.6691431085167049  0.4448492803219751   T   T   T
  0.6923490186356109  0.4207025478520738  0.4212139240199274   T   T   T
  0.8266088503109282  0.1556006158324700  0.4746691380452495   T   T   T
  0.5100107217798948  0.1584007793695461  0.4468742065823940   T   T   T
  0.4079920577830055  0.8282127636903226  0.4553596488202557   T   T   T
  0.1170768588326068  0.0540638298830690  0.4283798662829742   T   T   T
  0.9244986405837318  0.8550617097605705  0.5480858288610457   T   T   T
  0.0611339554837992  0.3615443607536852  0.4405180576146816   T   T   T
  0.8850099009332294  0.5503955670304548  0.5743195257589706   T   T   T
  0.6162348038819366  0.3341070258559454  0.5518578743350362   T   T   T
  0.5222825082393999  0.6692416324606429  0.5610090221690709   T   T   T
  0.1912935649960433  0.6507118065975951  0.5345155676534840   T   T   T
  0.3150309676675225  0.9163602584678469  0.5832569376258023   T   T   T
  0.0999381592850950  0.1831944052633435  0.5556643912437232   T   T   T
  0.8726810509271996  0.0691851653529867  0.6730272401303388   T   T   T
  0.7973556080925924  0.3705974313483281  0.6918217492285232   T   T   T
  0.6812001618234890  0.6822277624492500  0.6913519504088194   T   T   T
  0.4408279756213779  0.4311730633703624  0.6716524167185689   T   T   T
  0.5643460192173184  0.1567299768000736  0.7185169934899773   T   T   T
  0.9387283087724542  0.6483322142879460  0.7856809241535961   T   T   T
  0.2307483718986668  0.1894573948285870  0.6995040326649064   T   T   T
  0.8340769603694524  0.1871563737317523  0.8021073212310283   T   T   T
  0.1331551816587015  0.8291204309196715  0.7018471876907856   T   T   T
  0.6954065553653308  0.8708396533755730  0.7990534132508256   T   T   T
  0.6359653685359090  0.5682582139641159  0.8221260089881496   T   T   T
  0.3738526264226063  0.3409623728043167  0.8017753649105339   T   T   T
  0.2681384563040339  0.6679066046109963  0.8091771319503860   T   T   T
  0.9809164883712130  0.1846557624785020  0.9444334849978019   T   T   T
  0.8739674888082121  0.7879263126754967  0.9461455114575176   T   T   T
  0.0664028035695330  0.9141759171425190  0.8332388575194325   T   T   T
  0.6256820499474959  0.0470856964218332  0.9243098338844015   T   T   T
  0.5695738455678722  0.3518947426860108  0.9305674468309840   T   T   T
  0.4349775332169358  0.6630729845485194  0.9464806257931913   T   T   T
  0.1721857146493559  0.4263527138393043  0.9240206286484743   T   T   T
  0.3195771547672338  0.1502934130404092  0.9588015879743275   T   T   T
 
             NaN             NaN             NaN
             NaN             NaN             NaN
             NaN             NaN             NaN
             NaN             NaN             NaN
             NaN             NaN             NaN
             NaN             NaN             NaN
             NaN             NaN             NaN
             NaN             NaN             NaN
             NaN             NaN             NaN
             NaN             NaN             NaN
             NaN             NaN             NaN
             NaN             NaN             NaN
             NaN             NaN             NaN
             NaN             NaN             NaN
             NaN             NaN             NaN
             NaN             NaN             NaN
             NaN             NaN             NaN
             NaN             NaN             NaN
             NaN             NaN             NaN
             NaN             NaN             NaN
             NaN             NaN             NaN
             NaN             NaN             NaN
             NaN             NaN             NaN
             NaN             NaN             NaN
             NaN             NaN             NaN
             NaN             NaN             NaN
             NaN             NaN             NaN
             NaN             NaN             NaN
             NaN             NaN             NaN
             NaN             NaN             NaN
             NaN             NaN             NaN
             NaN             NaN             NaN
             NaN             NaN             NaN
             NaN             NaN             NaN
             NaN             NaN             NaN
             NaN             NaN             NaN
             NaN             NaN             NaN
             NaN             NaN             NaN
             NaN             NaN             NaN
             NaN             NaN             NaN
             NaN             NaN             NaN
             NaN             NaN             NaN
             NaN             NaN             NaN
             NaN             NaN             NaN
             NaN             NaN             NaN
             NaN             NaN             NaN
             NaN             NaN             NaN
             NaN             NaN             NaN
             NaN             NaN             NaN
             NaN             NaN             NaN
             NaN             NaN             NaN
             NaN             NaN             NaN
             NaN             NaN             NaN
             NaN             NaN             NaN
             NaN             NaN             NaN
             NaN             NaN             NaN
             NaN             NaN             NaN
             NaN             NaN             NaN
             NaN             NaN             NaN
             NaN             NaN             NaN
             NaN             NaN             NaN
             NaN             NaN             NaN
             NaN             NaN             NaN
             NaN             NaN             NaN
             NaN             NaN             NaN
             NaN             NaN             NaN
             NaN             NaN             NaN
             NaN             NaN             NaN
             NaN             NaN             NaN
             NaN             NaN             NaN
             NaN             NaN             NaN
             NaN             NaN             NaN
             NaN             NaN             NaN
             NaN             NaN             NaN
             NaN             NaN             NaN
             NaN             NaN             NaN
             NaN             NaN             NaN
             NaN             NaN             NaN
             NaN             NaN             NaN
             NaN             NaN             NaN
             NaN             NaN             NaN
             NaN             NaN             NaN
             NaN             NaN             NaN
