Ca Mn V  P  O 
 1.0000000000000000
     7.3615770339999997    0.0000000000000000    0.0000000000000000
     0.1764880905000000    8.2527450794000003    0.0000000000000000
     0.4044067635000000    0.4538283880000000   18.2490875539999990
 Ca  Mn  V   P   O  
   3   4   4  16  56
Selective dynamics
Cartesian
  5.7591875849442689  7.6506999655254244  8.0826628812300196   T   T   T
  1.2293666990766066  7.6059659954679733  2.2111933748730142   T   T   T
  6.8227512308893514  3.8333539088859112 15.9990977528572831   T   T   T
  4.5700906628836364  0.1023720781578421  2.3483369042742450   T   T   T
  2.6362640474812551  0.1700900869358200  6.8921596618275904   T   T   T
  1.0161510623828498  0.3723110822212486 11.5167630646010402   T   T   T
  6.7668862046964833  8.5225227563084403 16.0041629622295538   T   T   T
  1.2544802242536339  4.0774911524034110  2.2595502589901546   T   T   T
  6.9266426195155955  4.2588881194457926  6.7702745425099033   T   T   T
  5.1327138093746658  4.4682675426010334 11.3849474121890992   T   T   T
  3.3795886363802619  4.5755933065576135 15.9086033144600698   T   T   T
  6.4345271429306941  6.1876246224809401  0.5147821775021861   T   T   T
  3.5517919153923030  5.6220974779519564  0.5379452740399793   T   T   T
  6.6764056920854413  2.3231622286002849  4.0654327494242937   T   T   T
  2.1738226782408625  1.6615246938026176  4.1060488925621526   T   T   T
  4.7602897149223713  6.4617342110392419  5.1148908468843954   T   T   T
  1.8719182899199369  5.8117877766963266  5.0327510407962963   T   T   T
  4.9550472209299263  2.5368757630845145  8.6373768295462376   T   T   T
  7.5346308335141918  5.8736187820872852  9.6275816255522955   T   T   T
  0.5188359469043715  1.8319001147482088  8.6732548120059452   T   T   T
  3.0109525451348378  6.6231130685827253  9.7362127148053581   T   T   T
  6.0539591074866834  1.9556685054746439 13.1671546695323620   T   T   T
  3.2131233387713798  2.6396494193246740 13.1768959368994025   T   T   T
  5.7569604772282652  6.1403614220195717 14.1034676992065133   T   T   T
  1.2776580422148156  6.7350389023807322 14.2342564074442475   T   T   T
  4.3672485475389982  1.9163487212548729 17.7102783233210310   T   T   T
  1.5130954210975365  2.6004491650718133 17.7821779678183418   T   T   T
  5.1191839359188762  5.3163689981493834  0.8426608909357366   T   T   T
  6.3655480956085597  7.5292841360920919  1.3005946889318676   T   T   T
  4.3036151957694715  1.4762523893259931  0.9482283549688942   T   T   T
  3.2273636547728697  6.9983088039867614  1.1102404095185066   T   T   T
  2.8421369835697141  4.4924143411938493  1.3197101629927901   T   T   T
  7.0581377566727248  3.5424580088972806  3.1577012817934191   T   T   T
  1.0039501825246269  2.4401806345589931  1.0332276394047921   T   T   T
  0.2677989311857080  5.4214112592465034  1.1125025023725459   T   T   T
  5.4992942517650825  1.5477208156583460  3.5767691034572016   T   T   T
  5.0251330717666889  6.8794761921107845  3.6726191286473528   T   T   T
  2.7634649794033019  0.5430104087173713  3.2207007317651271   T   T   T
  2.3512487979270804  3.0594854039914705  3.5375492396633628   T   T   T
  1.5067586221143761  5.6962078267586209  3.5149925774368054   T   T   T
  6.6296693973446414  2.7463409858742729  5.5280781092512079   T   T   T
  5.8890871741025226  5.6333539170971436  5.7070685370936900   T   T   T
  0.5804980355275710  1.2775527097620034  3.9078547527475291   T   T   T
  3.4590508034705079  5.5031690709283145  5.1520884947379493   T   T   T
  4.5092344296850015  7.6805548599724141  6.0558340980534178   T   T   T
  2.5515364287290185  1.6109247954539214  5.5721925056126196   T   T   T
  1.6150236749731559  7.2085571016001966  5.5365034205752934   T   T   T
  1.1918576751827064  4.6993600560008169  5.8338823886158693   T   T   T
  7.1236700371976518  5.7411872580131735  8.1159466379048055   T   T   T
  5.3080591371219032  3.6838131867962134  7.6674522548109101   T   T   T
  6.2688743489489829  1.5293876879504400  8.6617764056203601   T   T   T
  3.9174980712878487  1.5429537412335050  8.1782198363534988   T   T   T
  3.3243523343854249  7.0500051067362479  8.2749654277147400   T   T   T
  0.9740937236611201  0.6505637015630145  7.7874619047193683   T   T   T
  7.2284027193181917  7.3141182957400952 10.0037682579714389   T   T   T
  0.6791845110788439  3.2026189114387908  8.0314401800844024   T   T   T
  6.8534941433938386  4.8136755865401035 10.4747133832198447   T   T   T
  4.7960723364291269  3.0409330163298840 10.0669405384163770   T   T   T
  4.2095591007300266  5.8024469372771392 10.1858470079700325   T   T   T
  1.7561025965561825  5.5975286168756391  9.7260222520727631   T   T   T
  2.7169989200022173  7.8319092539021264 10.6078020052624424   T   T   T
  0.9720365696845986  1.7748651541167342 10.1164251855219423   T   T   T
  6.6962567660506975  0.8582240688628334 12.3340193719576767   T   T   T
  6.2176488146670597  3.3707146075977326 12.5836580130722044   T   T   T
  5.4167698381165215  5.9657674740315425 12.6293249806401526   T   T   T
  3.6048150705760480  3.8725452592331728 12.2743001614532563   T   T   T
  4.4768176224561529  1.6312777463831991 13.1163813240709111   T   T   T
  7.3393505063115461  5.7093613543549377 14.3449900418230349   T   T   T
  2.0297425440530681  1.8805206513987789 12.6915621851260330   T   T   T
  6.4846588074126839  1.9833725668622462 14.6463227020317142   T   T   T
  1.4038918514835974  7.1110467207121690 12.7653132393158408   T   T   T
  5.5943364565958795  7.5422827208989434 14.6184936660472715   T   T   T
  5.1234545329028602  5.0336973176802280 14.9899499447450051   T   T   T
  3.0799638891418790  3.1254528360019163 14.6287234812413516   T   T   T
  2.4098112675443102  5.8794462446723532 14.7413205426850382   T   T   T
  7.6475896578241800  1.8897934797934310 17.2177554371866641   T   T   T
  6.9484127102530122  6.7929397944493086 17.2594314779977367   T   T   T
  1.0010453360711360  7.9467808853840607 15.1464680630262549   T   T   T
  4.9878761206909621  0.7567698829137387 16.9388697111665500   T   T   T
  4.6413513846546710  3.2880651909019645 17.0532761827313060   T   T   T
  3.7168494307941229  5.9505218483084077 17.2896945527310493   T   T   T
  1.7181566967443165  3.8927614422079353 16.9314394506177877   T   T   T
  2.7699263317472793  1.6218263603818006 17.5706268429099310   T   T   T
