Ca6 Mn12 P12 O48
1.0
       17.3642311096         0.0000000000         0.0000000000
       -4.4889973527        17.6620918099         0.0000000000
       -2.1106732976        -3.9515608152        11.7581953969
   Ca   Mn    P    O
   23   48   48  192
Direct
     0.749402523         0.624189973         0.749427021
     0.006482500         0.430720001         0.872717977
     0.006482500         0.930719972         0.872717977
     0.506482482         0.430720001         0.872717977
     0.506482482         0.930719972         0.872717977
     0.250000000         0.250000000         0.000000000
     0.250000000         0.750000000         0.000000000
     0.750000000         0.250000000         0.000000000
     0.750000000         0.750000000         0.000000000
     0.249402493         0.124190003         0.749427021
     0.249402493         0.624189973         0.749427021
     0.749402523         0.124190003         0.749427021
     0.250000000         0.000000000         0.500000000
     0.250000000         0.500000000         0.500000000
     0.750000000         0.000000000         0.500000000
     0.250597507         0.375809997         0.250573009
     0.250597507         0.875810027         0.250573009
     0.750597477         0.375809997         0.250573009
     0.750597477         0.875810027         0.250573009
     0.493517488         0.069279999         0.127281994
     0.493517488         0.569280028         0.127281994
     0.993517518         0.069279999         0.127281994
     0.993517518         0.569280028         0.127281994
     0.308306485         0.448045999         0.960722983
     0.308306485         0.948045969         0.960722983
     0.808306456         0.448045999         0.960722983
     0.808306456         0.948045969         0.960722983
     0.131748497         0.245555997         0.755324006
     0.131748497         0.745555997         0.755324006
     0.631748497         0.245555997         0.755324006
     0.631748497         0.745555997         0.755324006
     0.466960996         0.241935000         0.868144989
     0.466960996         0.741935015         0.868144989
     0.966961026         0.241935000         0.868144989
     0.966961026         0.741935015         0.868144989
     0.032007001         0.004567500         0.628068984
     0.032007001         0.504567504         0.628068984
     0.532006979         0.004567500         0.628068984
     0.532006979         0.504567504         0.628068984
     0.190704495         0.302323490         0.538402021
     0.190704495         0.802323461         0.538402021
     0.690704465         0.302323490         0.538402021
     0.690704465         0.802323461         0.538402021
     0.364742011         0.004150500         0.738690019
     0.364742011         0.504150510         0.738690019
     0.864742041         0.004150500         0.738690019
     0.864742041         0.504150510         0.738690019
     0.135258004         0.495849490         0.261310011
     0.135258004         0.995849490         0.261310011
     0.635258019         0.495849490         0.261310011
     0.635258019         0.995849490         0.261310011
     0.309295505         0.197676495         0.461598009
     0.309295505         0.697676480         0.461598009
     0.809295535         0.197676495         0.461598009
     0.809295535         0.697676480         0.461598009
     0.467992991         0.495432496         0.371930987
     0.467992991         0.995432496         0.371930987
     0.967993021         0.495432496         0.371930987
     0.967993021         0.995432496         0.371930987
     0.033039000         0.258064985         0.131854996
     0.033039000         0.758064985         0.131854996
     0.533038974         0.258064985         0.131854996
     0.533038974         0.758064985         0.131854996
     0.368251503         0.254444003         0.244675994
     0.368251503         0.754444003         0.244675994
     0.868251503         0.254444003         0.244675994
     0.868251503         0.754444003         0.244675994
     0.191693500         0.051954001         0.039276998
     0.191693500         0.551954031         0.039276998
     0.691693485         0.051954001         0.039276998
     0.691693485         0.551954031         0.039276998
     0.063164502         0.117050000         0.891147017
     0.063164502         0.617049992         0.891147017
     0.563164473         0.117050000         0.891147017
     0.563164473         0.617049992         0.891147017
     0.172423497         0.440068990         0.749890029
     0.172423497         0.940068960         0.749890029
     0.672423482         0.440068990         0.749890029
     0.672423482         0.940068960         0.749890029
     0.354889989         0.135226995         0.980059981
     0.354889989         0.635226965         0.980059981
     0.854889989         0.135226995         0.980059981
     0.854889989         0.635226965         0.980059981
     0.327316493         0.311482996         0.750715017
     0.327316493         0.811483026         0.750715017
     0.827316523         0.311482996         0.750715017
     0.827316523         0.811483026         0.750715017
     0.065922000         0.369315505         0.392201006
     0.065922000         0.869315505         0.392201006
     0.565922022         0.369315505         0.392201006
     0.565922022         0.869315505         0.392201006
     0.145265996         0.115141504         0.520691991
     0.145265996         0.615141511         0.520691991
     0.645265996         0.115141504         0.520691991
     0.645265996         0.615141511         0.520691991
     0.354734004         0.384858489         0.479308009
     0.354734004         0.884858489         0.479308009
     0.854734004         0.384858489         0.479308009
     0.854734004         0.884858489         0.479308009
     0.434078008         0.130684495         0.607798994
     0.434078008         0.630684495         0.607798994
     0.934077978         0.130684495         0.607798994
     0.934077978         0.630684495         0.607798994
     0.172683507         0.188517004         0.249284998
     0.172683507         0.688516974         0.249284998
     0.672683477         0.188517004         0.249284998
     0.672683477         0.688516974         0.249284998
     0.145109996         0.364773005         0.019940000
     0.145109996         0.864773035         0.019940000
     0.645110011         0.364773005         0.019940000
     0.645110011         0.864773035         0.019940000
     0.327576488         0.059930999         0.250110000
     0.327576488         0.559930980         0.250110000
     0.827576518         0.059930999         0.250110000
     0.827576518         0.559930980         0.250110000
     0.436835498         0.382950008         0.108852997
     0.436835498         0.882950008         0.108852997
     0.936835527         0.382950008         0.108852997
     0.936835527         0.882950008         0.108852997
     0.021319499         0.178093001         0.952781975
     0.021319499         0.678093016         0.952781975
     0.521319509         0.178093001         0.952781975
     0.521319509         0.678093016         0.952781975
     0.201461002         0.463479012         0.882821023
     0.201461002         0.963479042         0.882821023
     0.701461017         0.463479012         0.882821023
     0.701461017         0.963479042         0.882821023
     0.084201001         0.318691999         0.900717974
     0.084201001         0.818691969         0.900717974
     0.584200978         0.318691999         0.900717974
     0.584200978         0.818691969         0.900717974
     0.083600000         0.067450501         0.970103979
     0.083600000         0.567450523         0.970103979
     0.583599985         0.067450501         0.970103979
     0.583599985         0.567450523         0.970103979
     0.086424001         0.451546013         0.724774003
     0.086424001         0.951546013         0.724774003
     0.586423993         0.451546013         0.724774003
     0.586423993         0.951546013         0.724774003
     0.267879486         0.135143504         0.994701982
     0.267879486         0.635143518         0.994701982
     0.767879486         0.135143504         0.994701982
     0.767879486         0.635143518         0.994701982
     0.138699502         0.164168507         0.861666977
     0.138699502         0.664168477         0.861666977
     0.638699532         0.164168507         0.861666977
     0.638699532         0.664168477         0.861666977
     0.234763503         0.493469000         0.706230998
     0.234763503         0.993469000         0.706230998
     0.734763503         0.493469000         0.706230998
     0.734763503         0.993469000         0.706230998
     0.499785513         0.192036495         0.714134991
     0.499785513         0.692036510         0.714134991
     0.999785542         0.192036495         0.714134991
     0.999785542         0.692036510         0.714134991
     0.337693006         0.402184486         0.799682975
     0.337693006         0.902184486         0.799682975
     0.837692976         0.402184486         0.799682975
     0.837692976         0.902184486         0.799682975
     0.165457994         0.350499988         0.700065970
     0.165457994         0.850499988         0.700065970
     0.665457964         0.350499988         0.700065970
     0.665457964         0.850499988         0.700065970
     0.264699489         0.258473009         0.794058979
     0.264699489         0.758473039         0.794058979
     0.764699459         0.258473009         0.794058979
     0.764699459         0.758473039         0.794058979
     0.362468511         0.175472006         0.885273993
     0.362468511         0.675472021         0.885273993
     0.862468481         0.175472006         0.885273993
     0.862468481         0.675472021         0.885273993
     0.022741500         0.428930998         0.452749997
     0.022741500         0.928930998         0.452749997
     0.522741497         0.428930998         0.452749997
     0.522741497         0.928930998         0.452749997
     0.368546009         0.052582499         0.934958994
     0.368546009         0.552582502         0.934958994
     0.868546009         0.052582499         0.934958994
     0.868546009         0.552582502         0.934958994
     0.415730000         0.305884510         0.786647022
     0.415730000         0.805884480         0.786647022
     0.915730000         0.305884510         0.786647022
     0.915730000         0.805884480         0.786647022
     0.093117997         0.325197011         0.473585993
     0.093117997         0.825196981         0.473585993
     0.593118012         0.325197011         0.473585993
     0.593118012         0.825196981         0.473585993
     0.134211496         0.198551506         0.568046987
     0.134211496         0.698551536         0.568046987
     0.634211481         0.198551506         0.568046987
     0.634211481         0.698551536         0.568046987
     0.414404988         0.432736486         0.597949028
     0.414404988         0.932736516         0.597949028
     0.914404988         0.432736486         0.597949028
     0.914404988         0.932736516         0.597949028
     0.297045499         0.286805511         0.617072999
     0.297045499         0.786805511         0.617072999
     0.797045469         0.286805511         0.617072999
     0.797045469         0.786805511         0.617072999
     0.137173504         0.074646503         0.614983976
     0.137173504         0.574646473         0.614983976
     0.637173533         0.074646503         0.614983976
     0.637173533         0.574646473         0.614983976
     0.267121494         0.384648502         0.495119005
     0.267121494         0.884648502         0.495119005
     0.767121494         0.384648502         0.495119005
     0.767121494         0.884648502         0.495119005
     0.140267000         0.416327000         0.359501004
     0.140267000         0.916327000         0.359501004
     0.640267015         0.416327000         0.359501004
     0.640267015         0.916327000         0.359501004
     0.002357500         0.444808006         0.215315998
     0.002357500         0.944808006         0.215315998
     0.502357483         0.444808006         0.215315998
     0.502357483         0.944808006         0.215315998
     0.497642487         0.055192001         0.784684002
     0.497642487         0.555191994         0.784684002
     0.997642517         0.055192001         0.784684002
     0.997642517         0.555191994         0.784684002
     0.359732985         0.083673000         0.640498996
     0.359732985         0.583673000         0.640498996
     0.859732985         0.083673000         0.640498996
     0.859732985         0.583673000         0.640498996
     0.232878506         0.115351498         0.504881024
     0.232878506         0.615351498         0.504881024
     0.732878506         0.115351498         0.504881024
     0.732878506         0.615351498         0.504881024
     0.362826496         0.425353497         0.385015994
     0.362826496         0.925353527         0.385015994
     0.862826467         0.425353497         0.385015994
     0.862826467         0.925353527         0.385015994
     0.202954501         0.213194504         0.382927001
     0.202954501         0.713194489         0.382927001
     0.702954531         0.213194504         0.382927001
     0.702954531         0.713194489         0.382927001
     0.085594997         0.067263499         0.402051002
     0.085594997         0.567263484         0.402051002
     0.585595012         0.067263499         0.402051002
     0.585595012         0.567263484         0.402051002
     0.365788490         0.301448494         0.431953013
     0.365788490         0.801448464         0.431953013
     0.865788460         0.301448494         0.431953013
     0.865788460         0.801448464         0.431953013
     0.406881988         0.174803004         0.526413977
     0.406881988         0.674803019         0.526413977
     0.906881988         0.174803004         0.526413977
     0.906881988         0.674803019         0.526413977
     0.084270000         0.194115505         0.213352993
     0.084270000         0.694115520         0.213352993
     0.584270000         0.194115505         0.213352993
     0.584270000         0.694115520         0.213352993
     0.131454006         0.447417498         0.065040998
     0.131454006         0.947417498         0.065040998
     0.631453991         0.447417498         0.065040998
     0.631453991         0.947417498         0.065040998
     0.477258503         0.071069002         0.547249973
     0.477258503         0.571069002         0.547249973
     0.977258503         0.071069002         0.547249973
     0.977258503         0.571069002         0.547249973
     0.137531504         0.324528009         0.114726000
     0.137531504         0.824527979         0.114726000
     0.637531519         0.324528009         0.114726000
     0.637531519         0.824527979         0.114726000
     0.235300496         0.241527006         0.205941007
     0.235300496         0.741527021         0.205941007
     0.735300481         0.241527006         0.205941007
     0.735300481         0.741527021         0.205941007
     0.334542006         0.149499997         0.299934000
     0.334542006         0.649500012         0.299934000
     0.834542036         0.149499997         0.299934000
     0.834542036         0.649500012         0.299934000
     0.162306994         0.097815499         0.200316995
     0.162306994         0.597815514         0.200316995
     0.662307024         0.097815499         0.200316995
     0.662307024         0.597815514         0.200316995
     0.000214500         0.307963490         0.285865009
     0.000214500         0.807963490         0.285865009
     0.500214517         0.307963490         0.285865009
     0.500214517         0.807963490         0.285865009
     0.265236497         0.006531000         0.293769002
     0.265236497         0.506531000         0.293769002
     0.765236497         0.006531000         0.293769002
     0.765236497         0.506531000         0.293769002
     0.361300498         0.335831493         0.138332993
     0.361300498         0.835831523         0.138332993
     0.861300468         0.335831493         0.138332993
     0.861300468         0.835831523         0.138332993
     0.232120499         0.364856511         0.005298000
     0.232120499         0.864856482         0.005298000
     0.732120514         0.364856511         0.005298000
     0.732120514         0.864856482         0.005298000
     0.413576007         0.048454002         0.275225997
     0.413576007         0.548453987         0.275225997
     0.913576007         0.048454002         0.275225997
     0.913576007         0.548453987         0.275225997
     0.416399986         0.432549506         0.029896000
     0.416399986         0.932549477         0.029896000
     0.916399956         0.432549506         0.029896000
     0.916399956         0.932549477         0.029896000
     0.415798992         0.181308001         0.099281996
     0.415798992         0.681308031         0.099281996
     0.915799022         0.181308001         0.099281996
     0.915799022         0.681308031         0.099281996
     0.298539013         0.036520999         0.117178999
     0.298539013         0.536521018         0.117178999
     0.798539042         0.036520999         0.117178999
     0.798539042         0.536521018         0.117178999
     0.478680491         0.321907014         0.047217999
     0.478680491         0.821907043         0.047217999
     0.978680491         0.321907014         0.047217999
     0.978680491         0.821907043         0.047217999
