Ca Sc V  O 
 1.0000000000000000
     4.9371661199999997    0.5552690900000000    0.0148497500000000
     0.5469413400000001    4.9041799399999997    0.0070705500000000
    -2.7323290000000000   -2.7240472900000001    7.0913947300000002
 Ca  Sc  V   O  
   1   2   2   8
Cartesian
  2.3333984381105113 -0.9600834942554786  6.6968660649170344
  2.8856602528783193  3.9599872097809694  2.3294605168406650
 -0.1353435440694210 -1.2243069078803503  4.4674980781990001
  0.1442156566910995  1.2314363064658622  2.5684674887720149
  2.6060508476291964  1.5029845132561499  4.5347804907390303
  1.4572978885708334  2.5333486832891832  2.9694784110124184
  3.7642628519606176  0.4804465735004051  2.9736337933375436
 -1.2981697642201397 -0.0296961150315086  5.6793364776054212
  1.5631221815160126  2.4792270197883766  5.6894519566947039
  1.3285012150556039  0.1455533656867470  4.0478252282194198
 -1.0510792373535018  2.3100726853442115  4.0459777806784354
  4.0940561954566528  2.7481411178077444  1.3065307584348500
  1.1357999786927497  0.2688732505564779  1.2947756694983967
