Ca V  Co O 
1.0
       19.6220893860         0.0000000000         0.0000000000
      -16.1260954746        11.1792413256         0.0000000000
       -3.6838871063         1.1520294141        12.2157469957
   Ca    V   Co    O
   17   54   18  144
Direct
     0.672908843         0.660424531         0.542885602
     0.339575529         0.993757844         0.542885602
     0.339575529         0.993757844         0.042885602
     0.339575529         0.327091187         0.042885602
     0.339575529         0.660424531         0.542885602
     0.339575529         0.660424531         0.042885602
     0.672908843         0.993757844         0.542885602
     0.672908843         0.993757844         0.042885602
     0.672908843         0.327091187         0.542885602
     0.672908843         0.327091187         0.042885602
     0.672908843         0.660424531         0.042885602
     0.006242196         0.993757844         0.542885602
     0.006242196         0.993757844         0.042885602
     0.006242196         0.327091187         0.542885602
     0.006242196         0.327091187         0.042885602
     0.006242196         0.660424531         0.542885602
     0.006242196         0.660424531         0.042885602
     0.128962353         0.204371095         0.156124383
     0.128962353         0.204371095         0.656124353
     0.128962353         0.537704408         0.156124383
     0.128962353         0.537704408         0.656124353
     0.128962353         0.871037781         0.156124383
     0.128962353         0.871037781         0.656124353
     0.462295681         0.204371095         0.156124383
     0.462295681         0.204371095         0.656124353
     0.462295681         0.537704408         0.156124383
     0.462295681         0.537704408         0.656124353
     0.462295681         0.871037781         0.156124383
     0.462295681         0.871037781         0.656124353
     0.795629025         0.204371095         0.156124383
     0.795629025         0.204371095         0.656124353
     0.795629025         0.537704408         0.156124383
     0.795629025         0.537704408         0.656124353
     0.795629025         0.871037781         0.156124383
     0.795629025         0.871037781         0.656124353
     0.202120528         0.131212816         0.346036017
     0.202120528         0.131212816         0.846036017
     0.202120528         0.464546144         0.346036017
     0.202120528         0.464546144         0.846036017
     0.202120528         0.797879457         0.346036017
     0.202120528         0.797879457         0.846036017
     0.535453856         0.131212816         0.346036017
     0.535453856         0.131212816         0.846036017
     0.535453856         0.464546144         0.346036017
     0.535453856         0.464546144         0.846036017
     0.535453856         0.797879457         0.346036017
     0.535453856         0.797879457         0.846036017
     0.868787169         0.131212816         0.346036017
     0.868787169         0.131212816         0.846036017
     0.868787169         0.464546144         0.346036017
     0.868787169         0.464546144         0.846036017
     0.868787169         0.797879457         0.346036017
     0.868787169         0.797879457         0.846036017
     0.098289579         0.235043749         0.354750812
     0.098289579         0.235043749         0.854750812
     0.098289579         0.568377078         0.354750812
     0.098289579         0.568377078         0.854750812
     0.098289579         0.901710391         0.354750812
     0.098289579         0.901710391         0.854750812
     0.431622922         0.235043749         0.354750812
     0.431622922         0.235043749         0.854750812
     0.431622922         0.568377078         0.354750812
     0.431622922         0.568377078         0.854750812
     0.431622922         0.901710391         0.354750812
     0.431622922         0.901710391         0.854750812
     0.764956236         0.235043749         0.354750812
     0.764956236         0.235043749         0.854750812
     0.764956236         0.568377078         0.354750812
     0.764956236         0.568377078         0.854750812
     0.764956236         0.901710391         0.354750812
     0.764956236         0.901710391         0.854750812
     0.237055063         0.096278287         0.152120352
     0.237055063         0.096278287         0.652120352
     0.237055063         0.429611623         0.152120352
     0.237055063         0.429611623         0.652120352
     0.237055063         0.762944937         0.152120352
     0.237055063         0.762944937         0.652120352
     0.570388377         0.096278287         0.152120352
     0.570388377         0.096278287         0.652120352
     0.570388377         0.429611623         0.152120352
     0.570388377         0.429611623         0.652120352
     0.570388377         0.762944937         0.152120352
     0.570388377         0.762944937         0.652120352
     0.903721750         0.096278287         0.152120352
     0.903721750         0.096278287         0.652120352
     0.903721750         0.429611623         0.152120352
     0.903721750         0.429611623         0.652120352
     0.903721750         0.762944937         0.152120352
     0.903721750         0.762944937         0.652120352
     0.046376452         0.286956847         0.347374469
     0.046376452         0.286956847         0.847374439
     0.046376452         0.620290160         0.347374469
     0.046376452         0.620290160         0.847374439
     0.046376452         0.953623533         0.347374469
     0.046376452         0.953623533         0.847374439
     0.379709780         0.286956847         0.347374469
     0.379709780         0.286956847         0.847374439
     0.379709780         0.620290160         0.347374469
     0.379709780         0.620290160         0.847374439
     0.379709780         0.953623533         0.347374469
     0.379709780         0.953623533         0.847374439
     0.713043094         0.286956847         0.347374469
     0.713043094         0.286956847         0.847374439
     0.713043094         0.620290160         0.347374469
     0.713043094         0.620290160         0.847374439
     0.713043094         0.953623533         0.347374469
     0.713043094         0.953623533         0.847374439
     0.077517644         0.255815685         0.165355012
     0.077517644         0.255815685         0.665355027
     0.077517644         0.589148998         0.165355012
     0.077517644         0.589148998         0.665355027
     0.077517644         0.922482371         0.165355012
     0.077517644         0.922482371         0.665355027
     0.410850972         0.255815685         0.165355012
     0.410850972         0.255815685         0.665355027
     0.410850972         0.589148998         0.165355012
     0.410850972         0.589148998         0.665355027
     0.410850972         0.922482371         0.165355012
     0.410850972         0.922482371         0.665355027
     0.744184315         0.255815685         0.165355012
     0.744184315         0.255815685         0.665355027
     0.744184315         0.589148998         0.165355012
     0.744184315         0.589148998         0.665355027
     0.744184315         0.922482371         0.165355012
     0.744184315         0.922482371         0.665355027
     0.125447735         0.207885563         0.493081450
     0.125447735         0.207885563         0.993081450
     0.125447735         0.541218877         0.493081450
     0.125447735         0.541218877         0.993081450
     0.125447735         0.874552250         0.493081450
     0.125447735         0.874552250         0.993081450
     0.458781064         0.207885563         0.493081450
     0.458781064         0.207885563         0.993081450
     0.458781064         0.541218877         0.493081450
     0.458781064         0.541218877         0.993081450
     0.458781064         0.874552250         0.493081450
     0.458781064         0.874552250         0.993081450
     0.792114377         0.207885563         0.493081450
     0.792114377         0.207885563         0.993081450
     0.792114377         0.541218877         0.493081450
     0.792114377         0.541218877         0.993081450
     0.792114377         0.874552250         0.493081450
     0.792114377         0.874552250         0.993081450
     0.143935606         0.189397708         0.306855083
     0.143935606         0.189397708         0.806855083
     0.143935606         0.522731066         0.306855083
     0.143935606         0.522731066         0.806855083
     0.143935606         0.856064379         0.306855083
     0.143935606         0.856064379         0.806855083
     0.477268934         0.189397708         0.306855083
     0.477268934         0.189397708         0.806855083
     0.477268934         0.522731066         0.306855083
     0.477268934         0.522731066         0.806855083
     0.477268934         0.856064379         0.306855083
     0.477268934         0.856064379         0.806855083
     0.810602248         0.189397708         0.306855083
     0.810602248         0.189397708         0.806855083
     0.810602248         0.522731066         0.306855083
     0.810602248         0.522731066         0.806855083
     0.810602248         0.856064379         0.306855083
     0.810602248         0.856064379         0.806855083
     0.183564797         0.149768531         0.180037990
     0.183564797         0.149768531         0.680037975
     0.183564797         0.483101875         0.180037990
     0.183564797         0.483101875         0.680037975
     0.183564797         0.816435218         0.180037990
     0.183564797         0.816435218         0.680037975
     0.516898155         0.149768531         0.180037990
     0.516898155         0.149768531         0.680037975
     0.516898155         0.483101875         0.180037990
     0.516898155         0.483101875         0.680037975
     0.516898155         0.816435218         0.180037990
     0.516898155         0.816435218         0.680037975
     0.850231469         0.149768531         0.180037990
     0.850231469         0.149768531         0.680037975
     0.850231469         0.483101875         0.180037990
     0.850231469         0.483101875         0.680037975
     0.850231469         0.816435218         0.180037990
     0.850231469         0.816435218         0.680037975
     0.204149738         0.129183590         0.486098856
     0.204149738         0.129183590         0.986098886
     0.204149738         0.462516934         0.486098856
     0.204149738         0.462516934         0.986098886
     0.204149738         0.795850277         0.486098856
     0.204149738         0.795850277         0.986098886
     0.537483096         0.129183590         0.486098856
     0.537483096         0.129183590         0.986098886
     0.537483096         0.462516934         0.486098856
     0.537483096         0.462516934         0.986098886
     0.537483096         0.795850277         0.486098856
     0.537483096         0.795850277         0.986098886
     0.870816410         0.129183590         0.486098856
     0.870816410         0.129183590         0.986098886
     0.870816410         0.462516934         0.486098856
     0.870816410         0.462516934         0.986098886
     0.870816410         0.795850277         0.486098856
     0.870816410         0.795850277         0.986098886
     0.254383028         0.078950308         0.334561169
     0.254383028         0.078950308         0.834561169
     0.254383028         0.412283629         0.334561169
     0.254383028         0.412283629         0.834561169
     0.254383028         0.745616972         0.334561169
     0.254383028         0.745616972         0.834561169
     0.587716341         0.078950308         0.334561169
     0.587716341         0.078950308         0.834561169
     0.587716341         0.412283629         0.334561169
     0.587716341         0.412283629         0.834561169
     0.587716341         0.745616972         0.334561169
     0.587716341         0.745616972         0.834561169
     0.921049714         0.078950308         0.334561169
     0.921049714         0.078950308         0.834561169
     0.921049714         0.412283629         0.334561169
     0.921049714         0.412283629         0.834561169
     0.921049714         0.745616972         0.334561169
     0.921049714         0.745616972         0.834561169
     0.291955292         0.041378003         0.134716764
     0.291955292         0.041378003         0.634716749
     0.291955292         0.374711335         0.134716764
     0.291955292         0.374711335         0.634716749
     0.291955292         0.708044648         0.134716764
     0.291955292         0.708044648         0.634716749
     0.625288606         0.041378003         0.134716764
     0.625288606         0.041378003         0.634716749
     0.625288606         0.374711335         0.134716764
     0.625288606         0.374711335         0.634716749
     0.625288606         0.708044648         0.134716764
     0.625288606         0.708044648         0.634716749
     0.958621979         0.041378003         0.134716764
     0.958621979         0.041378003         0.634716749
     0.958621979         0.374711335         0.134716764
     0.958621979         0.374711335         0.634716749
     0.958621979         0.708044648         0.134716764
     0.958621979         0.708044648         0.634716749
