Ca1 Fe4 P4 O16
1.0
       17.2069931030         0.0000000000         0.0000000000
       -0.4318521888         9.4921946179         0.0000000000
       -3.0429549942        -0.0818802885        10.1170424904
   Ca   Fe    P    O
    3   16   16   64
Direct
     0.504561484         0.892068028         0.322719991
     0.004561500         0.892068028         0.322719991
     0.004561500         0.892068028         0.822719991
     0.102064498         0.457837999         0.213969007
     0.102064498         0.457837999         0.713968992
     0.602064490         0.457837999         0.213969007
     0.602064490         0.457837999         0.713968992
     0.171589494         0.977440000         0.024103500
     0.171589494         0.977440000         0.524103522
     0.671589494         0.977440000         0.024103500
     0.671589494         0.977440000         0.524103522
     0.353080988         0.017751999         0.489583492
     0.353080988         0.017751999         0.989583492
     0.853080988         0.017751999         0.489583492
     0.853080988         0.017751999         0.989583492
     0.401412487         0.520798981         0.269176513
     0.401412487         0.520798981         0.769176483
     0.901412487         0.520798981         0.269176513
     0.901412487         0.520798981         0.769176483
     0.085920498         0.650674999         0.432968497
     0.085920498         0.650674999         0.932968497
     0.585920513         0.650674999         0.432968497
     0.585920513         0.650674999         0.932968497
     0.148491502         0.125891000         0.294346511
     0.148491502         0.125891000         0.794346511
     0.648491502         0.125891000         0.294346511
     0.648491502         0.125891000         0.794346511
     0.351776987         0.838284016         0.207009494
     0.351776987         0.838284016         0.707009494
     0.851776958         0.838284016         0.207009494
     0.851776958         0.838284016         0.707009494
     0.401586503         0.359026998         0.061014500
     0.401586503         0.359026998         0.561014473
     0.901586533         0.359026998         0.061014500
     0.901586533         0.359026998         0.561014473
     0.496027499         0.661662996         0.339791000
     0.496027499         0.661662996         0.839791000
     0.996027470         0.661662996         0.339791000
     0.996027470         0.661662996         0.839791000
     0.080807000         0.064715996         0.355383009
     0.080807000         0.064715996         0.855383039
     0.580806971         0.064715996         0.355383009
     0.580806971         0.064715996         0.855383039
     0.102633998         0.815900981         0.464969993
     0.102633998         0.815900981         0.964969993
     0.602634013         0.815900981         0.464969993
     0.602634013         0.815900981         0.964969993
     0.135321006         0.056841001         0.157382995
     0.135321006         0.056841001         0.657382965
     0.635321021         0.056841001         0.157382995
     0.635321021         0.056841001         0.657382965
     0.143337503         0.603681028         0.358031511
     0.143337503         0.603681028         0.858031511
     0.643337488         0.603681028         0.358031511
     0.643337488         0.603681028         0.858031511
     0.089408502         0.572448015         0.057801001
     0.089408502         0.572448015         0.557801008
     0.589408517         0.572448015         0.057801001
     0.589408517         0.572448015         0.557801008
     0.154003993         0.283681005         0.288958013
     0.154003993         0.283681005         0.788958013
     0.654003978         0.283681005         0.288958013
     0.654003978         0.283681005         0.788958013
     0.226343006         0.066655003         0.397716999
     0.226343006         0.066655003         0.897716999
     0.726343036         0.066655003         0.397716999
     0.726343036         0.066655003         0.897716999
     0.278728485         0.917195976         0.116726004
     0.278728485         0.917195976         0.616725981
     0.778728485         0.917195976         0.116726004
     0.778728485         0.917195976         0.616725981
     0.330048501         0.682358027         0.218655005
     0.330048501         0.682358027         0.718654990
     0.830048501         0.682358027         0.218655005
     0.830048501         0.682358027         0.718654990
     0.397990495         0.429881990         0.427473992
     0.397990495         0.429881990         0.927474022
     0.897990465         0.429881990         0.427473992
     0.897990465         0.429881990         0.927474022
     0.332475513         0.404915988         0.117597498
     0.332475513         0.404915988         0.617597520
     0.832475543         0.404915988         0.117597498
     0.832475543         0.404915988         0.617597520
     0.387052506         0.911509991         0.345714986
     0.387052506         0.911509991         0.845714986
     0.887052536         0.911509991         0.345714986
     0.887052536         0.911509991         0.845714986
     0.406045496         0.199693993         0.047436502
     0.406045496         0.199693993         0.547436476
     0.906045496         0.199693993         0.047436502
     0.906045496         0.199693993         0.547436476
     0.421463013         0.869153023         0.140840501
     0.421463013         0.869153023         0.640840530
     0.921463013         0.869153023         0.140840501
     0.921463013         0.869153023         0.640840530
     0.476995498         0.419928014         0.175629005
     0.476995498         0.419928014         0.675629020
     0.976995468         0.419928014         0.175629005
     0.976995468         0.419928014         0.675629020
