Ca Cr P  O 
1.0
        8.7485284805         0.0000000000         0.0000000000
        0.0000065873         9.8939285278         0.0000000000
       -0.0000058994         2.4026902022         6.9821501366
   Ca   Cr    P    O
    3    4    8   28
Direct
     0.354362488         0.625152528         0.759743392
     0.854359508         0.374838829         0.240286231
     0.854359508         0.874838829         0.240286231
     0.756481230         0.106948361         0.769541621
     0.756481230         0.606948376         0.769541621
     0.256436616         0.393057704         0.230429143
     0.256436616         0.893057704         0.230429143
     0.062840708         0.191937342         0.009682536
     0.062840708         0.691937327         0.009682536
     0.562844992         0.307997614         0.990439951
     0.562844992         0.807997584         0.990439951
     0.971546352         0.388666898         0.616138399
     0.971546352         0.888666868         0.616138399
     0.471595317         0.111427456         0.383747309
     0.471595317         0.611427426         0.383747309
     0.081681252         0.277123839         0.778364956
     0.081681252         0.777123809         0.778364956
     0.581599474         0.222784981         0.221760258
     0.581599474         0.722784996         0.221760258
     0.072346643         0.302148193         0.115637898
     0.072346643         0.802148223         0.115637898
     0.572325766         0.197849050         0.884363711
     0.572325766         0.697849035         0.884363711
     0.325455964         0.192941442         0.408670336
     0.325455964         0.692941427         0.408670336
     0.825324297         0.306966454         0.591357708
     0.825324297         0.806966424         0.591357708
     0.559790134         0.077240169         0.570653737
     0.559790134         0.577240169         0.570653737
     0.059901543         0.422785640         0.429183632
     0.059901543         0.922785640         0.429183632
     0.442733526         0.484123319         0.317198634
     0.442733526         0.984123349         0.317198634
     0.942693949         0.015961653         0.682878554
     0.942693949         0.515961647         0.682878554
     0.410806626         0.387461334         0.950396359
     0.410806626         0.887461305         0.950396359
     0.910819530         0.112565964         0.049565792
     0.910819530         0.612565994         0.049565792
     0.704336226         0.404214442         0.964433491
     0.704336226         0.904214442         0.964433491
     0.204319790         0.095806815         0.035526451
     0.204319790         0.595806837         0.035526451
