Ca Mn P O                               
   1.00000000000000     
     9.4992530039084802   -0.1175588101507080   -0.0767906045786497
     0.6122219923433120    9.4405842304253405    0.0890838277868374
    -8.6065145640824401   -7.5379902478219103   21.3265782776566013
   Ca   Mn   P    O 
    11    24    24    96
Direct
  0.6275254502662408  0.6267259288202301  0.5646063347069142
  0.4983642881461658  0.4925279050123096  0.9957123885006387
  0.3354379171264523  0.3906414773439353  0.1736551231435385
  0.3313249446134480  0.3940053114217831  0.6774701351172958
  0.7561078534919701  0.7498659645049842  0.1270156464143198
  0.0110789002468419  0.0125174958572235  0.2589319935768030
  0.9730238679878023  0.9694556641016477  0.7278463134540276
  0.2762579528706651  0.2880584690824461  0.3975023407416717
  0.2375928568405812  0.2328229262410136  0.8636977992671608
  0.6608128817446371  0.6184530105279585  0.3278324816991065
  0.6698552296145208  0.6027467038845610  0.8258863569596486
  0.4637644313220223  0.1484095750665811  0.0454856362394925
  0.4669727888264659  0.1713635455354709  0.5480597345828019
  0.0219206072503426  0.3437284816534594  0.2013346929903402
  0.0131103724730078  0.3372293383703556  0.7036793649329509
  0.0867016585870616  0.8145014167558150  0.0719386651300406
  0.0752142497123093  0.7998122197817700  0.5741784749557046
  0.8773320436790872  0.3770569416294459  0.0594000011994561
  0.8852618830933071  0.3698719078330330  0.5577142312878455
  0.6386513546900188  0.1117347504642670  0.1874948483726612
  0.6233790364994638  0.0924310015084338  0.6853744049226845
  0.4014943010213862  0.7292056103342519  0.1731864949379376
  0.4017296796148934  0.7356987484927843  0.6741119630487027
  0.5953536176485716  0.2736932952002226  0.3241946444885584
  0.6019837242997165  0.2646032341632472  0.8285004652083922
  0.3711000462587217  0.9011730799988195  0.3133877373443358
  0.3608518127740550  0.8800606330730066  0.8122606306129978
  0.1343958336475680  0.6311594238985448  0.4401331405912227
  0.1264274047187062  0.6150959784097753  0.9408951892435915
  0.9807872612018669  0.6591088061315488  0.2951078450071064
  0.9798707878326075  0.6540440096297273  0.7999536654323020
  0.9156485009850335  0.1917873159005973  0.4240529497727460
  0.9180638134548588  0.1808348602736456  0.9282610951362393
  0.5322482114525128  0.8545198765547287  0.4546009322305378
  0.5400361022823799  0.8438905225767780  0.9549261918518011
  0.2076271839602788  0.4136510145223271  0.0386367660655295
  0.2040060005562396  0.4327746940169002  0.5383899245841041
  0.8202816882024048  0.0565989260463181  0.0880953506299813
  0.8156841996623450  0.0598092391041945  0.5883112815685151
  0.2957624361061109  0.0818208906365048  0.2069829720935832
  0.2929541259428674  0.0822755838635897  0.7114405504428437
  0.4237440206930468  0.8324802227519980  0.0645005313810435
  0.4019947587850000  0.8494542322382661  0.5614708009337486
  0.0812583133907098  0.6664713679980280  0.1801546653400030
  0.0823496509968520  0.6626673865168549  0.6857576871712061
  0.6615342243555619  0.4547192918882089  0.1668054926982855
  0.6588855364383508  0.4460535387764846  0.6749400752122825
  0.3342965568084588  0.5495818741139227  0.3276812364181063
  0.3399286200837618  0.5395879188014426  0.8330318156264107
  0.9216862589072272  0.3374800476447417  0.3152292828469529
  0.9200410961478716  0.3296570613452438  0.8203085900521644
  0.5817772712426509  0.1670576218174002  0.4351553680057350
  0.5801839642074518  0.1611529412492544  0.9370103549537732
  0.7069865506849640  0.9160476865423917  0.2893809472390783
  0.7038022177861889  0.9155877247611424  0.7927589004196985
  0.1828168725191572  0.9489436035943583  0.4105370075294756
  0.1847744170709076  0.9380130743202586  0.9134097925809075
  0.7972918008799397  0.5833147172636307  0.4582153522767019
  0.7970181158865806  0.5798972577456531  0.9624125897913673
  0.0377580181625145  0.3572775264733314  0.0147576494258460
  0.0389008159221844  0.3597647158860410  0.5128449700645993
  0.6578402386106622  0.0340748001907467  0.0382926419829642
  0.6537638442049476  0.0431880423047758  0.5385005989400540
  0.4560570483234134  0.0046529552668730  0.0944063397232035
  0.4387698834230012  0.0203511543508288  0.5927568468912070
  0.3052373088914221  0.2936554691952656  0.0629654232237054
  0.3125973974528533  0.3259895079440603  0.5682872838624429
  0.2015290444779538  0.2039939434755407  0.1835769867912687
  0.2007413124954045  0.2063215898845212  0.6887060030824552
  0.2535501772813172  0.7830288341208775  0.0293016687019593
  0.2309167181150888  0.8060488363643872  0.5289259590197011
  0.0497724026781111  0.4916921653535620  0.1518712054155810
  0.0466906155391670  0.4895725144634834  0.6534122550886563
  0.2459995779061053  0.5569941733641975  0.0966860857690488
  0.2232910494560420  0.5834258749163950  0.5919449911328648
  0.5135838005077163  0.7566242873876676  0.0204346063917819
  0.4799795798601959  0.7724479513882164  0.5129842366297838
  0.0082383386984865  0.7335061769427511  0.1269741653860314
  0.0066469261536270  0.7510875644716980  0.6403619379598203
  0.7586239168861032  0.5555280004577997  0.0170258141225326
  0.7786587015170067  0.5435313290489179  0.5127926488237943
  0.8123504914067273  0.0174724496679492  0.1462603275563664
  0.8035487409587704  0.0358207282931600  0.6478985263646843
  0.2563017917832713  0.0582918193772094  0.2609400854974956
  0.2502758884291328  0.0609894469319606  0.7657258968248414
  0.5970530315550963  0.2883960175376278  0.1458900611387333
  0.5859870206837937  0.2843322186675524  0.6555502834690947
  0.8771594086450444  0.2245872947592805  0.1094149396347169
  0.8809398066362654  0.2255579297166893  0.6084285910104540
  0.4665796129554731  0.1384260436698272  0.2300595916560093
  0.4643116113753974  0.1349303277086276  0.7352372481861298
  0.6596626251596017  0.4984656737287078  0.1095697227640097
  0.6581860576170986  0.4741386545087533  0.6160580620567618
  0.4995137576999170  0.7644091923380798  0.1179122031178246
  0.4826940974460997  0.7777602156604416  0.6138774934154189
  0.9922547041532230  0.7417607644274321  0.2245829224968887
  0.0168147335023236  0.7329944451088548  0.7381833078869817
  0.1727785973374660  0.5303688495554632  0.2775611533136230
  0.1781452212893092  0.5097803307264008  0.7835034847148592
  0.2668741099260564  0.9284420859397378  0.1541199672430991
  0.2609570545634745  0.9293084349631113  0.6589697610665718
  0.2533956440371694  0.7065694906306561  0.2166810432926877
  0.2593355669169087  0.6904750423799617  0.7175940259242988
  0.5542954168025590  0.5497084568257461  0.1997307735256851
  0.5541617375966614  0.5504235989067990  0.7065303714956138
  0.0789116662085774  0.0530774466764725  0.4373772785620479
  0.0817329379838861  0.0419390963642237  0.9409757152097888
  0.9221375971974222  0.9523759201615547  0.0599051513986452
  0.9157747810814663  0.9478460610358455  0.5623693078886260
  0.4415597307436349  0.4524262050885977  0.2947026375041475
  0.4506690671609109  0.4467693411740642  0.8016500840374902
  0.7481510433951926  0.2954561717136553  0.2802935105085017
  0.7472257045643996  0.2937998028496256  0.7856656626791677
  0.8249072840477399  0.4805553337184597  0.2150362239220489
  0.8230413967650209  0.4701790587919284  0.7231753857149555
  0.7391365330106300  0.0708327149124745  0.3409155799271294
  0.7350328949292537  0.0686512201750004  0.8462790495635375
  1.0010131497382364  0.2647874769324941  0.2673955368419225
  0.0047996532010876  0.2529963580596145  0.7743770004795760
  0.5027331174662771  0.2252019629745431  0.3788095563903159
  0.5037267439812910  0.2362782032657430  0.8856223803742238
  0.3276010111794656  0.5050847264989766  0.3824608666940450
  0.3397532895590930  0.4951380057994664  0.8898972316696065
  0.5364821781350558  0.8611109919975126  0.2674326904765791
  0.5329021831452040  0.8603427709368956  0.7703446607040276
  0.1266292985218622  0.7805741590827627  0.3880947301733584
  0.1257345946065900  0.7699578106731569  0.8914267492348955
  0.4067194973720301  0.7142194381244353  0.3500880592148123
  0.4020326943290964  0.7065902273223442  0.8545937257516838
  0.7460916617073756  0.9335001889006379  0.2338378029792786
  0.7399387773692306  0.9393864837248429  0.7382693101574581
  0.1931576456526281  0.9880989175071893  0.3527419079320688
  0.1968955889373012  0.9776591909234622  0.8563950724399021
  0.2390968372469198  0.4567627966888992  0.4837637700688097
  0.2458316057015991  0.4424982279218508  0.9850214088790417
  0.9980081505240169  0.2612044300433305  0.3656380956337678
  0.9965616604852450  0.2645998218899013  0.8738423715353014
  0.4940030626041393  0.2430056924360680  0.4793286352572790
  0.4938811944757316  0.2350600850803349  0.9825947279996359
  0.7532701082499018  0.4458020315092264  0.3974416967523549
  0.7604876619732237  0.4332017668819843  0.9062398671700740
  0.9531844924689167  0.5108716184413303  0.3445283008043811
  0.9528133094473542  0.5050564969797389  0.8483951748592043
  0.7529834168546830  0.2134188780978275  0.4681077467892035
  0.7508781503804065  0.2098421634259356  0.9715098146043067
  0.8008273346814955  0.7941780862462566  0.3132729924572183
  0.7984798048497885  0.7930500608137242  0.8158358177117264
  0.6913731017894850  0.7050001967454701  0.4393557839606375
  0.6969381955906234  0.6963180593811052  0.9363014354538719
  0.5527319072691859  0.9924956732462539  0.4064432779595129
  0.5468534998392949  0.9900198409122555  0.9058296332356367
  0.3437089946564585  0.9752679954144269  0.4611423470699902
  0.3462283485070838  0.9574114477137282  0.9638547042461019
  0.9638749626101301  0.6435547672568313  0.4792168721850249
  0.9660907528491823  0.6381601516766516  0.9861241159373323
 
             NaN             NaN             NaN
             NaN             NaN             NaN
             NaN             NaN             NaN
             NaN             NaN             NaN
             NaN             NaN             NaN
             NaN             NaN             NaN
             NaN             NaN             NaN
             NaN             NaN             NaN
             NaN             NaN             NaN
             NaN             NaN             NaN
             NaN             NaN             NaN
             NaN             NaN             NaN
             NaN             NaN             NaN
             NaN             NaN             NaN
             NaN             NaN             NaN
             NaN             NaN             NaN
             NaN             NaN             NaN
             NaN             NaN             NaN
             NaN             NaN             NaN
             NaN             NaN             NaN
             NaN             NaN             NaN
             NaN             NaN             NaN
             NaN             NaN             NaN
             NaN             NaN             NaN
             NaN             NaN             NaN
             NaN             NaN             NaN
             NaN             NaN             NaN
             NaN             NaN             NaN
             NaN             NaN             NaN
             NaN             NaN             NaN
             NaN             NaN             NaN
             NaN             NaN             NaN
             NaN             NaN             NaN
             NaN             NaN             NaN
             NaN             NaN             NaN
             NaN             NaN             NaN
             NaN             NaN             NaN
             NaN             NaN             NaN
             NaN             NaN             NaN
             NaN             NaN             NaN
             NaN             NaN             NaN
             NaN             NaN             NaN
             NaN             NaN             NaN
             NaN             NaN             NaN
             NaN             NaN             NaN
             NaN             NaN             NaN
             NaN             NaN             NaN
             NaN             NaN             NaN
             NaN             NaN             NaN
             NaN             NaN             NaN
             NaN             NaN             NaN
             NaN             NaN             NaN
             NaN             NaN             NaN
             NaN             NaN             NaN
             NaN             NaN             NaN
             NaN             NaN             NaN
             NaN             NaN             NaN
             NaN             NaN             NaN
             NaN             NaN             NaN
             NaN             NaN             NaN
             NaN             NaN             NaN
             NaN             NaN             NaN
             NaN             NaN             NaN
             NaN             NaN             NaN
             NaN             NaN             NaN
             NaN             NaN             NaN
             NaN             NaN             NaN
             NaN             NaN             NaN
             NaN             NaN             NaN
             NaN             NaN             NaN
             NaN             NaN             NaN
             NaN             NaN             NaN
             NaN             NaN             NaN
             NaN             NaN             NaN
             NaN             NaN             NaN
             NaN             NaN             NaN
             NaN             NaN             NaN
             NaN             NaN             NaN
             NaN             NaN             NaN
             NaN             NaN             NaN
             NaN             NaN             NaN
             NaN             NaN             NaN
             NaN             NaN             NaN
             NaN             NaN             NaN
             NaN             NaN             NaN
             NaN             NaN             NaN
             NaN             NaN             NaN
             NaN             NaN             NaN
             NaN             NaN             NaN
             NaN             NaN             NaN
             NaN             NaN             NaN
             NaN             NaN             NaN
             NaN             NaN             NaN
             NaN             NaN             NaN
             NaN             NaN             NaN
             NaN             NaN             NaN
             NaN             NaN             NaN
             NaN             NaN             NaN
             NaN             NaN             NaN
             NaN             NaN             NaN
             NaN             NaN             NaN
             NaN             NaN             NaN
             NaN             NaN             NaN
             NaN             NaN             NaN
             NaN             NaN             NaN
             NaN             NaN             NaN
             NaN             NaN             NaN
             NaN             NaN             NaN
             NaN             NaN             NaN
             NaN             NaN             NaN
             NaN             NaN             NaN
             NaN             NaN             NaN
             NaN             NaN             NaN
             NaN             NaN             NaN
             NaN             NaN             NaN
             NaN             NaN             NaN
             NaN             NaN             NaN
             NaN             NaN             NaN
             NaN             NaN             NaN
             NaN             NaN             NaN
             NaN             NaN             NaN
             NaN             NaN             NaN
             NaN             NaN             NaN
             NaN             NaN             NaN
             NaN             NaN             NaN
             NaN             NaN             NaN
             NaN             NaN             NaN
             NaN             NaN             NaN
             NaN             NaN             NaN
             NaN             NaN             NaN
             NaN             NaN             NaN
             NaN             NaN             NaN
             NaN             NaN             NaN
             NaN             NaN             NaN
             NaN             NaN             NaN
             NaN             NaN             NaN
             NaN             NaN             NaN
             NaN             NaN             NaN
             NaN             NaN             NaN
             NaN             NaN             NaN
             NaN             NaN             NaN
             NaN             NaN             NaN
             NaN             NaN             NaN
             NaN             NaN             NaN
             NaN             NaN             NaN
             NaN             NaN             NaN
             NaN             NaN             NaN
             NaN             NaN             NaN
             NaN             NaN             NaN
             NaN             NaN             NaN
             NaN             NaN             NaN
             NaN             NaN             NaN
             NaN             NaN             NaN
             NaN             NaN             NaN
             NaN             NaN             NaN
