Ca Mn P O  
1
   9.4992530039084802  -0.1175588101507080  -0.0767906045786497
   0.6122219923433120   9.4405842304253405   0.0890838277868374
  -8.6065145640824401  -7.5379902478219103  21.3265782776566013
Ca Mn P O  
11  24  24  96  
Direct
  0.6198573627824350  0.6243375595428849  0.5618088283504949  
  0.4987924969270480  0.4938703947097680  0.9976272572427040  
  0.3421954601672730  0.3850202105344830  0.1752759063323940  
  0.3267599731901300  0.3973317882257580  0.6760016395293270  
  0.7560710259005260  0.7488665011148640  0.1263476961124650  
  0.0112284273134024  0.0104733296605164  0.2586024794526900  
  0.9760438994917090  0.9737891204590150  0.7293951107621210  
  0.2699221092831370  0.2813472298212410  0.3942769306039380  
  0.2400902584303300  0.2348770845123170  0.8656043156207840  
  0.6580986813391230  0.6223142993828400  0.3264487096307840  
  0.6639153179244760  0.6071006482628750  0.8237308474223189  
  0.4620358937936190  0.1479521908777660  0.0451902174631010  
  0.4625201430435600  0.1653722074796460  0.5478704827138530  
  0.0224724242622077  0.3417527060133480  0.2016132407840840  
  0.0127448078537587  0.3385873519267530  0.7025593692934260  
  0.0873380999916635  0.8106061675417791  0.0720451839261740  
  0.0804182855992873  0.8042393680231040  0.5746953806851460  
  0.8776961586009860  0.3753290014114280  0.0597131027446627  
  0.8673641704856410  0.3839732652740680  0.5591223911451429  
  0.6380013336613169  0.1110357373901720  0.1878222481555740  
  0.6266158418645880  0.0998758000522983  0.6854021210067500  
  0.4036820116237780  0.7271092398976930  0.1732948690298110  
  0.4053621150470550  0.7327371211975860  0.6728001176552800  
  0.5953784519395090  0.2772790918971440  0.3256984612374340  
  0.6008548324545440  0.2662124129489400  0.8279922716215510  
  0.3716952748279080  0.8997811270873460  0.3137703299343040  
  0.3614963034130840  0.8814591275847720  0.8119377653523510  
  0.1262078142278940  0.6304969822209380  0.4409571211614510  
  0.1255828306521610  0.6172179870245670  0.9403454511128210  
  0.9818836668181230  0.6579681242342420  0.2959238640456840  
  0.9787028810766920  0.6542997791778020  0.7991598309221331  
  0.9161228279541010  0.1952821158032550  0.4272003898637080  
  0.9172548332472630  0.1846844727119750  0.9276943656014780  
  0.5327557674699130  0.8515268926726760  0.4556085493223740  
  0.5407228734893130  0.8438340651953130  0.9543214369394430  
  0.2066868933034720  0.4149482911004240  0.0388866945149796  
  0.1985959728697680  0.4299974329881500  0.5387444047209510  
  0.8203381665600400  0.0548836997308083  0.0878025129760097  
  0.8165034214992560  0.0609936889210081  0.5877584655151320  
  0.2959067885693950  0.0817013793384152  0.2072970284816810  
  0.2945460400402700  0.0829844610091504  0.7108120979264519  
  0.4231232455085550  0.8314873196016130  0.0636784064024958  
  0.4119396702440260  0.8396596089483420  0.5614744056581350  
  0.0815769770912585  0.6664252980447130  0.1811296254275400  
  0.0850432592869260  0.6651542767014060  0.6864299933453150  
  0.6632794643251850  0.4543527869439420  0.1674586818190410  
  0.6604646836883890  0.4508339889935470  0.6707529939772610  
  0.3349076037886320  0.5475288252171390  0.3286095177451950  
  0.3389893299453050  0.5397854973259180  0.8325768966387790  
  0.9213957999898500  0.3365365393550430  0.3164077903418750  
  0.9193546487778610  0.3299208141622940  0.8186998485619120  
  0.5795760775752939  0.1646986889604630  0.4352386640392160  
  0.5806959386872090  0.1619081917751140  0.9370715917219899  
  0.7086546824378450  0.9165173578721230  0.2905193147241640  
  0.7043911842033450  0.9163338610652200  0.7919694614997770  
  0.1833294842266600  0.9489155891581930  0.4115216828476840  
  0.1838203708106630  0.9394867024794520  0.9129099571937810  
  0.7917392030686460  0.5859431756249590  0.4604299183332640  
  0.7969062461148950  0.5782646358319929  0.9616629786498880  
  0.0374731419305590  0.3574482252949800  0.0151886656134893  
  0.0326140669475005  0.3634632826683020  0.5153806293825880  
  0.6586323246312550  0.0321794394355409  0.0376344490697961  
  0.6550802941969460  0.0427314231312662  0.5378369889867760  
  0.4570405163962150  0.0032673248746025  0.0943838146792940  
  0.4469845577470300  0.0110758546442276  0.5934486058357260  
  0.3058138988583970  0.2978337447173080  0.0638488837791422  
  0.3067020041390500  0.3215613887562190  0.5674883549570400  
  0.2006733042018190  0.2033312027871760  0.1838371755077710  
  0.2015015903460580  0.2060226656747550  0.6877134999739249  
  0.2526078096845490  0.7841586998544370  0.0289418887595181  
  0.2398883517771070  0.7984894378199370  0.5282560440153810  
  0.0474710417169870  0.4923138502821220  0.1523131720246480  
  0.0471817235875049  0.4926649249955440  0.6539565013847410  
  0.2429272094334540  0.5593706178073130  0.0956767107690205  
  0.2242518196993730  0.5812280161146620  0.5925700102207370  
  0.5106681929637230  0.7558622567086341  0.0187632893746637  
  0.4936883113067350  0.7675136171148210  0.5142119317808140  
  0.0084182288079614  0.7359240479800639  0.1287921342296070  
  0.0094859926994810  0.7537377397186610  0.6410078385878660  
  0.7580937963430850  0.5560495722025089  0.0165443051360896  
  0.7622750820252699  0.5528825035664220  0.5139404910556630  
  0.8106471831767890  0.0161879703351150  0.1458058041689590  
  0.8044796079186610  0.0335327258754875  0.6470561633497500  
  0.2566921908243650  0.0591483407877355  0.2615398172825740  
  0.2522256616271390  0.0622862102482800  0.7652764449886970  
  0.5971935203781970  0.2884808904158740  0.1465748756526530  
  0.5909441777630450  0.2866236175084270  0.6505662725450030  
  0.8769206101140740  0.2231074188089010  0.1096071066600530  
  0.8796630883513959  0.2270121146522790  0.6081739991042761  
  0.4660562690616030  0.1406828190108950  0.2300058344983730  
  0.4657659587864430  0.1359756451061440  0.7344810634074030  
  0.6624950125731590  0.4973439565051150  0.1102443992271580  
  0.6657306120691440  0.4860174728340360  0.6139697085443580  
  0.4992941546482830  0.7605510127967200  0.1161237497365240  
  0.4868048650167000  0.7642954150444180  0.6119519027317930  
  0.9950518678766010  0.7418532553069590  0.2264477846919420  
  0.0205080459576154  0.7369478731480140  0.7390733338407860  
  0.1734887180788960  0.5262810803734010  0.2787050031522420  
  0.1775764269307190  0.5109226928189450  0.7829179762173319  
  0.2684350843553600  0.9283290549712760  0.1548302923078070  
  0.2636521996781120  0.9294695405595970  0.6585393739981890  
  0.2539778737284520  0.7044402728365050  0.2167418536563270  
  0.2620093198196670  0.6914694281457890  0.7175008056158499  
  0.5561534681800140  0.5503394374679960  0.2000568418491960  
  0.5519551608174980  0.5502133518026330  0.7020353955737970  
  0.0839870388584875  0.0579223068573088  0.4393005712975510  
  0.0798800239280176  0.0433694019291800  0.9398760778626530  
  0.9237803013738660  0.9512072333724880  0.0605609826523284  
  0.9184474543063820  0.9499124538361700  0.5626073741840060  
  0.4425570325917210  0.4526228758313960  0.2954527209231650  
  0.4494979586069690  0.4468982193961310  0.8010475614208200  
  0.7476376759775610  0.2990599443162020  0.2824288376792050  
  0.7460509111972981  0.2950964562023860  0.7843923628246040  
  0.8259016514125840  0.4793609426440690  0.2159716996233610  
  0.8218912732513720  0.4744754441525990  0.7212508916446210  
  0.7417944942303730  0.0701064623259806  0.3424348741389330  
  0.7344445734505159  0.0692326771675677  0.8453401639120350  
  0.9991873626290750  0.2623243520006580  0.2683733892677740  
  0.0020042181199344  0.2538751664274560  0.7720616505936410  
  0.5011021163561370  0.2191423404288170  0.3778663738664220  
  0.5047425940426500  0.2373569868445810  0.8858100032875480  
  0.3309670371457020  0.5014609949420720  0.3834349653861020  
  0.3379647747046820  0.4951492886330670  0.8892227964533710  
  0.5384508275038190  0.8602205190748430  0.2691149889318580  
  0.5338824016512150  0.8594084621591680  0.7696727814715570  
  0.1234548941981070  0.7821532291636319  0.3890924009756570  
  0.1248935170802510  0.7713418499423260  0.8907409609706950  
  0.4034819135322770  0.7132816773446630  0.3508650776764960  
  0.4023132874419120  0.7066250257345890  0.8542173731524630  
  0.7456765309685360  0.9345837435803040  0.2345931367065560  
  0.7409142901106250  0.9395739217811120  0.7374366587216100  
  0.1951759154680600  0.9881872237123120  0.3539607563551410  
  0.1971740429352590  0.9789820300855010  0.8560171431729670  
  0.2332686770288050  0.4515229812192020  0.4833432688236280  
  0.2450500903649710  0.4416475650913110  0.9850187714232660  
  0.9967289394538490  0.2608595386168280  0.3666867828368670  
  0.9956179047232520  0.2621669060977560  0.8713520827613400  
  0.4884225079870670  0.2418054507599790  0.4781788650805670  
  0.4943099589980880  0.2356790076632890  0.9826020929092750  
  0.7558067622754980  0.4456137664924220  0.4016731824479710  
  0.7622438512317330  0.4302715561527350  0.9063439120575660  
  0.9554739921534210  0.5098758698490700  0.3459564845005650  
  0.9528880069205200  0.5048243771217320  0.8473868883712500  
  0.7493783931683070  0.2142012273211660  0.4693033925167500  
  0.7514800172417750  0.2090577339701130  0.9716386927211060  
  0.8029298316172800  0.7938968557410960  0.3135110576614100  
  0.7988926256900400  0.7938219710296610  0.8151647430598949  
  0.6892949872459820  0.7041943199695910  0.4375719132916970  
  0.6963757308593020  0.6927020286291620  0.9348214303975230  
  0.5520473404041820  0.9897601244969479  0.4076358598759480  
  0.5464026389360930  0.9907516884123910  0.9055100661466891  
  0.3450352360384730  0.9701034556916500  0.4619400608472610  
  0.3448283794883900  0.9591805953880060  0.9636642871204230  
  0.9592545599732920  0.6460916230939470  0.4825977613361390  
  0.9656788936940091  0.6367536352747180  0.9852295618940540  
