Ca Ti P  O 
1.0
       15.2396697998         0.0000000000         0.0000000000
       -1.7243305544        15.1416942935         0.0000000000
       -0.0000141267        -0.0000347840        17.6815624237
   Ca   Ti    P    O
   15   16   64  192
Direct
     0.525363386         0.626009107         0.350072175
     0.126156643         0.025334392         0.649938166
     0.126156643         0.525334418         0.649938166
     0.626156628         0.025334392         0.649938166
     0.474665761         0.373920739         0.850035608
     0.474665761         0.873920739         0.850035608
     0.974665761         0.373920739         0.850035608
     0.974665761         0.873920739         0.850035608
     0.373849630         0.474704415         0.149943948
     0.373849630         0.974704385         0.149943948
     0.873849630         0.474704415         0.149943948
     0.873849630         0.974704385         0.149943948
     0.025363358         0.126009122         0.350072175
     0.025363358         0.626009107         0.350072175
     0.525363386         0.126009122         0.350072175
     0.294137597         0.510591030         0.816010475
     0.294137597         0.010591030         0.816010475
     0.794137597         0.510591030         0.816010475
     0.794137597         0.010591030         0.816010475
     0.989411056         0.205812871         0.684021890
     0.989411056         0.705812871         0.684021890
     0.489411056         0.205812871         0.684021890
     0.489411056         0.705812871         0.684021890
     0.205864847         0.989419997         0.316002697
     0.205864847         0.489419997         0.316002697
     0.705864847         0.989419997         0.316002697
     0.705864847         0.489419997         0.316002697
     0.510579288         0.294190884         0.183985963
     0.510579288         0.794190884         0.183985963
     0.010579288         0.294190884         0.183985963
     0.010579288         0.794190884         0.183985963
     0.025706101         0.357618183         0.369896203
     0.025706101         0.857618213         0.369896203
     0.525706112         0.357618183         0.369896203
     0.525706112         0.857618213         0.369896203
     0.142310768         0.474329978         0.130071670
     0.142310768         0.974329948         0.130071670
     0.642310739         0.474329978         0.130071670
     0.642310739         0.974329948         0.130071670
     0.177455679         0.414472967         0.964820862
     0.177455679         0.914472938         0.964820862
     0.677455664         0.414472967         0.964820862
     0.677455664         0.914472938         0.964820862
     0.085525587         0.322510868         0.535208106
     0.085525587         0.822510839         0.535208106
     0.585525572         0.322510868         0.535208106
     0.585525572         0.822510839         0.535208106
     0.154355183         0.345626086         0.749967694
     0.154355183         0.845626116         0.749967694
     0.654355168         0.345626086         0.749967694
     0.654355168         0.845626116         0.749967694
     0.166126892         0.150455460         0.192445979
     0.166126892         0.650455475         0.192445979
     0.666126907         0.150455460         0.192445979
     0.666126907         0.650455475         0.192445979
     0.349542677         0.333866656         0.307514101
     0.349542677         0.833866656         0.307514101
     0.849542677         0.333866656         0.307514101
     0.849542677         0.833866656         0.307514101
     0.181614265         0.181601718         0.499998420
     0.181614265         0.681601703         0.499998420
     0.681614280         0.181601718         0.499998420
     0.681614280         0.681601703         0.499998420
     0.318410337         0.318448007         0.000014582
     0.318410337         0.818448007         0.000014582
     0.818410337         0.318448007         0.000014582
     0.818410337         0.818448007         0.000014582
     0.150470987         0.166141361         0.807545483
     0.150470987         0.666141391         0.807545483
     0.650470972         0.166141361         0.807545483
     0.650470972         0.666141391         0.807545483
     0.333859563         0.349576235         0.692413628
     0.333859563         0.849576235         0.692413628
     0.833859563         0.349576235         0.692413628
     0.833859563         0.849576235         0.692413628
     0.345644385         0.154350117         0.249983966
     0.345644385         0.654350102         0.249983966
     0.845644355         0.154350117         0.249983966
     0.845644355         0.654350102         0.249983966
     0.414497823         0.177501023         0.035206556
     0.414497823         0.677501023         0.035206556
     0.914497852         0.177501023         0.035206556
     0.914497852         0.677501023         0.035206556
     0.322501987         0.085500509         0.464850634
     0.322501987         0.585500479         0.464850634
     0.822502017         0.085500509         0.464850634
     0.822502017         0.585500479         0.464850634
     0.357647896         0.025660973         0.630079389
     0.357647896         0.525660992         0.630079389
     0.857647896         0.025660973         0.630079389
     0.857647896         0.525660992         0.630079389
     0.474316537         0.142336756         0.869917691
     0.474316537         0.642336726         0.869917691
     0.974316537         0.142336756         0.869917691
     0.974316537         0.642336726         0.869917691
     0.050586198         0.428525835         0.145219624
     0.050586198         0.928525805         0.145219624
     0.550586224         0.428525835         0.145219624
     0.550586224         0.928525805         0.145219624
     0.071509592         0.449373633         0.354690999
     0.071509592         0.949373603         0.354690999
     0.571509600         0.449373633         0.354690999
     0.571509600         0.949373603         0.354690999
     0.214006886         0.458666414         0.186322913
     0.214006886         0.958666444         0.186322913
     0.714006901         0.458666414         0.186322913
     0.714006901         0.958666444         0.186322913
     0.041319046         0.285852730         0.313679069
     0.041319046         0.785852730         0.313679069
     0.541319072         0.285852730         0.313679069
     0.541319072         0.785852730         0.313679069
     0.085834280         0.395509958         0.934862971
     0.085834280         0.895509958         0.934862971
     0.585834265         0.395509958         0.934862971
     0.585834265         0.895509958         0.934862971
     0.104398414         0.414165199         0.565145195
     0.104398414         0.914165199         0.565145195
     0.604398429         0.414165199         0.565145195
     0.604398429         0.914165199         0.565145195
     0.040355723         0.323610038         0.452299029
     0.040355723         0.823610067         0.452299029
     0.540355742         0.323610038         0.452299029
     0.540355742         0.823610067         0.452299029
     0.176387966         0.459603101         0.047702402
     0.176387966         0.959603071         0.047702402
     0.676387966         0.459603101         0.047702402
     0.676387966         0.959603071         0.047702402
     0.026348937         0.253600568         0.577901661
     0.026348937         0.753600597         0.577901661
     0.526348948         0.253600568         0.577901661
     0.526348948         0.753600597         0.577901661
     0.246294633         0.473644197         0.922058225
     0.246294633         0.973644197         0.922058225
     0.746294618         0.473644197         0.922058225
     0.746294618         0.973644197         0.922058225
     0.170158640         0.439526349         0.778426111
     0.170158640         0.939526320         0.778426111
     0.670158625         0.439526349         0.778426111
     0.670158625         0.939526320         0.778426111
     0.060426570         0.329807550         0.721543431
     0.060426570         0.829807520         0.721543431
     0.560426593         0.329807550         0.721543431
     0.560426593         0.829807520         0.721543431
     0.264969647         0.369887531         0.323900551
     0.264969647         0.869887531         0.323900551
     0.764969647         0.369887531         0.323900551
     0.764969647         0.869887531         0.323900551
     0.130126253         0.235039994         0.176122397
     0.130126253         0.735040009         0.176122397
     0.630126238         0.235039994         0.176122397
     0.630126238         0.735040009         0.176122397
     0.213831365         0.320696712         0.982783318
     0.213831365         0.820696712         0.982783318
     0.713831365         0.320696712         0.982783318
     0.713831365         0.820696712         0.982783318
     0.179313511         0.286241531         0.517190993
     0.179313511         0.786241531         0.517190993
     0.679313540         0.286241531         0.517190993
     0.679313540         0.786241531         0.517190993
     0.362692028         0.419022620         0.625896573
     0.362692028         0.919022620         0.625896573
     0.862691998         0.419022620         0.625896573
     0.862691998         0.919022620         0.625896573
     0.081040531         0.137315154         0.874124765
     0.081040531         0.637315154         0.874124765
     0.581040502         0.137315154         0.874124765
     0.581040502         0.637315154         0.874124765
     0.225989908         0.330467016         0.685776472
     0.225989908         0.830466986         0.685776472
     0.725989938         0.330467016         0.685776472
     0.725989938         0.830466986         0.685776472
     0.169551745         0.274065882         0.814219117
     0.169551745         0.774065852         0.814219117
     0.669551730         0.274065882         0.814219117
     0.669551730         0.774065852         0.814219117
     0.159601137         0.130214214         0.570570648
     0.159601137         0.630214214         0.570570648
     0.659601152         0.130214214         0.570570648
     0.659601152         0.630214214         0.570570648
     0.369847566         0.340377003         0.929432333
     0.369847566         0.840376973         0.929432333
     0.869847536         0.340377003         0.929432333
     0.869847536         0.840376973         0.929432333
     0.145366251         0.104477771         0.268095881
     0.145366251         0.604477763         0.268095881
     0.645366251         0.104477771         0.268095881
     0.645366251         0.604477763         0.268095881
     0.395513117         0.354654253         0.231851965
     0.395513117         0.854654253         0.231851965
     0.895513117         0.354654253         0.231851965
     0.895513117         0.854654253         0.231851965
     0.104486652         0.145315543         0.731887698
     0.104486652         0.645315528         0.731887698
     0.604486644         0.145315543         0.731887698
     0.604486644         0.645315528         0.731887698
     0.354673684         0.395500213         0.768067122
     0.354673684         0.895500183         0.768067122
     0.854673684         0.395500213         0.768067122
     0.854673684         0.895500183         0.768067122
     0.130182564         0.159636214         0.429429948
     0.130182564         0.659636199         0.429429948
     0.630182564         0.159636214         0.429429948
     0.630182564         0.659636199         0.429429948
     0.340412021         0.369900525         0.070583776
     0.340412021         0.869900525         0.070583776
     0.840412021         0.369900525         0.070583776
     0.840412021         0.869900525         0.070583776
     0.330468535         0.225938678         0.314215630
     0.330468535         0.725938678         0.314215630
     0.830468535         0.225938678         0.314215630
     0.830468535         0.725938678         0.314215630
     0.274021953         0.169534087         0.185787424
     0.274021953         0.669534087         0.185787424
     0.774021983         0.169534087         0.185787424
     0.774021983         0.669534087         0.185787424
     0.137355909         0.081018686         0.125914097
     0.137355909         0.581018686         0.125914097
     0.637355924         0.081018686         0.125914097
     0.637355924         0.581018686         0.125914097
     0.418973356         0.362656534         0.374089241
     0.418973356         0.862656534         0.374089241
     0.918973327         0.362656534         0.374089241
     0.918973327         0.862656534         0.374089241
     0.320710540         0.213833019         0.017216921
     0.320710540         0.713833034         0.017216921
     0.820710540         0.213833019         0.017216921
     0.820710540         0.713833034         0.017216921
     0.286203474         0.179318711         0.482782990
     0.286203474         0.679318726         0.482782990
     0.786203504         0.179318711         0.482782990
     0.786203504         0.679318726         0.482782990
     0.369871944         0.264973611         0.676145554
     0.369871944         0.764973640         0.676145554
     0.869871974         0.264973611         0.676145554
     0.869871974         0.764973640         0.676145554
     0.235058084         0.130116254         0.823913515
     0.235058084         0.630116224         0.823913515
     0.735058069         0.130116254         0.823913515
     0.735058069         0.630116224         0.823913515
     0.439559966         0.170212939         0.221526042
     0.439559966         0.670212924         0.221526042
     0.939559937         0.170212939         0.221526042
     0.939559937         0.670212924         0.221526042
     0.329825103         0.060432594         0.278487146
     0.329825103         0.560432613         0.278487146
     0.829825103         0.060432594         0.278487146
     0.829825103         0.560432613         0.278487146
     0.253629267         0.026354533         0.422119737
     0.253629267         0.526354551         0.422119737
     0.753629267         0.026354533         0.422119737
     0.753629267         0.526354551         0.422119737
     0.473695964         0.246404350         0.077876963
     0.473695964         0.746404350         0.077876963
     0.973695993         0.246404350         0.077876963
     0.973695993         0.746404350         0.077876963
     0.323607713         0.040371783         0.547720790
     0.323607713         0.540371776         0.547720790
     0.823607683         0.040371783         0.547720790
     0.823607683         0.540371776         0.547720790
     0.459665656         0.176385328         0.952318311
     0.459665656         0.676385343         0.952318311
     0.959665656         0.176385328         0.952318311
     0.959665656         0.676385343         0.952318311
     0.395566672         0.085870653         0.065235019
     0.395566672         0.585870624         0.065235019
     0.895566702         0.085870653         0.065235019
     0.895566702         0.585870624         0.065235019
     0.414125681         0.104365095         0.434850246
     0.414125681         0.604365110         0.434850246
     0.914125681         0.104365095         0.434850246
     0.914125681         0.604365110         0.434850246
     0.285920829         0.041282278         0.686312854
     0.285920829         0.541282296         0.686312854
     0.785920858         0.041282278         0.686312854
     0.785920858         0.541282296         0.686312854
     0.458743781         0.214150220         0.813723683
     0.458743781         0.714150190         0.813723683
     0.958743811         0.214150220         0.813723683
     0.958743811         0.714150190         0.813723683
     0.449321300         0.071494520         0.645313263
     0.449321300         0.571494520         0.645313263
     0.949321270         0.071494520         0.645313263
     0.949321270         0.571494520         0.645313263
     0.428434610         0.050607901         0.854719579
     0.428434610         0.550607920         0.854719579
     0.928434610         0.050607901         0.854719579
     0.928434610         0.550607920         0.854719579
