Ca V  Cr P  O 
1.0
        7.3508911133         0.0000000000         0.0000000000
        0.0337079526         8.5115194432         0.0000000000
       -2.4244061974        -0.0615358282        14.2584669591
   Ca    V   Cr    P    O
    5    3    3   12   42
Direct
     0.328482896         0.414003581         0.588531137
     0.333927780         0.912536144         0.077656768
     0.982101500         0.406532854         0.249727964
     0.679509163         0.911603332         0.413681686
     0.010707356         0.897922397         0.747580707
     0.992265821         0.995032609         0.261643469
     0.672086418         0.497220159         0.404830039
     0.013154350         0.485276431         0.739345968
     0.328177780         0.489249945         0.071297213
     0.340778559         0.986968815         0.598195314
     0.660028160         0.986702859         0.925282419
     0.634693563         0.190527216         0.125353992
     0.959634364         0.774612129         0.071482949
     0.364642948         0.270928770         0.255454212
     0.699436128         0.698310375         0.204573020
     0.301446259         0.772708416         0.409485608
     0.033865586         0.694124103         0.539050281
     0.961240113         0.201469809         0.459567398
     0.700280011         0.271727234         0.593508184
     0.301940441         0.185397342         0.793851972
     0.632858098         0.752465427         0.745601833
     0.044122495         0.264580071         0.927568734
     0.363561571         0.682523608         0.875502527
     0.197864145         0.278365612         0.011372192
     0.127787068         0.683500528         0.051379230
     0.033225618         0.926862538         0.122838981
     0.602872550         0.049042165         0.058593605
     0.613782942         0.348801434         0.075417757
     0.517395258         0.702786088         0.136407137
     0.284067482         0.421030819         0.201993108
     0.457925647         0.162469387         0.180429056
     0.870905042         0.664225698         0.145777106
     0.199176922         0.176513702         0.274466306
     0.155268699         0.802642047         0.324843973
     0.812012553         0.185418963         0.197549045
     0.739984870         0.852988660         0.259031445
     0.726268709         0.553502560         0.267119706
     0.510614872         0.300509065         0.339942664
     0.467269182         0.679546475         0.388473868
     0.208778918         0.662796617         0.482649058
     0.381148547         0.921343982         0.464701563
     0.139631420         0.211664498         0.528943717
     0.939670086         0.054424278         0.397526443
     0.918512285         0.353032887         0.402670026
     0.065624386         0.850720584         0.592109442
     0.060677446         0.550876379         0.602849245
     0.854490519         0.694791079         0.468225479
     0.626112580         0.424826175         0.543396354
     0.788063765         0.164499149         0.516497970
     0.531659603         0.179540053         0.612191319
     0.482512593         0.762403131         0.661044300
     0.274755627         0.042535033         0.728295147
     0.268133730         0.343209118         0.743474782
     0.191045076         0.678536892         0.800023198
     0.847993255         0.291378111         0.679193974
     0.806587219         0.664329350         0.730767131
     0.129083127         0.152204886         0.850332260
     0.547712207         0.650541306         0.825735092
     0.701172471         0.911946595         0.792181313
     0.484764338         0.183373481         0.862805307
     0.381160647         0.840837300         0.925733805
     0.391293764         0.540260971         0.941070199
     0.974808335         0.419580460         0.878571928
     0.873646080         0.178418353         0.947196722
     0.811080694         0.796420813         0.985831320
