Co O 
 1.0000000000000000
     2.8460061699999999    0.0000000000000000    0.0000000000000000
     0.0000000000000000    9.7164875800000008    0.0000000000000000
     0.0000000000000000    0.0000000000000000   10.7079266099999995
 Co  O  
   8  16
Cartesian
  0.0000000000000000  8.5049816441919717  7.9918301384808377
  0.0000000000000000  8.5049816441919699  2.7160964715191636
  0.0000000000000001  3.6434666312717252  8.0635767747762248
  0.0000000000000000  3.6434666312717283  2.6443498352237782
  1.4230030849999999  6.0730209487282769  7.9983131402237779
  1.4230030849999999  6.0730209487282760  2.7096134697762242
  1.4230030849999999  1.2115059358080285  2.6378668334808424
  1.4230030849999999  1.2115059358080298  8.0700597765191571
  0.0000000000000001  6.9049535783941236  8.9284890114688604
 -0.0000000000000000  2.0226185412920508  9.0200939112362910
  0.0000000000000000  6.9049535783941236  1.7794375985311512
  0.0000000000000001  5.2356346168230932  7.0736851563710568
 -0.0000000000000000  2.0226185412920512  1.6878326987637131
 -0.0000000000000000  0.4175782711644370  7.0917539373991971
  0.0000000000000000  5.2356346168230905  3.6342414536289418
 -0.0000000000000000  0.4175782711644367  3.6161726726008006
  1.4230030849999999  4.4808529631769103  8.9882047586289371
  1.4230030849999999  9.2989093088355723  8.9701359776007923
  1.4230030849999999  7.6938690387079545  7.0417960037637135
  1.4230030849999999  2.8115340016058745  7.1334009035311485
  1.4230030849999999  9.2989093088355723  1.7377906323992021
  1.4230030849999999  7.6938690387079545  3.6661306062362926
  1.4230030849999999  4.4808529631769103  1.7197218513710577
  1.4230030849999999  2.8115340016058781  3.5745257064688518
