Co8 O16
1.0
   2.8460061699999999    0.0000000000000000    0.0000000000000000
   0.0000000000000000    9.7164875800000008    0.0000000000000000
   0.0000000000000000    0.0000000000000000   10.7079266099999995
Co O
8 16
direct
   0.0000000000000000    0.8742306800000000    0.7471667800000000 Co
  -0.0000000000000000    0.8742306800000000    0.2528332200000000 Co
   0.0000000000000000    0.3762217100000000    0.7549938300000000 Co
  -0.0000000000000000    0.3762217100000000    0.2450061700000000 Co
   0.5000000000000000    0.6237782900000001    0.7450061700000000 Co
   0.5000000000000000    0.6237782900000001    0.2549938300000000 Co
   0.5000000000000000    0.1257693200000000    0.2471667800000000 Co
   0.5000000000000000    0.1257693200000000    0.7528332200000000 Co
   0.0000000000000000    0.7071079400000000    0.8352238600000000 O
  -0.0000000000000000    0.2066456700000000    0.8481935100000000 O
  -0.0000000000000000    0.7071079400000000    0.1647761400000000 O
  -0.0000000000000000    0.5375589500000000    0.6571512300000000 O
  -0.0000000000000000    0.2066456700000000    0.1518064900000000 O
   0.0000000000000000    0.0449333700000000    0.6610346700000000 O
  -0.0000000000000000    0.5375589500000000    0.3428487700000000 O
   0.0000000000000000    0.0449333700000000    0.3389653300000000 O
   0.5000000000000000    0.4624410500000000    0.8428487700000000 O
   0.5000000000000000    0.9550666300000000    0.8389653300000001 O
   0.5000000000000000    0.7933543300000000    0.6518064900000000 O
   0.5000000000000000    0.2928920600000000    0.6647761400000000 O
   0.5000000000000000    0.9550666300000000    0.1610346700000000 O
   0.5000000000000000    0.7933543300000000    0.3481935100000000 O
   0.5000000000000000    0.4624410500000000    0.1571512300000000 O
   0.5000000000000000    0.2928920600000000    0.3352238600000000 O
