Ca V  Co O 
1.0
       14.1576967239         0.0000000000         0.0000000000
       -2.9852379449        13.8394090918         0.0000000000
       -3.2718832360         2.6413327403        10.1873270034
   Ca    V   Co    O
   15   40    8   96
Direct
     0.160448149         0.160428509         0.625017643
     0.160448149         0.160428509         0.125017643
     0.160448149         0.660428524         0.125017643
     0.160448149         0.660428524         0.625017643
     0.660448134         0.160428509         0.125017643
     0.660448134         0.160428509         0.625017643
     0.660448134         0.660428524         0.125017643
     0.660448134         0.660428524         0.625017643
     0.342207998         0.342207164         0.874999642
     0.342207998         0.842207193         0.374999672
     0.342207998         0.842207193         0.874999642
     0.842208028         0.342207164         0.374999672
     0.842208028         0.342207164         0.874999642
     0.842208028         0.842207193         0.374999672
     0.842208028         0.842207193         0.874999642
     0.461905092         0.461883277         0.125030503
     0.461905092         0.461883277         0.625030518
     0.461905092         0.961883307         0.125030503
     0.461905092         0.961883307         0.625030518
     0.961905122         0.461883277         0.125030503
     0.961905122         0.461883277         0.625030518
     0.961905122         0.961883307         0.125030503
     0.961905122         0.961883307         0.625030518
     0.079521462         0.313398093         0.307724267
     0.079521462         0.313398093         0.807724237
     0.079521462         0.813398123         0.307724267
     0.079521462         0.813398123         0.807724237
     0.579521477         0.313398093         0.307724267
     0.579521477         0.313398093         0.807724237
     0.579521477         0.813398123         0.307724267
     0.579521477         0.813398123         0.807724237
     0.180050135         0.416421294         0.061126810
     0.180050135         0.416421294         0.561126828
     0.180050135         0.916421294         0.061126810
     0.180050135         0.916421294         0.561126828
     0.680050135         0.416421294         0.061126810
     0.680050135         0.416421294         0.561126828
     0.680050135         0.916421294         0.061126810
     0.680050135         0.916421294         0.561126828
     0.313240647         0.079515845         0.442241192
     0.313240647         0.079515845         0.942241192
     0.313240647         0.579515815         0.442241192
     0.313240647         0.579515815         0.942241192
     0.813240647         0.079515845         0.442241192
     0.813240647         0.079515845         0.942241192
     0.813240647         0.579515815         0.442241192
     0.813240647         0.579515815         0.942241192
     0.416353196         0.180065125         0.188780069
     0.416353196         0.180065125         0.688780069
     0.416353196         0.680065155         0.188780069
     0.416353196         0.680065155         0.688780069
     0.916353226         0.180065125         0.188780069
     0.916353226         0.180065125         0.688780069
     0.916353226         0.680065155         0.188780069
     0.916353226         0.680065155         0.688780069
     0.034055106         0.034025684         0.375001997
     0.034055106         0.034025684         0.875002027
     0.034055106         0.534025669         0.375001997
     0.034055106         0.534025669         0.875002027
     0.534055114         0.034025684         0.375001997
     0.534055114         0.034025684         0.875002027
     0.534055114         0.534025669         0.375001997
     0.534055114         0.534025669         0.875002027
     0.001690564         0.400394946         0.326746464
     0.001690564         0.400394946         0.826746464
     0.001690564         0.900394917         0.326746464
     0.001690564         0.900394917         0.826746464
     0.501690567         0.400394946         0.326746464
     0.501690567         0.400394946         0.826746464
     0.501690567         0.900394917         0.326746464
     0.501690567         0.900394917         0.826746464
     0.032688189         0.185621038         0.368235469
     0.032688189         0.185621038         0.868235469
     0.032688189         0.685621023         0.368235469
     0.032688189         0.685621023         0.868235469
     0.532688200         0.185621038         0.368235469
     0.532688200         0.185621038         0.868235469
     0.532688200         0.685621023         0.368235469
     0.532688200         0.685621023         0.868235469
     0.104046412         0.496915609         0.085665643
     0.104046412         0.496915609         0.585665643
     0.104046412         0.996915579         0.085665643
     0.104046412         0.996915579         0.585665643
     0.604046404         0.496915609         0.085665643
     0.604046404         0.496915609         0.585665643
     0.604046404         0.996915579         0.085665643
     0.604046404         0.996915579         0.585665643
     0.183083653         0.320964277         0.229742482
     0.183083653         0.320964277         0.729742467
     0.183083653         0.820964277         0.229742482
     0.183083653         0.820964277         0.729742467
     0.683083653         0.320964277         0.229742482
     0.683083653         0.320964277         0.729742467
     0.683083653         0.820964277         0.229742482
     0.683083653         0.820964277         0.729742467
     0.185727790         0.032717001         0.381823868
     0.185727790         0.032717001         0.881823897
     0.185727790         0.532716990         0.381823868
     0.185727790         0.532716990         0.881823897
     0.685727775         0.032717001         0.381823868
     0.685727775         0.032717001         0.881823897
     0.685727775         0.532716990         0.381823868
     0.685727775         0.532716990         0.881823897
     0.177769706         0.322644383         0.977087975
     0.177769706         0.322644383         0.477087975
     0.177769706         0.822644353         0.977087975
     0.177769706         0.822644353         0.477087975
     0.677769721         0.322644383         0.977087975
     0.677769721         0.322644383         0.477087975
     0.677769721         0.822644353         0.977087975
     0.677769721         0.822644353         0.477087975
     0.320996821         0.183052018         0.520302653
     0.320996821         0.183052018         0.020302653
     0.320996821         0.683052003         0.520302653
     0.320996821         0.683052003         0.020302653
     0.820996821         0.183052018         0.520302653
     0.820996821         0.183052018         0.020302653
     0.820996821         0.683052003         0.520302653
     0.820996821         0.683052003         0.020302653
     0.314358294         0.471879989         0.116571449
     0.314358294         0.471879989         0.616571426
     0.314358294         0.971879959         0.116571449
     0.314358294         0.971879959         0.616571426
     0.814358294         0.471879989         0.116571449
     0.814358294         0.471879989         0.616571426
     0.814358294         0.971879959         0.116571449
     0.814358294         0.971879959         0.616571426
     0.322648764         0.177763686         0.272904038
     0.322648764         0.177763686         0.772904038
     0.322648764         0.677763700         0.272904038
     0.322648764         0.677763700         0.772904038
     0.822648764         0.177763686         0.272904038
     0.822648764         0.177763686         0.772904038
     0.822648764         0.677763700         0.272904038
     0.822648764         0.677763700         0.772904038
     0.400402844         0.001701025         0.423241884
     0.400402844         0.001701025         0.923241854
     0.400402844         0.501700997         0.423241884
     0.400402844         0.501700997         0.923241854
     0.900402844         0.001701025         0.423241884
     0.900402844         0.001701025         0.923241854
     0.900402844         0.501700997         0.423241884
     0.900402844         0.501700997         0.923241854
     0.471881688         0.314352363         0.133430079
     0.471881688         0.314352363         0.633430064
     0.471881688         0.814352393         0.133430079
     0.471881688         0.814352393         0.633430064
     0.971881688         0.314352363         0.133430079
     0.971881688         0.314352363         0.633430064
     0.971881688         0.814352393         0.133430079
     0.971881688         0.814352393         0.633430064
     0.496923447         0.104048774         0.164325729
     0.496923447         0.104048774         0.664325714
     0.496923447         0.604048789         0.164325729
     0.496923447         0.604048789         0.664325714
     0.996923447         0.104048774         0.164325729
     0.996923447         0.104048774         0.664325714
     0.996923447         0.604048789         0.164325729
     0.996923447         0.604048789         0.664325714
