Ca V  Cu O 
1.0
       19.5835628510         0.0000000000         0.0000000000
      -16.2748756539        11.0110790281         0.0000000000
       -3.7205066729         1.1757089719        12.4395400730
   Ca    V   Cu    O
   17   54   18  144
Direct
     0.673093438         0.656491101         0.546485484
     0.339760095         0.989824414         0.546485484
     0.339760095         0.989824414         0.046485484
     0.339760095         0.323157758         0.046485484
     0.339760095         0.656491101         0.546485484
     0.339760095         0.656491101         0.046485484
     0.673093438         0.989824414         0.546485484
     0.673093438         0.989824414         0.046485484
     0.673093438         0.323157758         0.546485484
     0.673093438         0.323157758         0.046485484
     0.673093438         0.656491101         0.046485484
     0.006426761         0.989824414         0.546485484
     0.006426761         0.989824414         0.046485484
     0.006426761         0.323157758         0.546485484
     0.006426761         0.323157758         0.046485484
     0.006426761         0.656491101         0.546485484
     0.006426761         0.656491101         0.046485484
     0.120922558         0.194670856         0.157683849
     0.120922558         0.194670856         0.657683849
     0.120922558         0.528004169         0.157683849
     0.120922558         0.528004169         0.657683849
     0.120922558         0.861337543         0.157683849
     0.120922558         0.861337543         0.657683849
     0.454255879         0.194670856         0.157683849
     0.454255879         0.194670856         0.657683849
     0.454255879         0.528004169         0.157683849
     0.454255879         0.528004169         0.657683849
     0.454255879         0.861337543         0.157683849
     0.454255879         0.861337543         0.657683849
     0.787589252         0.194670856         0.157683849
     0.787589252         0.194670856         0.657683849
     0.787589252         0.528004169         0.157683849
     0.787589252         0.528004169         0.657683849
     0.787589252         0.861337543         0.157683849
     0.787589252         0.861337543         0.657683849
     0.202550486         0.132521436         0.346194863
     0.202550486         0.132521436         0.846194863
     0.202550486         0.465854764         0.346194863
     0.202550486         0.465854764         0.846194863
     0.202550486         0.799188077         0.346194863
     0.202550486         0.799188077         0.846194863
     0.535883844         0.132521436         0.346194863
     0.535883844         0.132521436         0.846194863
     0.535883844         0.465854764         0.346194863
     0.535883844         0.465854764         0.846194863
     0.535883844         0.799188077         0.346194863
     0.535883844         0.799188077         0.846194863
     0.869217157         0.132521436         0.346194863
     0.869217157         0.132521436         0.846194863
     0.869217157         0.465854764         0.346194863
     0.869217157         0.465854764         0.846194863
     0.869217157         0.799188077         0.346194863
     0.869217157         0.799188077         0.846194863
     0.100805409         0.235718414         0.357561409
     0.100805409         0.235718414         0.857561409
     0.100805409         0.569051743         0.357561409
     0.100805409         0.569051743         0.857561409
     0.100805409         0.902385056         0.357561409
     0.100805409         0.902385056         0.857561409
     0.434138745         0.235718414         0.357561409
     0.434138745         0.235718414         0.857561409
     0.434138745         0.569051743         0.357561409
     0.434138745         0.569051743         0.857561409
     0.434138745         0.902385056         0.357561409
     0.434138745         0.902385056         0.857561409
     0.767472088         0.235718414         0.357561409
     0.767472088         0.235718414         0.857561409
     0.767472088         0.569051743         0.357561409
     0.767472088         0.569051743         0.857561409
     0.767472088         0.902385056         0.357561409
     0.767472088         0.902385056         0.857561409
     0.237713158         0.095455460         0.141681165
     0.237713158         0.095455460         0.641681194
     0.237713158         0.428788781         0.141681165
     0.237713158         0.428788781         0.641681194
     0.237713158         0.762122154         0.141681165
     0.237713158         0.762122154         0.641681194
     0.571046472         0.095455460         0.141681165
     0.571046472         0.095455460         0.641681194
     0.571046472         0.428788781         0.141681165
     0.571046472         0.428788781         0.641681194
     0.571046472         0.762122154         0.141681165
     0.571046472         0.762122154         0.641681194
     0.904379845         0.095455460         0.141681165
     0.904379845         0.095455460         0.641681194
     0.904379845         0.428788781         0.141681165
     0.904379845         0.428788781         0.641681194
     0.904379845         0.762122154         0.141681165
     0.904379845         0.762122154         0.641681194
     0.047381017         0.287944376         0.346996903
     0.047381017         0.287944376         0.846996903
     0.047381017         0.621277690         0.346996903
     0.047381017         0.621277690         0.846996903
     0.047381017         0.954611063         0.346996903
     0.047381017         0.954611063         0.846996903
     0.380714357         0.287944376         0.346996903
     0.380714357         0.287944376         0.846996903
     0.380714357         0.621277690         0.346996903
     0.380714357         0.621277690         0.846996903
     0.380714357         0.954611063         0.346996903
     0.380714357         0.954611063         0.846996903
     0.714047670         0.287944376         0.346996903
     0.714047670         0.287944376         0.846996903
     0.714047670         0.621277690         0.346996903
     0.714047670         0.621277690         0.846996903
     0.714047670         0.954611063         0.346996903
     0.714047670         0.954611063         0.846996903
     0.078029566         0.256259739         0.165447026
     0.078029566         0.256259739         0.665446997
     0.078029566         0.589593053         0.165447026
     0.078029566         0.589593053         0.665446997
     0.078029566         0.922926426         0.165447026
     0.078029566         0.922926426         0.665446997
     0.411362886         0.256259739         0.165447026
     0.411362886         0.256259739         0.665446997
     0.411362886         0.589593053         0.165447026
     0.411362886         0.589593053         0.665446997
     0.411362886         0.922926426         0.165447026
     0.411362886         0.922926426         0.665446997
     0.744696259         0.256259739         0.165447026
     0.744696259         0.256259739         0.665446997
     0.744696259         0.589593053         0.165447026
     0.744696259         0.589593053         0.665446997
     0.744696259         0.922926426         0.165447026
     0.744696259         0.922926426         0.665446997
     0.128075674         0.210426286         0.993772209
     0.128075674         0.210426286         0.493772209
     0.128075674         0.543759644         0.993772209
     0.128075674         0.543759644         0.493772209
     0.128075674         0.877092957         0.993772209
     0.128075674         0.877092957         0.493772209
     0.461409003         0.210426286         0.993772209
     0.461409003         0.210426286         0.493772209
     0.461409003         0.543759644         0.993772209
     0.461409003         0.543759644         0.493772209
     0.461409003         0.877092957         0.993772209
     0.461409003         0.877092957         0.493772209
     0.794742346         0.210426286         0.993772209
     0.794742346         0.210426286         0.493772209
     0.794742346         0.543759644         0.993772209
     0.794742346         0.543759644         0.493772209
     0.794742346         0.877092957         0.993772209
     0.794742346         0.877092957         0.493772209
     0.145875797         0.191992775         0.308262944
     0.145875797         0.191992775         0.808262944
     0.145875797         0.525326133         0.308262944
     0.145875797         0.525326133         0.808262944
     0.145875797         0.858659446         0.308262944
     0.145875797         0.858659446         0.808262944
     0.479209125         0.191992775         0.308262944
     0.479209125         0.191992775         0.808262944
     0.479209125         0.525326133         0.308262944
     0.479209125         0.525326133         0.808262944
     0.479209125         0.858659446         0.308262944
     0.479209125         0.858659446         0.808262944
     0.812542439         0.191992775         0.308262944
     0.812542439         0.191992775         0.808262944
     0.812542439         0.525326133         0.308262944
     0.812542439         0.525326133         0.808262944
     0.812542439         0.858659446         0.308262944
     0.812542439         0.858659446         0.808262944
     0.184338570         0.151461050         0.181387410
     0.184338570         0.151461050         0.681387424
     0.184338570         0.484794378         0.181387410
     0.184338570         0.484794378         0.681387424
     0.184338570         0.818127692         0.181387410
     0.184338570         0.818127692         0.681387424
     0.517671883         0.151461050         0.181387410
     0.517671883         0.151461050         0.681387424
     0.517671883         0.484794378         0.181387410
     0.517671883         0.484794378         0.681387424
     0.517671883         0.818127692         0.181387410
     0.517671883         0.818127692         0.681387424
     0.851005256         0.151461050         0.181387410
     0.851005256         0.151461050         0.681387424
     0.851005256         0.484794378         0.181387410
     0.851005256         0.484794378         0.681387424
     0.851005256         0.818127692         0.181387410
     0.851005256         0.818127692         0.681387424
     0.201297656         0.130743682         0.481807083
     0.201297656         0.130743682         0.981807113
     0.201297656         0.464077026         0.481807083
     0.201297656         0.464077026         0.981807113
     0.201297656         0.797410369         0.481807083
     0.201297656         0.797410369         0.981807113
     0.534631014         0.130743682         0.481807083
     0.534631014         0.130743682         0.981807113
     0.534631014         0.464077026         0.481807083
     0.534631014         0.464077026         0.981807113
     0.534631014         0.797410369         0.481807083
     0.534631014         0.797410369         0.981807113
     0.867964327         0.130743682         0.481807083
     0.867964327         0.130743682         0.981807113
     0.867964327         0.464077026         0.481807083
     0.867964327         0.464077026         0.981807113
     0.867964327         0.797410369         0.481807083
     0.867964327         0.797410369         0.981807113
     0.255646139         0.080799624         0.339770824
     0.255646139         0.080799624         0.839770794
     0.255646139         0.414132953         0.339770824
     0.255646139         0.414132953         0.839770794
     0.255646139         0.747466266         0.339770824
     0.255646139         0.747466266         0.839770794
     0.588979483         0.080799624         0.339770824
     0.588979483         0.080799624         0.839770794
     0.588979483         0.414132953         0.339770824
     0.588979483         0.414132953         0.839770794
     0.588979483         0.747466266         0.339770824
     0.588979483         0.747466266         0.839770794
     0.922312796         0.080799624         0.339770824
     0.922312796         0.080799624         0.839770794
     0.922312796         0.414132953         0.339770824
     0.922312796         0.414132953         0.839770794
     0.922312796         0.747466266         0.339770824
     0.922312796         0.747466266         0.839770794
     0.294409186         0.042182919         0.137949303
     0.294409186         0.042182919         0.637949288
     0.294409186         0.375516266         0.137949303
     0.294409186         0.375516266         0.637949288
     0.294409186         0.708849609         0.137949303
     0.294409186         0.708849609         0.637949288
     0.627742529         0.042182919         0.137949303
     0.627742529         0.042182919         0.637949288
     0.627742529         0.375516266         0.137949303
     0.627742529         0.375516266         0.637949288
     0.627742529         0.708849609         0.137949303
     0.627742529         0.708849609         0.637949288
     0.961075842         0.042182919         0.137949303
     0.961075842         0.042182919         0.637949288
     0.961075842         0.375516266         0.137949303
     0.961075842         0.375516266         0.637949288
     0.961075842         0.708849609         0.137949303
     0.961075842         0.708849609         0.637949288
