Ca V  S  O  F 
 1.0000000000000000
     7.1725635528999998    0.0000000000000000    0.0000000000000000
     0.3049279942000000    7.8739067344000002    0.0000000000000000
     0.3193050896000000    0.2618833392000000   10.7378266451000002
 Ca  V   S   O   F  
   3   4   4  16  12
Selective dynamics
Cartesian
  6.4184116385846126  4.3317530737669223  8.5912745480078652   T   T   T
  1.2147351116420559  1.1539364431370038  2.9035560021760869   T   T   T
  5.1217729730959736  6.7326129233963607  3.2197758757513775   T   T   T
  0.5748517004211662  4.1067465715112004  5.1541924505613110   T   T   T
  7.2299315732804823  7.7789955874888328 -0.1111916431131442   T   T   T
  4.1265875770052389  4.1850016689630545  5.3381686771291417   T   T   T
  3.9861310867643720  8.0538107438310984 10.5850390949755244   T   T   T
  1.9681724342014286  2.7879773403767949 10.6377251552364473   T   T   T
  2.2889320988458226  6.7667726117070375  5.3257700698132702   T   T   T
  5.7568189606845932  1.4965137690897306  5.3030305247586718   T   T   T
  5.4988104109175246  5.1895391841456382  0.5763377822475495   T   T   T
  0.5903176036775883  1.5782421034040952  0.5438646793952021   T   T   T
  1.3349066632421007  5.8400701265680697  4.5680919879616830   T   T   T
  1.2869494672089026  3.5983586267621663  9.6359184361565262   T   T   T
  1.5991476097619708  7.5651059217240242  6.2965384202902355   T   T   T
  2.2731587010818401  3.2098123272243084  1.0031111357524167   T   T   T
  2.9340765519421730  7.5899938803535569  4.2411124900139798   T   T   T
  2.9416458487673833  1.8691784315698510  9.8999508944570529   T   T   T
  3.3785771571602572  5.9321781758097982  5.9562568110037288   T   T   T
  4.6688937886902027  2.4149944883150503  4.7230849775509096   T   T   T
  4.3963552752499906  6.1729526499233076  0.9026751736010259   T   T   T
  5.2175609248024850  0.6040928643300868  6.2882493332163456   T   T   T
  5.2966811840582020  4.3177377392155156 10.5479957294627020   T   T   T
  6.2677543422405497  0.7476449526939591  4.1006300660589776   T   T   T
  6.1418964978047335  4.8591017665881777  1.8310891790064174   T   T   T
  6.8409062362303867  2.3860173990139857  5.8534375846922782   T   T   T
  6.7849774260455780  6.1713538178190257 10.3451760195824711   T   T   T
  7.2061056651194262  0.6711530505305194  8.9281650924016365   T   T   T
  7.7344801858678043  4.7506755577767468  6.9715021076981314   T   T   T
  2.3438308171077065  3.3365424373334278  5.5684731233523745   T   T   T
  2.1677605152647219  7.2369874878818292 10.5330614899270643   T   T   T
  3.0584178955012811  0.3935579806835942  1.7249735296821793   T   T   T
  3.8322983326493083  4.8390692635742356  3.5894944436579119   T   T   T
  4.7499732078464660  3.9971354947670337  7.1834509339504882   T   T   T
  4.4918948779133885  7.2520671950822067  9.0655490437122133   T   T   T
  5.1570458698994326  0.7453884931468955  0.0923570780468908   T   T   T
  5.9546234994131799  5.0328706060507935  4.8964167194859938   T   T   T
  0.6819852201432745  3.2301308540248401  3.4775261700582192   T   T   T
  7.1718717019772109  7.4733287389395873  1.8170004302559544   T   T   T
