Ca Fe P  O 
 1.0000000000000000
     8.5938049999999997   -0.1880420000000000    0.3623690000000000
    -0.2224300000000000    9.4992839999999994   -0.0487300000000000
    -1.7333149999999999    0.0132710000000000    4.9900549999999999
 Ca  Fe  P   O  
   1   4   4  16
Cartesian
 -1.1452897812186766  9.5275988300805707  2.6019762159762272
  1.0910148719109760  4.4054484580145088  1.9807875456674064
  2.2729817456435302  9.1762972922700072  0.5866145444387947
  4.1945397782826532 -0.1313016494872472  5.0059032450751433
  5.4239287142567036  4.7450495154125099  3.2941920134892273
 -0.2763830424463662  6.2161902458666409  4.2099211685136382
  1.7294178319860305  1.3929926884658896  3.1845521425796837
  5.0055451538271951  7.7850999094213522  2.2268693212767987
  6.7826910738529014  2.9403506776877650  1.0942754349321460
  6.9666960245276197  5.5486747995391363  3.9884425142939937
  0.5272547680559517  1.1948242938479234  4.1677418436059330
 -0.2976401771634992  7.7628137244104032  4.3198564805514579
  1.2741545567635495  0.5464184859364544  1.9275840635008850
  0.8641375088011335  5.7833624517939706  3.2525733485716213
  1.7200543633137211  5.5134889557396392  0.5794742092691002
  1.9087340923577480  2.8841654474086429  2.7827543777560271
  3.0211577998351093  0.8400057962870670  3.7568286869541367
  4.0024441990177140  8.4549092220045718  1.2333764799042009
  4.5727323955571482  6.3371628809271066  2.5728165035561896
  4.9878319380047698  3.4410514741571947  4.6184556408604234
  5.5588079791807354  3.5528489399074745  1.8313894516379108
  5.2027660519751731  8.6386652252102394  3.5187134232413984
  6.7723750050147737  1.3900538426489772  1.1874142478969580
  6.3702556132294417  7.9132609732673016  1.4741096104974147
  8.0576421131040608  3.4625415040729446  1.7995225629653815
