Ca Cr P  O 
1.0
       12.9036951065         0.0000000000         0.0000000000
       -0.0000019697        14.7920570374         0.0000000000
        0.0000095544        -0.0000191087        14.3504104614
   Ca   Cr    P    O
   15   32   32  144
Direct
     0.374999225         0.445456564         0.779237568
     0.374999225         0.945456564         0.779237568
     0.874999225         0.445456564         0.779237568
     0.874999225         0.945456564         0.779237568
     0.374996990         0.304544061         0.279241443
     0.374996990         0.804544091         0.279241443
     0.874997020         0.304544061         0.279241443
     0.874997020         0.804544091         0.279241443
     0.124996126         0.195445284         0.720767677
     0.124996126         0.695445299         0.720767677
     0.624996126         0.195445284         0.720767677
     0.124998771         0.054556992         0.220767871
     0.124998771         0.554556966         0.220767871
     0.624998748         0.054556992         0.220767871
     0.624998748         0.554556966         0.220767871
     0.374996603         0.176859275         0.877771914
     0.374996603         0.676859260         0.877771914
     0.874996603         0.176859275         0.877771914
     0.874996603         0.676859260         0.877771914
     0.125002921         0.323156327         0.122245796
     0.125002921         0.823156357         0.122245796
     0.625002921         0.323156327         0.122245796
     0.625002921         0.823156357         0.122245796
     0.125000611         0.426851064         0.622252166
     0.125000611         0.926851034         0.622252166
     0.625000596         0.426851064         0.622252166
     0.625000596         0.926851034         0.622252166
     0.374999315         0.073161058         0.377771080
     0.374999315         0.573161066         0.377771080
     0.874999285         0.073161058         0.377771080
     0.874999285         0.573161066         0.377771080
     0.249992386         0.999995828         0.999994457
     0.249992386         0.499995828         0.999994457
     0.749992371         0.999995828         0.999994457
     0.749992371         0.499995828         0.999994457
     0.250014186         0.250001758         0.499997258
     0.250014186         0.750001788         0.499997258
     0.750014186         0.250001758         0.499997258
     0.750014186         0.750001788         0.499997258
     0.999990106         0.249998778         0.499999106
     0.999990106         0.749998808         0.499999106
     0.499990106         0.249998778         0.499999106
     0.499990106         0.749998808         0.499999106
     0.000010703         0.999998152         0.999991059
     0.000010703         0.499998152         0.999991059
     0.500010729         0.999998152         0.999991059
     0.500010729         0.499998152         0.999991059
     0.124994971         0.180970445         0.933804572
     0.124994971         0.680970430         0.933804572
     0.624994993         0.180970445         0.933804572
     0.624994993         0.680970430         0.933804572
     0.374985546         0.318995595         0.066186361
     0.374985546         0.818995595         0.066186361
     0.874985576         0.318995595         0.066186361
     0.874985576         0.818995595         0.066186361
     0.375005096         0.430995107         0.566193640
     0.375005096         0.930995107         0.566193640
     0.875005126         0.430995107         0.566193640
     0.875005126         0.930995107         0.566193640
     0.124995612         0.069023378         0.433800936
     0.124995612         0.569023371         0.433800936
     0.624995589         0.069023378         0.433800936
     0.624995589         0.569023371         0.433800936
     0.375020385         0.196656987         0.690921545
     0.375020385         0.696657002         0.690921545
     0.875020385         0.196656987         0.690921545
     0.875020385         0.696657002         0.690921545
     0.375002593         0.053342890         0.190913096
     0.375002593         0.553342879         0.190913096
     0.875002623         0.053342890         0.190913096
     0.875002623         0.553342879         0.190913096
     0.125001356         0.446656913         0.809099197
     0.125001356         0.946656942         0.809099197
     0.625001371         0.446656913         0.809099197
     0.625001371         0.946656942         0.809099197
     0.125004247         0.303370953         0.309081107
     0.125004247         0.803370953         0.309081107
     0.625004232         0.303370953         0.309081107
     0.625004232         0.803370953         0.309081107
     0.026195165         0.300881505         0.370219022
     0.026195165         0.800881505         0.370219022
     0.526195168         0.300881505         0.370219022
     0.526195168         0.800881505         0.370219022
     0.276189476         0.199117139         0.629780710
     0.276189476         0.699117124         0.629780710
     0.776189446         0.199117139         0.629780710
     0.776189446         0.699117124         0.629780710
     0.473795205         0.050871935         0.129772082
     0.473795205         0.550871909         0.129772082
     0.973795176         0.050871935         0.129772082
     0.973795176         0.550871909         0.129772082
     0.223812550         0.449118704         0.870218217
     0.223812550         0.949118733         0.870218217
     0.723812580         0.449118704         0.870218217
     0.723812580         0.949118733         0.870218217
     0.473794699         0.199124575         0.629790545
     0.473794699         0.699124575         0.629790545
     0.973794699         0.199124575         0.629790545
     0.973794699         0.699124575         0.629790545
     0.223798677         0.300879180         0.370218962
     0.223798677         0.800879180         0.370218962
     0.723798692         0.300879180         0.370218962
     0.723798692         0.800879180         0.370218962
     0.026182452         0.449117929         0.870219469
     0.026182452         0.949117899         0.870219469
     0.526182473         0.449117929         0.870219469
     0.526182473         0.949117899         0.870219469
     0.276201427         0.050879382         0.129770070
     0.276201427         0.550879359         0.129770070
     0.776201427         0.050879382         0.129770070
     0.776201427         0.550879359         0.129770070
     0.125005305         0.164528713         0.483200222
     0.125005305         0.664528728         0.483200222
     0.625005305         0.164528713         0.483200222
     0.625005305         0.664528728         0.483200222
     0.375003099         0.335456342         0.516796231
     0.375003099         0.835456371         0.516796231
     0.875003099         0.335456342         0.516796231
     0.875003099         0.835456371         0.516796231
     0.375004530         0.414530456         0.016819909
     0.375004530         0.914530456         0.016819909
     0.875004530         0.414530456         0.016819909
     0.875004530         0.914530456         0.016819909
     0.125009283         0.085473493         0.983205914
     0.125009283         0.585473478         0.983205914
     0.625009298         0.085473493         0.983205914
     0.625009298         0.585473478         0.983205914
     0.374999166         0.063796297         0.944935083
     0.374999166         0.563796282         0.944935083
     0.874999166         0.063796297         0.944935083
     0.874999166         0.563796282         0.944935083
     0.124999754         0.436189294         0.055071253
     0.124999754         0.936189294         0.055071253
     0.624999762         0.436189294         0.055071253
     0.624999762         0.936189294         0.055071253
     0.125001073         0.313816637         0.555079341
     0.125001073         0.813816667         0.555079341
     0.625001073         0.313816637         0.555079341
     0.625001073         0.813816667         0.555079341
     0.374999881         0.186187521         0.444912463
     0.374999881         0.686187506         0.444912463
     0.874999881         0.186187521         0.444912463
     0.874999881         0.686187506         0.444912463
     0.375001341         0.109469146         0.752380192
     0.375001341         0.609469175         0.752380192
     0.875001311         0.109469146         0.752380192
     0.875001311         0.609469175         0.752380192
     0.125000313         0.390548587         0.247605413
     0.125000313         0.890548587         0.247605413
     0.625000298         0.390548587         0.247605413
     0.625000298         0.890548587         0.247605413
     0.125001192         0.359457225         0.747592568
     0.125001192         0.859457254         0.747592568
     0.625001192         0.359457225         0.747592568
     0.625001192         0.859457254         0.747592568
     0.375002801         0.140564486         0.252400249
     0.375002801         0.640564501         0.252400249
     0.875002801         0.140564486         0.252400249
     0.875002801         0.640564501         0.252400249
     0.218964025         0.065691203         0.366625130
     0.218964025         0.565691233         0.366625130
     0.718964040         0.065691203         0.366625130
     0.718964040         0.565691233         0.366625130
     0.468939900         0.434313565         0.633368254
     0.468939900         0.934313536         0.633368254
     0.968939900         0.434313565         0.633368254
     0.968939900         0.934313536         0.633368254
     0.281109363         0.315702260         0.133356079
     0.281109363         0.815702260         0.133356079
     0.781109333         0.315702260         0.133356079
     0.781109333         0.815702260         0.133356079
     0.031057801         0.184291676         0.866630852
     0.031057801         0.684291661         0.866630852
     0.531057775         0.184291676         0.866630852
     0.531057775         0.684291661         0.866630852
     0.281056345         0.434308559         0.633370578
     0.281056345         0.934308529         0.633370578
     0.781056345         0.434308559         0.633370578
     0.781056345         0.934308529         0.633370578
     0.031042686         0.065697573         0.366629243
     0.031042686         0.565697551         0.366629243
     0.531042695         0.065697573         0.366629243
     0.531042695         0.565697551         0.366629243
     0.218946561         0.184299722         0.866630733
     0.218946561         0.684299707         0.866630733
     0.718946576         0.184299722         0.866630733
     0.718946576         0.684299707         0.866630733
     0.468905985         0.315698266         0.133365810
     0.468905985         0.815698266         0.133365810
     0.968905985         0.315698266         0.133365810
     0.968905985         0.815698266         0.133365810
     0.374997675         0.246155038         0.993431628
     0.374997675         0.746155024         0.993431628
     0.874997675         0.246155038         0.993431628
     0.874997675         0.746155024         0.993431628
     0.125000060         0.023359941         0.734019697
     0.125000060         0.523359954         0.734019697
     0.625000060         0.023359941         0.734019697
     0.625000060         0.523359954         0.734019697
     0.124998935         0.226618484         0.234013751
     0.124998935         0.726618469         0.234013751
     0.624998927         0.226618484         0.234013751
     0.624998927         0.726618469         0.234013751
     0.374996990         0.273365766         0.765990198
     0.374996990         0.773365736         0.765990198
     0.874997020         0.273365766         0.765990198
     0.874997020         0.773365736         0.765990198
     0.374996513         0.503855765         0.493409932
     0.374996513         0.003855765         0.493409932
     0.874996543         0.503855765         0.493409932
     0.874996543         0.003855765         0.493409932
     0.124995947         0.996144056         0.506567121
     0.124995947         0.496144056         0.506567121
     0.624995947         0.996144056         0.506567121
     0.624995947         0.496144056         0.506567121
     0.124996424         0.253827363         0.006578696
     0.124996424         0.753827333         0.006578696
     0.624996424         0.253827363         0.006578696
     0.624996424         0.753827333         0.006578696
     0.374997705         0.476622730         0.265984476
     0.374997705         0.976622701         0.265984476
     0.874997735         0.476622730         0.265984476
     0.874997735         0.976622701         0.265984476
