Ca Mn P  O 
1.0
        9.5513019562         0.0000000000         0.0000000000
        6.6296491449         6.8757091504         0.0000000000
        6.1207689136         2.6008577646         8.0221224493
   Ca   Mn    P    O
    1    2    8   24
Direct
     0.683355927         0.316634387         0.250016123
     0.000006020         0.999978900         0.499993473
     0.000033696         0.000049563         0.999952435
     0.471067458         0.265975624         0.110075831
     0.065149367         0.623223484         0.200533077
     0.376720250         0.934823334         0.299513400
     0.734046161         0.528893173         0.389964849
     0.265998870         0.471053600         0.610067308
     0.623305857         0.065159738         0.700483799
     0.934910715         0.376700342         0.799457550
     0.528886139         0.734045804         0.889924049
     0.051929355         0.705397010         0.028551329
     0.649689615         0.155321077         0.165337384
     0.428498447         0.105407692         0.151748478
     0.268085241         0.400576383         0.234466806
     0.519109905         0.608261347         0.066694304
     0.599530101         0.731904149         0.265464127
     0.894550562         0.571523905         0.348221958
     0.227251858         0.953610122         0.269354373
     0.844702244         0.350295812         0.334635824
     0.046408694         0.772661090         0.230609179
     0.294579476         0.948106229         0.471539050
     0.391691446         0.480923980         0.433310121
     0.608276129         0.519095480         0.566708684
     0.705365360         0.051944852         0.528449953
     0.953598917         0.227211341         0.769423246
     0.155243084         0.649739087         0.665359676
     0.772771001         0.046372205         0.730648875
     0.105389804         0.428511560         0.651785135
     0.400552601         0.268055141         0.734503746
     0.480911911         0.391715139         0.933335245
     0.732001245         0.599401236         0.765508473
     0.571499944         0.894623160         0.848262072
     0.350204140         0.844767392         0.834638715
     0.948043704         0.294660062         0.971478581
