Ca Ti V  O 
1.0
       14.1952953339         0.0000000000         0.0000000000
       -3.0255193500        13.8690142295         0.0000000000
       -3.3151310400         2.6698933511        10.4004506432
   Ca   Ti    V    O
   15    8   40   96
Direct
     0.342693210         0.342693955         0.374993026
     0.156486586         0.156485900         0.125006333
     0.156486586         0.656485915         0.125006333
     0.156486586         0.656485915         0.625006318
     0.656486571         0.156485900         0.125006333
     0.656486571         0.156485900         0.625006318
     0.656486571         0.656485915         0.125006333
     0.656486571         0.656485915         0.625006318
     0.342693210         0.342693955         0.874993026
     0.342693210         0.842693925         0.374993026
     0.342693210         0.842693925         0.874993026
     0.842693210         0.342693955         0.374993026
     0.842693210         0.342693955         0.874993026
     0.842693210         0.842693925         0.374993026
     0.842693210         0.842693925         0.874993026
     0.460796952         0.460802734         0.124996446
     0.460796952         0.460802734         0.624996424
     0.460796952         0.960802734         0.124996446
     0.460796952         0.960802734         0.624996424
     0.960796952         0.460802734         0.124996446
     0.960796952         0.460802734         0.624996424
     0.960796952         0.960802734         0.124996446
     0.960796952         0.960802734         0.624996424
     0.039230879         0.039231788         0.374999762
     0.039230879         0.039231788         0.874999762
     0.039230879         0.539231777         0.374999762
     0.039230879         0.539231777         0.874999762
     0.539230883         0.039231788         0.374999762
     0.539230883         0.039231788         0.874999762
     0.539230883         0.539231777         0.374999762
     0.539230883         0.539231777         0.874999762
     0.084553897         0.314555526         0.320139736
     0.084553897         0.314555526         0.820139766
     0.084553897         0.814555526         0.320139736
     0.084553897         0.814555526         0.820139766
     0.584553897         0.314555526         0.320139736
     0.584553897         0.314555526         0.820139766
     0.584553897         0.814555526         0.320139736
     0.584553897         0.814555526         0.820139766
     0.186146542         0.418250531         0.068282895
     0.186146542         0.418250531         0.568282902
     0.186146542         0.918250561         0.068282895
     0.186146542         0.918250561         0.568282902
     0.686146557         0.418250531         0.068282895
     0.686146557         0.418250531         0.568282902
     0.686146557         0.918250561         0.068282895
     0.686146557         0.918250561         0.568282902
     0.314555049         0.084546313         0.429854095
     0.314555049         0.084546313         0.929854095
     0.314555049         0.584546328         0.429854095
     0.314555049         0.584546328         0.929854095
     0.814555049         0.084546313         0.429854095
     0.814555049         0.084546313         0.929854095
     0.814555049         0.584546328         0.429854095
     0.814555049         0.584546328         0.929854095
     0.418244481         0.186137512         0.181723461
     0.418244481         0.186137512         0.681723475
     0.418244481         0.686137497         0.181723461
     0.418244481         0.686137497         0.681723475
     0.918244481         0.186137512         0.181723461
     0.918244481         0.186137512         0.681723475
     0.918244481         0.686137497         0.181723461
     0.918244481         0.686137497         0.681723475
     0.498468548         0.406939775         0.320100904
     0.498468548         0.406939775         0.820100904
     0.498468548         0.906939745         0.320100904
     0.498468548         0.906939745         0.820100904
     0.998468518         0.406939775         0.320100904
     0.998468518         0.406939775         0.820100904
     0.998468518         0.906939745         0.320100904
     0.998468518         0.906939745         0.820100904
     0.030749941         0.179058060         0.366169095
     0.030749941         0.179058060         0.866169095
     0.030749941         0.679058075         0.366169095
     0.030749941         0.679058075         0.866169095
     0.530749917         0.179058060         0.366169095
     0.530749917         0.179058060         0.866169095
     0.530749917         0.679058075         0.366169095
     0.530749917         0.679058075         0.866169095
     0.092246078         0.999574482         0.073875077
     0.092246078         0.999574482         0.573875070
     0.092246078         0.499574482         0.073875077
     0.092246078         0.499574482         0.573875070
     0.592246056         0.999574482         0.073875077
     0.592246056         0.999574482         0.573875070
     0.592246056         0.499574482         0.073875077
     0.592246056         0.499574482         0.573875070
     0.186463088         0.330919772         0.241650522
     0.186463088         0.330919772         0.741650522
     0.186463088         0.830919743         0.241650522
     0.186463088         0.830919743         0.741650522
     0.686463118         0.330919772         0.241650522
     0.686463118         0.330919772         0.741650522
     0.686463118         0.830919743         0.241650522
     0.686463118         0.830919743         0.741650522
     0.179061785         0.030753313         0.383831471
     0.179061785         0.030753313         0.883831501
     0.179061785         0.530753314         0.383831471
     0.179061785         0.530753314         0.883831501
     0.679061770         0.030753313         0.383831471
     0.679061770         0.030753313         0.883831501
     0.679061770         0.530753314         0.383831471
     0.679061770         0.530753314         0.883831501
     0.167672202         0.312901020         0.992039979
     0.167672202         0.312901020         0.492039979
     0.167672202         0.812901020         0.992039979
     0.167672202         0.812901020         0.492039979
     0.667672217         0.312901020         0.992039979
     0.667672217         0.312901020         0.492039979
     0.667672217         0.812901020         0.992039979
     0.667672217         0.812901020         0.492039979
     0.330922425         0.186468497         0.508350134
     0.330922425         0.186468497         0.008350134
     0.330922425         0.686468482         0.508350134
     0.330922425         0.686468482         0.008350134
     0.830922425         0.186468497         0.508350134
     0.830922425         0.186468497         0.008350134
     0.830922425         0.686468482         0.508350134
     0.830922425         0.686468482         0.008350134
     0.325002551         0.467286855         0.115594335
     0.325002551         0.467286855         0.615594327
     0.325002551         0.967286825         0.115594335
     0.325002551         0.967286825         0.615594327
     0.825002551         0.467286855         0.115594335
     0.825002551         0.467286855         0.615594327
     0.825002551         0.967286825         0.115594335
     0.825002551         0.967286825         0.615594327
     0.312904090         0.167673677         0.257962346
     0.312904090         0.167673677         0.757962346
     0.312904090         0.667673707         0.257962346
     0.312904090         0.667673707         0.757962346
     0.812904119         0.167673677         0.257962346
     0.812904119         0.167673677         0.757962346
     0.812904119         0.667673707         0.257962346
     0.812904119         0.667673707         0.757962346
     0.406938106         0.498468637         0.429901719
     0.406938106         0.498468637         0.929901719
     0.406938106         0.998468637         0.429901719
     0.406938106         0.998468637         0.929901719
     0.906938076         0.498468637         0.429901719
     0.906938076         0.498468637         0.929901719
     0.906938076         0.998468637         0.429901719
     0.906938076         0.998468637         0.929901719
     0.467292100         0.325007707         0.134403810
     0.467292100         0.325007707         0.634403825
     0.467292100         0.825007677         0.134403810
     0.467292100         0.825007677         0.634403825
     0.967292070         0.325007707         0.134403810
     0.967292070         0.325007707         0.634403825
     0.967292070         0.825007677         0.134403810
     0.967292070         0.825007677         0.634403825
     0.999574423         0.092246428         0.176124945
     0.999574423         0.092246428         0.676124930
     0.999574423         0.592246413         0.176124945
     0.999574423         0.592246413         0.676124930
     0.499574423         0.092246428         0.176124945
     0.499574423         0.092246428         0.676124930
     0.499574423         0.592246413         0.176124945
     0.499574423         0.592246413         0.676124930
