Ca Ti O 
 1.0000000000000000
    14.6439819335999992    0.0000000000000000    0.0000000000000000
    13.3873346942999998    5.9351054458999997    0.0000000000000000
     6.3008069636000004    1.3340776753000001    7.1998947533999997
 Ca  Ti  O  
   3  16  32
Selective dynamics
Cartesian
 20.6514102957773176  5.4742691457563000  6.4811677925290700   T   T   T
 14.0188282408433693  2.9635107861776313  6.3496724000499309   T   T   T
 28.0872406522139073  5.9448648918146922  6.2863213439595498   T   T   T
  7.9158086539254331  1.6464886855921075  3.1778143849394862   T   T   T
 14.6083064834600744  4.6424893535607357  3.1905244926759608   T   T   T
 15.2384440679405255  1.6710790941836673  3.1426895693163788   T   T   T
 21.9279783449309988  4.6234596545737743  3.1274046990956790   T   T   T
 17.0162625715161759  3.5881209403996692  5.6575218544413470   T   T   T
 23.6961173946007300  6.5681928172993604  5.6678571663411201   T   T   T
 24.1441310558557056  3.5301673012210060  5.6955163766739298   T   T   T
 31.0855177840423167  6.5584259946501327  5.6446618656525578   T   T   T
  3.3177984268517537  0.6874142458779011  1.0918971504934525   T   T   T
 10.0524193154199715  3.6657008378110114  1.1201931155330014   T   T   T
 10.6878046826922422  0.7152434091924894  1.1040332291643364   T   T   T
 17.4327780316020799  3.6577422432156976  1.1131761393892674   T   T   T
 12.3276872542359683  2.6076994966351164  3.6017020739932089   T   T   T
 19.0671154425572951  5.5934177997968888  3.4512023690966536   T   T   T
 19.7750616701122652  2.5938265611089508  3.6338931941127726   T   T   T
 26.3028618295725813  5.5622903677154438  3.6099039485643458   T   T   T
  4.4744890931206935  0.9415670762971952  2.6601011727016401   T   T   T
 11.1709692305583399  3.9126883252256865  2.6820363056000760   T   T   T
 11.7924611238954160  0.9359854945575018  2.6894857697850281   T   T   T
 18.5118432329455231  3.8802627000847880  2.6736136840318561   T   T   T
  9.1649433342612561  1.9282381960089783  1.6826838798458039   T   T   T
 15.8507623286369164  4.8718361445278227  1.7348609295364601   T   T   T
 16.5470070428031590  1.9351710313775350  1.8235143338153303   T   T   T
 23.1752152649822314  4.8987229282639815  1.6690848638031175   T   T   T
 10.9965482181920251  2.3318510603264508  5.0797979967505480   T   T   T
 17.7503277952517955  5.2859939586996934  5.0437025584746245   T   T   T
 18.3320864316301879  2.3225000122524939  5.0374855336640527   T   T   T
 25.0180931049478019  5.2606656965474876  5.0875052249152084   T   T   T
 15.6750407994523915  3.3133085390537946  4.2625113410821731   T   T   T
 22.4517307237276071  6.2686658174363181  4.1702665756129287   T   T   T
 23.0962454172290705  3.3204286172742337  4.1138648087986729   T   T   T
 29.6950972280323171  6.2789678978219934  4.2856609084603763   T   T   T
 13.8968642647839413  2.9434424513287540  2.4224923808762546   T   T   T
 20.6228705694030729  5.8910429423322004  2.2942992309554944   T   T   T
 21.2386837036360063  2.9260885321773062  2.3517243081784147   T   T   T
 27.9061233023820066  5.8998149469136454  2.4792346779402896   T   T   T
  8.7952762269071147  1.7734569970250613  6.5173935037283881   T   T   T
 15.4300485073770606  4.7941856748218088  6.5305276895298059   T   T   T
 16.0475762059015530  1.8615175261586154  6.5337794186884350   T   T   T
 22.7955321541259615  4.8072803796397547  6.5194867112601074   T   T   T
  6.3780723822362066  1.2571633186918203  4.4748666671529875   T   T   T
 13.0373537834598761  4.2904837923109085  4.6617015769620433   T   T   T
 13.6457597184477617  1.3476037326661612  4.6655537509776588   T   T   T
 20.3723933718979744  4.3232411333751113  4.4948231390192399   T   T   T
 11.3859646243321624  2.4141867851572387  0.2707929652576621   T   T   T
 18.0813416959699005  5.3479432222917023  0.3117386174180554   T   T   T
 18.6611212222959182  2.3727807653627053  0.2990897101333410   T   T   T
 25.3732284214998600  5.3573723977816154  0.2670478630080432   T   T   T
