Ca Ti O 
 1.0000000000000000
    12.4370679855000006    0.0000000000000000    0.0000000000000000
    -1.0659715856000000   13.9755822961000007    0.0000000000000000
    -0.5859648079000001   -2.0967458091000002   10.1808118850000007
 Ca  Ti  O  
  11  48  96
Selective dynamics
Cartesian
  9.2501307195871103  9.6090540210994035  6.6238637566054521   T   T   T
 -0.0788600523837180  2.8318465290354342  0.6846472619402755   T   T   T
 -0.6296871825581545  9.8218340260837103  0.7049348206326349   T   T   T
  6.1303670270133779  2.8135053183252530  0.6776340431866149   T   T   T
  5.5992525197348746  9.8279497795990025  0.6856902754931740   T   T   T
  3.9107878722795890  2.5594327064474265  7.1342020559670765   T   T   T
  3.3553834220944916  9.4773565213621662  7.1414428034744191   T   T   T
 10.1302955399082215  2.5611774481492429  7.1459034699993804   T   T   T
  2.1758063730540234  3.1159237188441895  4.1481541213533086   T   T   T
  1.7858771070310149 10.1026164162455974  4.2524335257709689   T   T   T
  8.4008620402106864  3.0394853938245223  4.1535379747616954   T   T   T
 -0.9812714541821222  4.6723612623135944 10.1270583617873342   T   T   T
 -1.5538015009013297 11.6347538523225715 10.1695008796125386   T   T   T
  5.2082301413972347  4.6842682168978786 10.0911899939122236   T   T   T
  4.7250684313415094 11.6387186191630025 10.0768283038004949   T   T   T
  0.3477790739777465 13.4514050128027005  2.5485255667381277   T   T   T
  0.8504872655752386  6.5002241838645940  2.6046358607441813   T   T   T
  6.6179185097418385 13.4719473804973866  2.5475784148641889   T   T   T
  7.0805181894134659  6.4475776584896991  2.5518207893215141   T   T   T
  4.0888212991702417 -1.4021166451921403  7.6783535810373280   T   T   T
  3.6043874830712901  5.6526907850615631  7.6783412116888945   T   T   T
 10.3708889638743162 -1.3682086376169027  7.7159322967645521   T   T   T
  9.8206451618937560  5.6310892460473410  7.7385151636919902   T   T   T
  2.7602314366027678 -0.8782388740920023  5.1323069617058241   T   T   T
  2.2663962303707836  6.1065776824939118  5.1071126000599172   T   T   T
  9.0371821980082814 -1.0201013973025170  5.0516838971801379   T   T   T
  8.4420626940504810  6.0455564992588240  5.1120170465418751   T   T   T
  0.9679383910547210  0.4219596105196509  8.0319469910891428   T   T   T
  0.4052863656503008  7.4289089453854364  8.0275076012526103   T   T   T
  7.2009235538049294  0.4157522918253413  8.0214822012057319   T   T   T
  6.7047948029773510  7.4229293738575066  8.0529372618955701   T   T   T
 -0.3914220073132537  0.8675577700748436  5.4874745613543450   T   T   T
 -0.8779338078546599  7.8302334202367145  5.4571700169102639   T   T   T
  5.8917146489440722  0.8533904678327974  5.5061733254803684   T   T   T
  5.4391152929091113  7.9637149025110849  5.4323292266081609   T   T   T
  4.5177918128731962  1.4354289306983155  3.0330193616537353   T   T   T
  3.9793530034185451  8.3944182900817488  2.9858167876574608   T   T   T
 10.7675373376241765  1.4268157856279386  3.0453591323913276   T   T   T
 10.0318210425473602  8.4141987945206349  2.9994640009089664   T   T   T
  3.0784782694662516  1.9218756203824889  0.4562099096541756   T   T   T
  2.5337863286280435  8.9302271555393524  0.4430289968524211   T   T   T
  9.3111113858163854  1.9310861213417285  0.4464777396479167   T   T   T
  8.7256978644445944  8.9208796444556224  0.5254128962923387   T   T   T
  2.1508837159609162  2.8931821379325973  9.8221577943281488   T   T   T
  1.6037041739269209  9.8728942830139346  9.8131707781396145   T   T   T
  8.3593056122642029  2.8794242865942854  9.8174306572414665   T   T   T
  7.9058965840417441  9.8639164260264423  9.7911315961477481   T   T   T
  0.6877666876574101  3.4797100398907643  7.1963083410102149   T   T   T
 -0.0917982391781805 10.3390114391547101  7.2545764794446255   T   T   T
  6.8925118404336381  3.4770044659048089  7.2051645252611562   T   T   T
  6.3250543260391208 10.4833787391795319  7.1501817845527755   T   T   T
  4.0328432744944145  4.5621191899922726  2.0391361421662952   T   T   T
  3.5136472198871349 11.5583646970707612  2.1025391347674782   T   T   T
 10.2645347555603763  4.5474196481952349  2.0691626721160046   T   T   T
  9.6154420601976209 11.4650147702258849  2.2053229597791204   T   T   T
  5.3495790093236488  4.0248006519755171  4.6373195580952782   T   T   T
  5.0603576148488338 10.9378936082964806  4.5749593330535152   T   T   T
 11.5959525641990773  4.0249617108793467  4.6512474400768973   T   T   T
 11.1456695349002128 10.9827480579766004  4.5610290902035615   T   T   T
 -0.4911079550973240 -0.7594765723876302  8.7873377106230208   T   T   T
 -1.0446083607666612  6.2611253387022492  8.7865145406178389   T   T   T
  5.7253352410918517 -0.7729684343126466  8.7668258567707849   T   T   T
  5.1935805920394529  6.2752727093176324  8.7667140999241617   T   T   T
  2.9047126543307917  0.3668776425944128  3.5963817320830742   T   T   T
  2.3614775384037858  7.4031714990951754  3.5988818309166368   T   T   T
  9.1214465421795037  0.3819811541830906  3.5884893451786537   T   T   T
  8.5986596976082996  7.2308075094458308  3.5730063666415739   T   T   T
  4.3289703844079161 -0.1546615895081034  6.1652607928112273   T   T   T
  3.8189545861654222  6.8540772959207672  6.1626385300642257   T   T   T
 10.5159061564897289 -0.1556715109825074  6.1904849908406030   T   T   T
 10.0065557894329231  6.7774847492687931  6.1326099605166400   T   T   T
  1.4612401371910815  0.8391698855022210  1.0122116529721237   T   T   T
  0.9199061615756198  7.8341571387099682  1.0017550050658754   T   T   T
  7.6758334057573911  0.8471988777048540  0.9867263845791223   T   T   T
  7.1344105869016490  7.8189505474759136  1.0026058075829443   T   T   T
  1.3123104829689469 -0.0461821865781546  6.1503473673776998   T   T   T
  0.7750354318168614  6.9706529375531412  6.1635431506981462   T   T   T
  7.5086709459968963 -0.0294039537730378  6.1376011740535539   T   T   T
  7.0508373601465877  6.9799340675513202  6.1612398265224453   T   T   T
  2.7187143750377754 -0.5599010972153234  8.6403253559813251   T   T   T
  2.1672408633806817  6.4690982092384921  8.6274032776954765   T   T   T
  8.9511566187114937 -0.5190137313756399  8.6689274719044835   T   T   T
  8.3937972080628338  6.4359490431958548  8.6603762928839441   T   T   T
 -0.0653185086988224  0.4646721493165756  3.5958958921026563   T   T   T
 -0.6442369215394868  7.4509066407697162  3.5718259766355769   T   T   T
  6.1320256371195194  0.5229463018198871  3.5781119846320890   T   T   T
  5.5766030776594819  7.4245699069855755  3.5693037668761649   T   T   T
  4.7033492199949105  1.0265661712612022  1.0544480040911468   T   T   T
  4.1841526294670803  8.0119813735170204  1.0305676684438851   T   T   T
 10.9481713963728513  1.0296800027877819  1.0523513408737857   T   T   T
 10.3840036975114760  8.0126961251564328  1.0532237628333936   T   T   T
  1.1913979767059333  1.1506043631604910  9.9117324085409653   T   T   T
  0.6310283086363248  8.1515784486360960  9.9159188129674565   T   T   T
  7.4040739364813932  1.1514642364707948  9.9172721291950463   T   T   T
  6.8754664427064549  8.1259244649278486  9.9270254951164123   T   T   T
 -0.3868447126104427  1.6247713643136803  7.5020964910831740   T   T   T
 -1.1047149426133844  8.6826939127971627  7.4544220484269683   T   T   T
  5.8299548314879113  1.6233289330236438  7.5026472372985342   T   T   T
  5.3525445568460093  8.6565250521790702  7.4180426823679584   T   T   T
  3.0537252583941097  2.7580820607039320  2.2012496154944619   T   T   T
  2.5155144897293757  9.7543692949893579  2.2193800754787518   T   T   T
  9.2956435758036360  2.7474849868163087  2.2052935552271160   T   T   T
  8.6640911098375160  9.7133821457123766  2.3150545312860960   T   T   T
  4.2610059467685835  2.3018982993732515  4.8822086632784529   T   T   T
  3.8782737482426999  9.2470561397096649  4.8937043090417331   T   T   T
 10.5044604500684144  2.2804546701171367  4.8987954227429178   T   T   T
 10.1422357958242966  9.1470681496234629  4.7547963489284211   T   T   T
  1.9627311951459641  2.1657856363646837  7.8732229474581406   T   T   T
  1.3659194729406439  9.1660515319932987  7.8618163833632462   T   T   T
  8.1761589287222822  2.1622186497253506  7.8713113570708089   T   T   T
  7.6779069278808993  9.1640287894203833  7.9452574479314153   T   T   T
  0.5134203897644938  2.6472286017383992  5.4121021237310787   T   T   T
  0.0333159789987386  9.6384389908751995  5.4020717130938234   T   T   T
  6.7102357777230859  2.6467887931364658  5.4097379727502162   T   T   T
  6.4447981569862636  9.6761838904306128  5.3301440334837729   T   T   T
  5.5244431420768843  3.1841424059357650  2.8161249745761925   T   T   T
  4.9717778922885438 10.1684432289490925  2.7828816218277130   T   T   T
 11.7737418548790487  3.1753253551711511  2.8312664130037763   T   T   T
 11.1698170114151214 10.2092534139430029  2.7908723868426906   T   T   T
  4.1647153563421115  3.7381658484771672  0.1379924608713084   T   T   T
  3.6138610403487252 10.7374598980929132  0.1415209450556324   T   T   T
 10.3856229009483965  3.7473721528867423  0.1464763928330757   T   T   T
  9.8111675017303277 10.7253031653001791  0.2520329543893152   T   T   T
  0.4061734402629373  3.8450402324939521  9.1453311823151768   T   T   T
 -0.1441691290364366 10.8125250633015071  9.1815464005260914   T   T   T
  6.6251210921464638  3.8477533800134700  9.1329347822714695   T   T   T
  6.1063296375672076 10.8083256494059938  9.1495809836297486   T   T   T
  5.2155921775532716  4.4055809318508956  6.6101838371036417   T   T   T
  4.7116048645597051 11.3361813638819022  6.5764398278116429   T   T   T
 11.4424630213831762  4.3991157462686212  6.6240036408725187   T   T   T
 10.8124199230629507 11.3548435607434008  6.5776632429969544   T   T   T
  3.7156683734708480  4.9267670893729933  4.0325557706462183   T   T   T
  3.3001661298626024 11.8868582342410711  4.0033756798534936   T   T   T
  9.9303238356719561  4.8635223269695036  4.0353304095546338   T   T   T
  9.4774933823400556 11.9346881329658778  4.1102353186009957   T   T   T
  2.4064058137427269  5.4894611427733135  1.4960529971858778   T   T   T
  1.8769399817424688 12.4672967705894511  1.4813717513748048   T   T   T
  8.6136028444388408  5.4561855558104524  1.4809912547718025   T   T   T
  8.0768042591806424 12.4660360725633819  1.4701921761487855   T   T   T
  2.2684978569722301  4.5342663343032257  6.5279706772747641   T   T   T
  1.8132292335620452 11.5390361094655081  6.4939170386535476   T   T   T
  8.4768314807227263  4.5108188669776617  6.5357564181054908   T   T   T
  7.8896443542881398 11.5986958687739961  6.6437570029591484   T   T   T
  3.6069323136643767  4.0724859939007949  9.0363465718714888   T   T   T
  3.0919276804602727 11.0290333122910376  9.0236859113112118   T   T   T
  9.8329621732239936  4.0643935233896622  9.0424051914482710   T   T   T
  9.2944995043585585 11.0587715478176118  9.0638861736645886   T   T   T
  0.8097641297762913  5.1052882733477354  4.0929214725980501   T   T   T
  0.3259842406866021 12.0542332733398148  4.0783253914325757   T   T   T
  7.0188788000281361  5.0666790919348239  4.0898046634745269   T   T   T
  6.4650028952485492 12.1708419988899443  4.0396257735531131   T   T   T
  5.6213590657655477  5.5751517340403840  1.4525740685371908   T   T   T
  5.0903914294149102 12.5845165839676749  1.4597856029130727   T   T   T
 11.8436754871801213  5.5771621655240500  1.4745013938184046   T   T   T
 11.2680880429705113 12.5748338384156568  1.5125625315750848   T   T   T
