V  O  Ca
 1.0000000000000000
     3.6530440000000000    0.0000000000000000    0.0000000000000000
     0.0000000000000000   10.3457639999999991    0.0000000000000000
     0.0000000000000000    4.4086660000000002   21.3774200000000008
 V   O   Ca 
  18  44   4
Cartesian
  0.9132610000000000  5.5061235155494561 20.7681430873590358
  2.7397830000000001 11.3774265189931558 19.4063683749811631
  0.9132610000000004  8.9590675488566163 20.1181998541741152
  0.9132610000000000 12.9814326009735659 15.1694849342550047
  2.7397830000000001 10.5753902377108986 15.7825636892134842
  0.9132610000000000  6.1654086716777448 14.5914783379091464
  2.7397830000000001  8.3736057769799004 13.4340722375024164
  0.9132610000000000  4.0704432814162042 12.2116463467507952
  2.7397830000000001 11.8387106626291452 12.6236910518095158
  0.9132610000000000  2.9157193373708594  8.7537289481904796
  2.7397830000000001 10.6839867185837996  9.1657736532491878
  0.9132610000000000  6.3808242230200962  7.9433477624975799
  2.7397830000000001  8.5890213283222430  6.7859416620908464
  0.9132610000000000  4.1790397622890998  5.5948563107865175
  2.7397830000000001  1.7729973990264358  6.2079350657449863
  2.7397830000000001  5.7953624511433794  1.2592201458258812
  0.9132610000000000  3.3770034810068443  1.9710516250188339
  2.7397830000000001  9.2483064844505396  0.6092769126409903
  2.7397830000000001  5.1823575289561763 21.1899628024986448
  0.9132610000000000 10.9565546634100226 19.7124516261574492
  0.9132610000000000  7.3646785206587637 21.0235100207368220
  2.7397830000000001 13.0681685357076915 19.5772730685990659
  2.7397830000000001  9.4933392347196577 20.3785299172246788
  0.9132610000000000  5.3348055177206497 19.0266424509474135
  2.7397830000000001 11.1432709164585564 17.7082147270069257
  0.9132610000000000  8.3303504816846328 18.5158085990576105
  0.9132610000000000 13.6832406257233270 16.7532607851712072
  0.9132610000000000  6.2390690336108356 16.3303805848936996
  2.7397830000000001 12.5860899406464029 14.8644299882580952
  2.7397830000000001  8.9005164655676925 15.9523864309013543
  0.9132610000000000  4.2940173921182891 14.1719732715683584
  0.9132610000000001 11.0699114087927395 15.6846497567030561
  0.9132610000000001 12.2884458169819482 13.0039650119947137
  2.7397830000000001  6.4818713769520109 14.1590561218350164
  0.9132610000000001  8.0493018245027308 13.9080292994137924
  2.7397830000000001  3.5152902306802640 12.2448766271473097
  2.7397830000000001 10.1871299271221876 13.7014181084375899
  0.9132610000000000  5.6909578607461633 12.1144323490510626
  2.7397830000000001  8.2599257623618509 11.8417612416929874
  0.9132610000000000  3.5767687461085949 10.3302454091240659
  2.7397830000000001 11.1776612538914044 11.0471745908759331
  0.9132610000000000  6.4945042376381519  9.5356587583070098
  2.7397830000000001  9.0634721392538431  9.2629876509489364
  0.9132610000000000  4.5673000728778046  7.6760018915623904
  0.9132610000000000 11.2391397693197419  9.1325433728526839
  2.7397830000000001  6.7051281754972614  7.4693907005862057
  0.9132609999999995  8.2725586230479919  7.2183638781649826
  2.7397830000000001  3.6845185912072580  5.6927702432969305
  2.7397830000000001  2.4659841830180556  8.3734549880052853
  2.7397830000000001 10.4604126078817128  7.2054467284316317
  0.9132610000000000  5.8539135344323032  5.4250335690986420
  0.9132610000000001  2.1683400593535942  6.5129900117418824
  2.7397830000000001  8.5153609663891690  5.0470394151062887
  2.7397830000000001  1.0711893742766798  4.6241592148287829
  2.7397830000000001  6.4240795183153665  2.8616114009423890
  0.9132610000000000  3.6111590835414602  3.6692052729930635
  2.7397830000000001  9.4196244822793389  2.3507775490526059
  0.9132610000000001  5.2610907652803389  0.9988900827753204
  0.9132610000000000  1.6862614642923053  1.8001469314009455
  2.7397830000000001  7.3897514793412302  0.3539099792631817
  2.7397830000000001  3.7978753365899731  1.6649683738425471
  0.9132610000000000  9.5720724710438123  0.1874571975013757
  2.7397829999999996  7.3781618318859650 17.4815559726574890
  2.7397830000000001  4.0936744917804120 17.8771881540999580
  0.9132610000000000 10.6607555082195731  3.5002318459000690
  0.9132610000000004  7.3762681681140227  3.8958640273425154
