Ca8 V8 F40
1.0
  17.8474460000000015    0.0000000000000000    0.0000000000000000
   0.0000000000000000    5.4901309999999999    0.0000000000000000
   0.0000000000000000    5.4989080000000001    7.8391849999999996
Ca V F
8 8 40
direct
   0.3047340000000000    0.8830509999999990    0.3615069999999990 Ca
   0.1189630000000000    0.5177769999999990    0.7280780000000000 Ca
   0.6189629999999990    0.4822229999999990    0.7719220000000000 Ca
   0.8047339999999999    0.1169490000000000    0.1384930000000000 Ca
   0.1952660000000000    0.8830509999999990    0.8615069999999990 Ca
   0.3810369999999990    0.5177769999999990    0.2280780000000000 Ca
   0.8810370000000000    0.4822229999999990    0.2719220000000000 Ca
   0.6952659999999991    0.1169490000000000    0.6384930000000000 Ca
   0.1183380000000000    0.1072269999999990    0.1360200000000000 V
   0.3765800000000000    0.2855510000000000    0.9577350000000000 V
   0.6183379999999991    0.8927729999999990    0.3639800000000000 V
   0.8765800000000000    0.7144490000000000    0.5422650000000000 V
   0.1234200000000000    0.2855510000000000    0.4577350000000000 V
   0.3816620000000000    0.1072269999999990    0.6360200000000000 V
   0.6234200000000001    0.7144490000000000    0.0422650000000000 V
   0.8816619999999999    0.8927729999999990    0.8639800000000001 V
   0.3498890000000000    0.5020350000000000    0.5192390000000000 F
   0.1544200000000000    0.4557290000000000    0.5712020000000000 F
   0.3572630000000000    0.9000950000000000    0.1652330000000000 F
   0.5964579999999990    0.9111260000000000    0.1568409999999990 F
   0.1369419999999990    0.1273780000000000    0.9317420000000000 F
   0.9051739999999990    0.3230210000000000    0.7476610000000000 F
   0.2845800000000000    0.3198320000000000    0.8719500000000001 F
   0.2124740000000000    0.9725370000000000    0.2263359999999990 F
   0.5218090000000000    0.8131750000000000    0.4158449999999990 F
   0.9728140000000000    0.7494440000000000    0.4819239999999990 F
   0.4728139999999990    0.2505560000000000    0.0180760000000000 F
   0.0218090000000000    0.1868250000000000    0.0841550000000000 F
   0.7124739999999991    0.0274629999999990    0.2736639999999990 F
   0.7845800000000001    0.6801680000000000    0.6280500000000000 F
   0.4051740000000000    0.6769790000000000    0.7523390000000000 F
   0.0964580000000000    0.0888740000000000    0.3431590000000000 F
   0.6369420000000000    0.8726220000000000    0.5682579999999990 F
   0.8572630000000000    0.0999050000000000    0.3347670000000000 F
   0.6544200000000000    0.5442709999999999    0.9287980000000000 F
   0.8498890000000000    0.4979650000000000    0.9807610000000000 F
   0.1501110000000000    0.5020350000000000    0.0192390000000000 F
   0.3455800000000001    0.4557290000000000    0.0712020000000000 F
   0.1427370000000000    0.9000950000000000    0.6652330000000000 F
   0.3630580000000000    0.1273780000000000    0.4317419999999990 F
   0.9035420000000000    0.9111260000000000    0.6568410000000000 F
   0.5948260000000000    0.3230210000000000    0.2476610000000000 F
   0.2154200000000000    0.3198320000000000    0.3719500000000000 F
   0.2875260000000000    0.9725370000000000    0.7263360000000000 F
   0.9781909999999990    0.8131750000000000    0.9158449999999990 F
   0.5271859999999990    0.7494440000000000    0.9819239999999991 F
   0.0271860000000000    0.2505560000000000    0.5180760000000000 F
   0.4781910000000000    0.1868250000000000    0.5841550000000000 F
   0.7875259999999999    0.0274629999999990    0.7736640000000000 F
   0.7154200000000001    0.6801680000000000    0.1280500000000000 F
   0.0948260000000000    0.6769790000000000    0.2523390000000000 F
   0.8630580000000000    0.8726220000000000    0.0682580000000000 F
   0.4035419999999990    0.0888740000000000    0.8431590000000000 F
   0.6427370000000000    0.0999050000000000    0.8347669999999990 F
   0.8455800000000001    0.5442709999999999    0.4287979999999990 F
   0.6501110000000000    0.4979650000000000    0.4807610000000000 F
