Ca V  F 
 1.0000000000000000
    17.8474460000000015    0.0000000000000000    0.0000000000000000
     0.0000000000000000    5.4901309999999999    0.0000000000000000
     0.0000000000000000    5.4989080000000001    7.8391849999999996
 Ca  V   F  
   8   8  40
Cartesian
  5.3441021826945976  7.0569842604722295  2.8335441245480220
  0.9935946315677765  6.6995835573562790  5.2161029329545618
  9.9173176315677871  7.0389094426437140  6.5426745670454576
 14.2678251826946045  1.1826007395277582  1.0860483754519872
  3.5796208173053881  9.8064382604722251  6.7531366245480084
  7.9301283684322215  3.9501295573562807  1.2965104329545540
 16.8538513684322275  4.2894554426437246  2.6230820670454640
 12.5033438173053799  3.9320547395277599  5.0056408754519923
  1.8165297971267698  1.2966202536739855  1.1185819404969704
  6.5468988909187882  6.7472869258227881  7.4276681619793798
 10.7402527971267716  6.9429647463259982  2.8010105595030295
 15.4706218909187765  6.9912060741772208  4.3311093380206227
  2.3768241090812134  3.9978329258227987  3.5080756619793725
  7.1071932028732219  4.0460742536739804  5.0381744404969693
 11.3005471090812115  4.2417520741771959  0.4115168380206304
 16.0309162028732146  9.6924187463260196  6.7206030595030262
  6.2808543683907629  5.6244310376622799  4.2795922317051200
  2.9668163636332117  5.5563719928298587  4.5764564613960275
  6.3709395124689205  5.6938343540811047  1.3213678861411640
 10.5376626227322170  5.9873925850354786  0.9912590374040811
  1.9263004361225926  5.8972218875078299  7.1593343710443058
 16.5173674195019089  6.0360943626921371  5.8770923156099935
  4.8220653582928046  6.2276681249571730  6.8246059285352141
  3.5840894084624422  6.1856239978126633  1.7061016647337057
  8.9676471675746505  6.4995481334901033  3.0338327922984725
 17.2228870859351950  6.5617396449242227  3.5337989318206207
  8.2991640859351943  1.6778453550757926  0.3857935681793853
  0.0439241675746439  1.7400368665098520  0.8857597077015166
 12.5078124084624456  2.0539610021873065  2.2134908352663052
 13.7457883582927813  7.5108248750428022  4.9341715714647973
  7.5936444195019090  7.7023986373078568  5.8816851843900126
  1.6139396227322034  2.2521924149645267  2.9283334625959103
 10.8500234361225978  7.8412711124921435  4.5994431289556932
 15.2946625124689088  2.5457506459188912  2.5982246138588341
 11.8905393636331933  8.1821210071701387  7.1823210386039698
 15.2045773683907584  8.1140619623377077  7.4791852682948754
  2.6428686316092480  2.8749770376622705  0.3599997317051115
  5.9569066363668064  2.8069179928298524  0.6568639613960233
  2.5527834875310504  8.4432883540811101  5.2409603861411647
  6.9974225638773992  3.1477678875078303  3.2397418710442998
 16.2335063772677692  8.7368465850355257  4.9108515374040662
 10.2538015804980773  3.2866403626921308  1.9574998156099956
  4.1016576417071962  3.4782141249571752  2.9050134285352001
  5.3396335915375399  8.9350779978126660  5.6256941647336660
 17.8035218324253357  9.2490021334901193  6.9534252922984541
  9.5482819140648054  9.3111936449241739  7.4533914318206245
  0.6245589140648117  4.4272993550758439  4.3053860681793896
  8.8797988324253492  4.4894908665098336  4.8053522077015272
 14.2633565915375300  4.8034150021873154  6.1330833352663348
 13.0253806417071942  4.7613708750428128  1.0145790714647906
  1.3300785804980728  4.9529446373078567  1.9620926843900059
 15.9211455638774044  5.0918171124921541  0.6798506289556971
  7.3097833772677792  5.0016464149645090  6.8479259625959088
 11.4765064875310561  5.2952046459188793  6.5178171138588388
 14.8806296363668071  5.4326670071701493  3.2627285386039744
 11.5665916316092297  5.3646079623377041  3.5595927682948831
