Ca V  P  O 
1.0
       11.1296310425         0.0000000000         0.0000000000
        2.8994549615        10.7443060018         0.0000000000
       -1.6016288385         2.0900824976        13.7540809288
   Ca    V    P    O
   11   12   24   84
Direct
     0.366319150         0.366443574         0.333274335
     0.366319150         0.366443574         0.999940991
     0.366319150         0.866443574         0.666607678
     0.366319150         0.866443574         0.999940991
     0.366319150         0.866443574         0.333274335
     0.866319180         0.366443574         0.666607678
     0.866319180         0.366443574         0.999940991
     0.866319180         0.366443574         0.333274335
     0.866319180         0.866443574         0.666607678
     0.866319180         0.866443574         0.999940991
     0.866319180         0.866443574         0.333274335
     0.055471260         0.055482287         0.000022853
     0.055471260         0.055482287         0.333356172
     0.055471260         0.055482287         0.666689515
     0.055471260         0.555482268         0.000022853
     0.055471260         0.555482268         0.333356172
     0.055471260         0.555482268         0.666689515
     0.555471241         0.055482287         0.000022853
     0.555471241         0.055482287         0.333356172
     0.555471241         0.055482287         0.666689515
     0.555471241         0.555482268         0.000022853
     0.555471241         0.555482268         0.333356172
     0.555471241         0.555482268         0.666689515
     0.324603111         0.111287840         0.137779787
     0.324603111         0.111287840         0.471113116
     0.324603111         0.111287840         0.804446459
     0.324603111         0.611287832         0.137779787
     0.324603111         0.611287832         0.471113116
     0.324603111         0.611287832         0.804446459
     0.824603081         0.111287840         0.137779787
     0.824603081         0.111287840         0.471113116
     0.824603081         0.111287840         0.804446459
     0.824603081         0.611287832         0.137779787
     0.824603081         0.611287832         0.471113116
     0.824603081         0.611287832         0.804446459
     0.111328542         0.324587733         0.195536867
     0.111328542         0.324587733         0.528870225
     0.111328542         0.324587733         0.862203538
     0.111328542         0.824587703         0.195536867
     0.111328542         0.824587703         0.528870225
     0.111328542         0.824587703         0.862203538
     0.611328542         0.324587733         0.195536867
     0.611328542         0.324587733         0.528870225
     0.611328542         0.324587733         0.862203538
     0.611328542         0.824587703         0.195536867
     0.611328542         0.824587703         0.528870225
     0.611328542         0.824587703         0.862203538
     0.395465225         0.033948839         0.234866783
     0.395465225         0.033948839         0.568200111
     0.395465225         0.033948839         0.901533425
     0.395465225         0.533948839         0.234866783
     0.395465225         0.533948839         0.568200111
     0.395465225         0.533948839         0.901533425
     0.895465255         0.033948839         0.234866783
     0.895465255         0.033948839         0.568200111
     0.895465255         0.033948839         0.901533425
     0.895465255         0.533948839         0.234866783
     0.895465255         0.533948839         0.568200111
     0.895465255         0.533948839         0.901533425
     0.161265790         0.410540670         0.258666426
     0.161265790         0.410540670         0.591999769
     0.161265790         0.410540670         0.925333083
     0.161265790         0.910540700         0.258666426
     0.161265790         0.910540700         0.591999769
     0.161265790         0.910540700         0.925333083
     0.661265790         0.410540670         0.258666426
     0.661265790         0.410540670         0.591999769
     0.661265790         0.410540670         0.925333083
     0.661265790         0.910540700         0.258666426
     0.661265790         0.910540700         0.591999769
     0.661265790         0.910540700         0.925333083
     0.043682240         0.242242992         0.250969052
     0.043682240         0.242242992         0.584302366
     0.043682240         0.242242992         0.917635739
     0.043682240         0.742242992         0.250969052
     0.043682240         0.742242992         0.584302366
     0.043682240         0.742242992         0.917635739
     0.543682218         0.242242992         0.250969052
     0.543682218         0.242242992         0.584302366
     0.543682218         0.242242992         0.917635739
     0.543682218         0.742242992         0.250969052
     0.543682218         0.742242992         0.584302366
     0.543682218         0.742242992         0.917635739
     0.033908021         0.395294785         0.098397203
     0.033908021         0.395294785         0.431730539
     0.033908021         0.395294785         0.765063882
     0.033908021         0.895294785         0.098397203
     0.033908021         0.895294785         0.431730539
     0.033908021         0.895294785         0.765063882
     0.533908010         0.395294785         0.098397203
     0.533908010         0.395294785         0.431730539
     0.533908010         0.395294785         0.765063882
     0.533908010         0.895294785         0.098397203
     0.533908010         0.895294785         0.431730539
     0.533908010         0.895294785         0.765063882
     0.241221681         0.241088256         0.166785777
     0.241221681         0.241088256         0.500119090
     0.241221681         0.241088256         0.833452463
     0.241221681         0.741088271         0.166785777
     0.241221681         0.741088271         0.500119090
     0.241221681         0.741088271         0.833452463
     0.741221666         0.241088256         0.166785777
     0.741221666         0.241088256         0.500119090
     0.741221666         0.241088256         0.833452463
     0.741221666         0.741088271         0.166785777
     0.741221666         0.741088271         0.500119090
     0.741221666         0.741088271         0.833452463
     0.242265940         0.043535955         0.082423806
     0.242265940         0.043535955         0.415757149
     0.242265940         0.043535955         0.749090493
     0.242265940         0.543535948         0.082423806
     0.242265940         0.543535948         0.415757149
     0.242265940         0.543535948         0.749090493
     0.742265940         0.043535955         0.082423806
     0.742265940         0.043535955         0.415757149
     0.742265940         0.043535955         0.749090493
     0.742265940         0.543535948         0.082423806
     0.742265940         0.543535948         0.415757149
     0.742265940         0.543535948         0.749090493
     0.410412520         0.161490545         0.074610434
     0.410412520         0.161490545         0.407943755
     0.410412520         0.161490545         0.741277099
     0.410412520         0.661490560         0.074610434
     0.410412520         0.661490560         0.407943755
     0.410412520         0.661490560         0.741277099
     0.910412550         0.161490545         0.074610434
     0.910412550         0.161490545         0.407943755
     0.910412550         0.161490545         0.741277099
     0.910412550         0.661490560         0.074610434
     0.910412550         0.661490560         0.407943755
     0.910412550         0.661490560         0.741277099
