Ca Mn V  P  O  F 
1.0
       11.0565958023         0.0000000000         0.0000000000
       -3.1370910064        10.6732536603         0.0000000000
       -3.6176413398        -4.4378814988        13.8795511134
   Ca   Mn    V    P    O    F
   15    8    8   16   64   16
Direct
     0.181918174         0.336671442         0.347222030
     0.181918174         0.336671442         0.847222030
     0.181918174         0.836671472         0.347222030
     0.181918174         0.836671472         0.847222030
     0.681918144         0.336671442         0.347222030
     0.681918144         0.336671442         0.847222030
     0.681918144         0.836671472         0.347222030
     0.681918144         0.836671472         0.847222030
     0.318359554         0.163426504         0.652921140
     0.318359554         0.663426518         0.152921125
     0.318359554         0.663426518         0.652921140
     0.818359554         0.163426504         0.152921125
     0.818359554         0.163426504         0.652921140
     0.818359554         0.663426518         0.152921125
     0.818359554         0.663426518         0.652921140
     0.000033806         0.000050971         0.250027180
     0.000033806         0.000050971         0.750027180
     0.000033806         0.500050962         0.250027180
     0.000033806         0.500050962         0.750027180
     0.500033796         0.000050971         0.250027180
     0.500033796         0.000050971         0.750027180
     0.500033796         0.500050962         0.250027180
     0.500033796         0.500050962         0.750027180
     0.000243946         0.000004330         0.000021782
     0.000243946         0.000004330         0.500021756
     0.000243946         0.500004351         0.000021782
     0.000243946         0.500004351         0.500021756
     0.500243962         0.000004330         0.000021782
     0.500243962         0.000004330         0.500021756
     0.500243962         0.500004351         0.000021782
     0.500243962         0.500004351         0.500021756
     0.350356132         0.164407864         0.369069040
     0.350356132         0.164407864         0.869069040
     0.350356132         0.664407849         0.369069040
     0.350356132         0.664407849         0.869069040
     0.850356102         0.164407864         0.369069040
     0.850356102         0.164407864         0.869069040
     0.850356102         0.664407849         0.369069040
     0.850356102         0.664407849         0.869069040
     0.149389297         0.335525155         0.130893007
     0.149389297         0.335525155         0.630892992
     0.149389297         0.835525155         0.130893007
     0.149389297         0.835525155         0.630892992
     0.649389267         0.335525155         0.130893007
     0.649389267         0.335525155         0.630892992
     0.649389267         0.835525155         0.130893007
     0.649389267         0.835525155         0.630892992
     0.214471295         0.128908291         0.287278652
     0.214471295         0.128908291         0.787278652
     0.214471295         0.628908277         0.287278652
     0.214471295         0.628908277         0.787278652
     0.714471281         0.128908291         0.287278652
     0.714471281         0.128908291         0.787278652
     0.714471281         0.628908277         0.287278652
     0.714471281         0.628908277         0.787278652
     0.458960325         0.177223012         0.317135364
     0.458960325         0.177223012         0.817135334
     0.458960325         0.677223027         0.317135364
     0.458960325         0.677223027         0.817135334
     0.958960295         0.177223012         0.317135364
     0.958960295         0.177223012         0.817135334
     0.958960295         0.677223027         0.317135364
     0.958960295         0.677223027         0.817135334
     0.368853509         0.297201127         0.439988673
     0.368853509         0.297201127         0.939988673
     0.368853509         0.797201157         0.439988673
     0.368853509         0.797201157         0.939988673
     0.868853509         0.297201127         0.439988673
     0.868853509         0.297201127         0.939988673
     0.868853509         0.797201157         0.439988673
     0.868853509         0.797201157         0.939988673
     0.153407350         0.444869936         0.081738330
     0.153407350         0.444869936         0.581738353
     0.153407350         0.944869936         0.081738330
     0.153407350         0.944869936         0.581738353
     0.653407335         0.444869936         0.081738330
     0.653407335         0.444869936         0.581738353
     0.653407335         0.944869936         0.081738330
     0.653407335         0.944869936         0.581738353
     0.346811324         0.055233020         0.418391526
     0.346811324         0.055233020         0.918391526
     0.346811324         0.555233002         0.418391526
     0.346811324         0.555233002         0.918391526
     0.846811295         0.055233020         0.418391526
     0.846811295         0.055233020         0.918391526
     0.846811295         0.555233002         0.418391526
     0.846811295         0.555233002         0.918391526
     0.131026313         0.202769637         0.059995297
     0.131026313         0.202769637         0.559995294
     0.131026313         0.702769637         0.059995297
     0.131026313         0.702769637         0.559995294
     0.631026328         0.202769637         0.059995297
     0.631026328         0.202769637         0.559995294
     0.631026328         0.702769637         0.059995297
     0.631026328         0.702769637         0.559995294
     0.040587813         0.322598964         0.182550177
     0.040587813         0.322598964         0.682550192
     0.040587813         0.822598934         0.182550177
     0.040587813         0.822598934         0.682550192
     0.540587783         0.322598964         0.182550177
     0.540587783         0.322598964         0.682550192
     0.540587783         0.822598934         0.182550177
     0.540587783         0.822598934         0.682550192
     0.285390049         0.371313542         0.212738469
     0.285390049         0.371313542         0.712738454
     0.285390049         0.871313572         0.212738469
     0.285390049         0.871313572         0.712738454
     0.785390019         0.371313542         0.212738469
     0.785390019         0.371313542         0.712738454
     0.785390019         0.871313572         0.212738469
     0.785390019         0.871313572         0.712738454
     0.434159636         0.033172894         0.115265183
     0.434159636         0.033172894         0.615265191
     0.434159636         0.533172905         0.115265183
     0.434159636         0.533172905         0.615265191
     0.934159636         0.033172894         0.115265183
     0.934159636         0.033172894         0.615265191
     0.934159636         0.533172905         0.115265183
     0.934159636         0.533172905         0.615265191
     0.066031516         0.466623336         0.384764731
     0.066031516         0.466623336         0.884764731
     0.066031516         0.966623306         0.384764731
     0.066031516         0.966623306         0.884764731
     0.566031516         0.466623336         0.384764731
     0.566031516         0.466623336         0.884764731
     0.566031516         0.966623306         0.384764731
     0.566031516         0.966623306         0.884764731
