Ca Co Ni O 
 1.0000000000000000
     1.6195260000000000   -2.4685480000000002   -4.8383240000000001
     1.6197050000000000   -5.4213410000000000   -0.0001519999999990
    -3.8438800000000000   -4.1029530000000003   -2.5142220000000002
 Ca  Co  Ni  O  
   1   3   1   8
Cartesian
  0.9851061533080032 -8.5619246120148027 -5.2577300643997056
  0.7739148221731071 -1.2817543814245318 -2.4061934498041597
  0.7728006779300878 -2.7214742706761248 -0.0462658358208083
  1.5632587126930488 -3.9248252401633295 -2.4065087693476039
 -3.6035697678863592 -4.0308872766590502 -2.4682066921802606
 -2.2824465529863547 -5.2159928127889081 -3.1973279050401282
 -1.5270471640105077 -6.3633253316274505 -5.4401494403400310
 -1.5294324209647860 -7.7366572712108761 -3.1977392618031732
 -0.9406438358489274 -9.1407134750444765 -5.6045427979650926
  0.0768959986421790 -2.9293407102288134 -1.7929963826754214
  1.0040263358926151 -4.1239703622527850 -4.1935940594028498
  1.0019813538634204 -5.6057043557368464 -1.7799731536013645
  1.8167499889994774 -6.8427012345879250 -4.1933141443173492
