Ca1 V1 Cr1 P4 O14
1.0
   4.8865819999999998    0.0249180000000000    0.0548810000000000
   0.0129389999999990    8.0742189999999994   -0.0125880000000000
  -2.1953410000000000    0.0074880000000000    6.6558089999999996
Ca V Cr P O
1 1 1 4 14
direct
   0.1668359999999990    0.8673879999999990    0.6754760000000000 Ca
   0.2043700000000000    0.4952809999999990    0.7243130000000000 V
   0.7856120000000000    0.0049670000000000    0.2721429999999990 Cr
   0.3980100000000000    0.1827700000000000    0.5169270000000000 P
   0.2307280000000000    0.7797480000000000    0.0930930000000000 P
   0.7740490000000000    0.2798779999999990    0.9110360000000000 P
   0.6010080000000000    0.6792460000000000    0.4803010000000000 P
   0.0410860000000000    0.3346159999999990    0.8520880000000000 O
   0.1469280000000000    0.6871490000000000    0.8904620000000000 O
   0.1698390000000000    0.0479109999999990    0.4884529999999990 O
   0.2656130000000000    0.3566249999999990    0.5202610000000000 O
   0.3881650000000000    0.6785909999999991    0.6050820000000000 O
   0.5791990000000000    0.4320920000000000    0.9043840000000000 O
   0.6040519999999990    0.1483539999999990    0.7440990000000000 O
   0.4213230000000000    0.6448530000000000    0.2516240000000000 O
   0.4171559999999990    0.9279839999999990    0.0793830000000000 O
   0.5786680000000000    0.1786289999999990    0.3771080000000000 O
   0.7443050000000000    0.8491150000000000    0.4911359999999990 O
   0.8216180000000000    0.5395050000000000    0.5397930000000000 O
   0.8680400000000000    0.1845480000000000    0.1035659999999990 O
   0.9692980000000000    0.8234279999999990    0.1560679999999990 O
