Ca V  Cr P  O 
 1.0000000000000000
     4.8865819999999998    0.0249180000000000    0.0548810000000000
     0.0129389999999990    8.0742189999999994   -0.0125880000000000
    -2.1953410000000000    0.0074880000000000    6.6558089999999996
 Ca  V   Cr  P   O  
   1   1   1   4  14
Cartesian
 -0.5963899439180993  7.5550449849604062  4.9404941594922382
 -0.5158647555818857  3.9898338588123896  4.8798280696250096
  3.1929919920638099  0.0302411625410771  1.8088605203132841
  0.8337657970460413  1.6355544785239262  3.2146763768549085
  0.8009768372189124  6.1876054790148691  0.7801781394068579
  1.8642140495139492  2.1261885259649178  5.9501371042956466
  1.9037229432436651  5.5872288857995240  3.3882239828361351
 -1.5686483701561393  2.3198134557867109  5.4717792176743281
 -1.3050059726280674  5.4649093043473940  6.1029121131048640
 -0.1932906711948884  0.5048236166382251  2.9574949902871115
  0.2400719049811668  3.0180151135305606  3.2787669505287123
  0.6196953473195311  5.6690761691238611  4.2358436276042148
  1.0113950522274278  3.3831648435961537  6.0331378157753344
  1.2005927787481225  1.1716176153409039  4.7637354622280403
  1.4810264462492548  5.2539540327460381  1.8712631136331361
  1.6820555455810171  7.4664539228271938  0.6364451089613388
  2.0838860833227875  1.5526734920373315  2.3744801979540835
  2.5742166930777963  6.9910527323804184  3.3913069453936489
  2.8410025017056690  4.4751103604100617  3.7465718289610996
  4.0155073305981466  1.1687861102278041  0.4654327236919569
  4.2512321673337814  6.5150818932740933  1.2021859212210102
