Sc Mn O  Ca
 1.0000000000000000
     1.9956450000000001   -4.8821940000000001    0.0000000000000000
     1.9956450000000001    4.8821940000000001    0.0000000000000000
     0.0000000000000000    0.0000000000000000    9.8913899999999995
 Sc  Mn  O   Ca 
   2   4  10   2
Cartesian
  1.9956449999999990 -2.7003333417439026  2.4728474999999985
  1.9956449999999977  2.7003333417439017  7.4185424999999974
  1.9956449999999981 -3.4745825502084160  5.4608807933542334
  1.9956449999999981 -3.4745825502084160  9.3762042066457667
  1.9956449999999988  3.4745825502084133  0.5151857933542343
  1.9956449999999981  3.4745825502084200  4.4305092066457679
  1.9956449999999983 -4.2984828620714719  1.2436691209012094
  1.9956449999999983 -4.2984828620714639  3.7020258790987839
  1.9956449999999983 -1.5072085325515743  4.1868449850673093
  1.9956449999999988 -1.5072085325515754  0.7588500149326731
  1.9956449999999992  2.5693854870449138  2.4728474999999772
  1.9956449999999983  4.2984828620714728  6.1893641209012218
  1.9956449999999979  1.5072085325515763  5.7045450149326795
  1.9956449999999972 -2.5693854870449129  7.4185424999999992
  1.9956449999999983  4.2984828620714621  8.6477208790987987
  1.9956449999999979  1.5072085325515767  9.1325399850673215
  1.9956449999999979  0.1324816716589223  2.4728475000000003
  1.9956449999999977 -0.1324816716589197  7.4185424999999956
