Ca Mn V  P  O 
1.0
        8.3030509949         0.0000000000         0.0000000000
       -0.5935550092        19.8137414371         0.0000000000
       -0.1199006174        -0.6656461384        10.1178404172
   Ca   Mn    V    P    O
    5    6    6   24   84
Direct
     0.922100782         0.548309207         0.640620828
     0.411281586         0.124260910         0.012738391
     0.411281586         0.624260902         0.012738391
     0.919870675         0.873446882         0.992858469
     0.922100782         0.048309207         0.640620828
     0.013688354         0.453833431         0.339723468
     0.013688354         0.953833461         0.339723468
     0.988974810         0.126789570         0.023554944
     0.988974810         0.626789570         0.023554944
     0.005281026         0.290206969         0.678792715
     0.005281026         0.790206969         0.678792715
     0.503092885         0.208449304         0.325753093
     0.503092885         0.708449304         0.325753093
     0.491665810         0.372956097         0.973605096
     0.491665810         0.872956097         0.973605096
     0.496943742         0.039030030         0.647421896
     0.496943742         0.539030015         0.647421896
     0.761103451         0.000434101         0.112031788
     0.761103451         0.500434101         0.112031788
     0.281981349         0.333140850         0.223640382
     0.281981349         0.833140850         0.223640382
     0.696966112         0.234784067         0.037928760
     0.696966112         0.734784067         0.037928760
     0.190128103         0.433499306         0.626615405
     0.190128103         0.933499336         0.626615405
     0.775268257         0.331905961         0.445469469
     0.775268257         0.831905961         0.445469469
     0.693097889         0.402811378         0.707328141
     0.693097889         0.902811408         0.707328141
     0.184253722         0.099653430         0.293204010
     0.184253722         0.599653423         0.293204010
     0.269089907         0.164775431         0.559536517
     0.269089907         0.664775431         0.559536517
     0.675971746         0.065938257         0.371574759
     0.675971746         0.565938234         0.371574759
     0.197877973         0.266000241         0.961676717
     0.197877973         0.766000271         0.961676717
     0.766432583         0.168129712         0.780290246
     0.766432583         0.668129683         0.780290246
     0.263220698         0.497765899         0.888767362
     0.263220698         0.997765899         0.888767362
     0.670755446         0.446940839         0.022862196
     0.670755446         0.946940839         0.022862196
     0.917334676         0.466987342         0.158539265
     0.917334676         0.966987371         0.158539265
     0.426380962         0.367146760         0.160594270
     0.426380962         0.867146730         0.160594270
     0.154326856         0.308740020         0.099039607
     0.154326856         0.808740020         0.099039607
     0.180832088         0.376637042         0.313417971
     0.180832088         0.876637042         0.313417971
     0.829644084         0.388583988         0.358400166
     0.829644084         0.888584018         0.358400166
     0.056895237         0.459929585         0.536454916
     0.056895237         0.959929585         0.536454916
     0.866548479         0.219115049         0.074415386
     0.866548479         0.719115019         0.074415386
     0.359480202         0.454988152         0.593836486
     0.359480202         0.954988122         0.593836486
     0.562773883         0.210189536         0.127740368
     0.562773883         0.710189521         0.127740368
     0.693957031         0.479446024         0.681070626
     0.693957031         0.979446054         0.681070626
     0.331723422         0.266694516         0.283180386
     0.331723422         0.766694546         0.283180386
     0.658196330         0.282575905         0.367892116
     0.658196330         0.782575905         0.367892116
     0.141974941         0.481720597         0.762445986
     0.141974941         0.981720567         0.762445986
     0.668054640         0.363162607         0.564621150
     0.668054640         0.863162637         0.564621150
     0.794915855         0.065065823         0.041346636
     0.794915855         0.565065801         0.041346636
     0.918223679         0.296466857         0.503894091
     0.918223679         0.796466827         0.503894091
     0.172684208         0.359614402         0.653451979
     0.172684208         0.859614372         0.653451979
     0.047642812         0.123767331         0.207153067
     0.047642812         0.623767316         0.207153067
     0.351373792         0.126013622         0.246496752
     0.351373792         0.626013637         0.246496752
     0.854808927         0.384532660         0.767653883
     0.854808927         0.884532690         0.767653883
     0.548216045         0.381799579         0.786641955
     0.548216045         0.881799579         0.786641955
     0.662335515         0.140828013         0.337800562
     0.662335515         0.640828013         0.337800562
     0.418707967         0.198962748         0.498006463
     0.418707967         0.698962748         0.498006463
     0.289168060         0.430762917         0.949450374
     0.289168060         0.930762887         0.949450374
     0.152360797         0.136028647         0.436448485
     0.152360797         0.636028647         0.436448485
     0.646709740         0.020145906         0.233317077
     0.646709740         0.520145893         0.233317077
     0.165955499         0.211422026         0.641622722
     0.165955499         0.711422026         0.641622722
     0.180565149         0.023384171         0.306515157
     0.180565149         0.523384154         0.306515157
     0.812628806         0.233767122         0.720640540
     0.812628806         0.733767152         0.720640540
     0.063335717         0.290704280         0.872563958
     0.063335717         0.790704250         0.872563958
     0.843178809         0.050423674         0.422995597
     0.843178809         0.550423682         0.422995597
     0.367634624         0.284880280         0.922800064
     0.367634624         0.784880280         0.922800064
     0.538136065         0.043743752         0.456490070
     0.538136065         0.543743730         0.456490070
     0.684455395         0.308963239         0.005876541
     0.684455395         0.808963239         0.005876541
     0.314111292         0.103277490         0.634732366
     0.314111292         0.603277504         0.634732366
     0.675254643         0.117247440         0.686122417
     0.675254643         0.617247462         0.686122417
     0.645362377         0.185443729         0.902979255
     0.645362377         0.685443759         0.902979255
     0.914566994         0.130937621         0.833630204
     0.914566994         0.630937636         0.833630204
     0.186412320         0.189891532         0.983515143
     0.186412320         0.689891517         0.983515143
     0.421534300         0.032842424         0.843384743
     0.421534300         0.532842398         0.843384743
     0.177393198         0.049973734         0.978018522
     0.177393198         0.549973726         0.978018522
