Ca1 Ta2 Fe2 O8
1.0
       13.5853681564         0.0000000000         0.0000000000
      -11.3560988717         7.4566243276         0.0000000000
       -3.3691696905         1.0072604320        13.1538695775
   Ca   Ta   Fe    O
    7   16   16   64
Direct
     0.750000000         0.750000000         0.250000000
     0.250000000         0.250000000         0.750000000
     0.250000000         0.750000000         0.250000000
     0.250000000         0.750000000         0.750000000
     0.750000000         0.250000000         0.250000000
     0.750000000         0.250000000         0.750000000
     0.750000000         0.750000000         0.750000000
     0.048303001         0.451696992         0.104954503
     0.048303001         0.451696992         0.604954481
     0.048303001         0.951696992         0.104954503
     0.048303001         0.951696992         0.604954481
     0.548303008         0.451696992         0.104954503
     0.548303008         0.451696992         0.604954481
     0.548303008         0.951696992         0.104954503
     0.548303008         0.951696992         0.604954481
     0.451696992         0.048303001         0.395045489
     0.451696992         0.048303001         0.895045519
     0.451696992         0.548303008         0.395045489
     0.451696992         0.548303008         0.895045519
     0.951696992         0.048303001         0.395045489
     0.951696992         0.048303001         0.895045519
     0.951696992         0.548303008         0.395045489
     0.951696992         0.548303008         0.895045519
     0.099779002         0.400220990         0.399064004
     0.099779002         0.400220990         0.899064004
     0.099779002         0.900220990         0.399064004
     0.099779002         0.900220990         0.899064004
     0.599779010         0.400220990         0.399064004
     0.599779010         0.400220990         0.899064004
     0.599779010         0.900220990         0.399064004
     0.599779010         0.900220990         0.899064004
     0.400220990         0.099779002         0.100936003
     0.400220990         0.099779002         0.600935996
     0.400220990         0.599779010         0.100936003
     0.400220990         0.599779010         0.600935996
     0.900220990         0.099779002         0.100936003
     0.900220990         0.099779002         0.600935996
     0.900220990         0.599779010         0.100936003
     0.900220990         0.599779010         0.600935996
     0.030331500         0.469668508         0.444362491
     0.030331500         0.469668508         0.944362521
     0.030331500         0.969668508         0.444362491
     0.030331500         0.969668508         0.944362521
     0.530331492         0.469668508         0.444362491
     0.530331492         0.469668508         0.944362521
     0.530331492         0.969668508         0.444362491
     0.530331492         0.969668508         0.944362521
     0.049786501         0.450213492         0.249312997
     0.049786501         0.450213492         0.749312997
     0.049786501         0.950213492         0.249312997
     0.049786501         0.950213492         0.749312997
     0.549786508         0.450213492         0.249312997
     0.549786508         0.450213492         0.749312997
     0.549786508         0.950213492         0.249312997
     0.549786508         0.950213492         0.749312997
     0.199618995         0.300381005         0.380076498
     0.199618995         0.300381005         0.880076528
     0.199618995         0.800381005         0.380076498
     0.199618995         0.800381005         0.880076528
     0.699618995         0.300381005         0.380076498
     0.699618995         0.300381005         0.880076528
     0.699618995         0.800381005         0.380076498
     0.699618995         0.800381005         0.880076528
     0.122769997         0.377229989         0.088507503
     0.122769997         0.377229989         0.588507533
     0.122769997         0.877229989         0.088507503
     0.122769997         0.877229989         0.588507533
     0.622770011         0.377229989         0.088507503
     0.622770011         0.377229989         0.588507533
     0.622770011         0.877229989         0.088507503
     0.622770011         0.877229989         0.588507533
     0.377229989         0.122769997         0.411492497
     0.377229989         0.122769997         0.911492467
     0.377229989         0.622770011         0.411492497
     0.377229989         0.622770011         0.911492467
     0.877229989         0.122769997         0.411492497
     0.877229989         0.122769997         0.911492467
     0.877229989         0.622770011         0.411492497
     0.877229989         0.622770011         0.911492467
     0.300381005         0.199618995         0.119923502
     0.300381005         0.199618995         0.619923472
     0.300381005         0.699618995         0.119923502
     0.300381005         0.699618995         0.619923472
     0.800381005         0.199618995         0.119923502
     0.800381005         0.199618995         0.619923472
     0.800381005         0.699618995         0.119923502
     0.800381005         0.699618995         0.619923472
     0.450213492         0.049786501         0.250687003
     0.450213492         0.049786501         0.750687003
     0.450213492         0.549786508         0.250687003
     0.450213492         0.549786508         0.750687003
     0.950213492         0.049786501         0.250687003
     0.950213492         0.049786501         0.750687003
     0.950213492         0.549786508         0.250687003
     0.950213492         0.549786508         0.750687003
     0.469668508         0.030331500         0.055637501
     0.469668508         0.030331500         0.555637479
     0.469668508         0.530331492         0.055637501
     0.469668508         0.530331492         0.555637479
     0.969668508         0.030331500         0.055637501
     0.969668508         0.030331500         0.555637479
     0.969668508         0.530331492         0.055637501
     0.969668508         0.530331492         0.555637479
