Ca V  Fe P  O 
 1.0000000000000000
    14.8499546051000006    0.0000000000000000    0.0000000000000000
    -0.0125117168000000    8.2040796242000003    0.0000000000000000
     3.6964733550000002   -0.0852234029000000    9.1101353430999996
 Ca  V   Fe  P   O  
   3   4   4  16  56
Selective dynamics
Cartesian
 11.7548241030466194  7.8506393265742140  3.3338655281294107   T   T   T
  4.5453999359387502  7.5733360979295190  2.3446508890401088   T   T   T
 17.4505605497166876  7.5581309943076160  7.0873250941007173   T   T   T
 10.0198209537400125  4.1180376888692969  6.9479130337290931   T   T   T
 17.4281577523512077  4.0322895952769402  6.9573412595326696   T   T   T
  4.4616634782464333  4.0669800889378402  2.4103034220541097   T   T   T
 11.8835661342376344  4.1217574566784210  2.3395502210875532   T   T   T
  1.0456005073657253  0.0928328031473860  2.2228533817334206   T   T   T
  8.4489282717148182  0.0986108178055441  2.2305198257846626   T   T   T
  6.6827131043297818  0.0316471700401900  6.8297711964296308   T   T   T
 13.9904518304495440  0.0270635450836819  6.8259952544423870   T   T   T
  3.4639074909706467  1.6956789100902190  0.5239572969537335   T   T   T
 10.9376594161497742  1.5745058520631809  0.6052146861984026   T   T   T
  9.0441926326204136  1.5761794106912401  5.1131266646949216   T   T   T
 16.4361494632095528  1.6110547694150370  5.0997135869806698   T   T   T
  4.7715547911898009  6.2209833434379238  8.6248356140129498   T   T   T
 12.1497850455877909  6.2570157113636418  8.5721410605999573   T   T   T
  6.6243880232174881  6.2863139874403489  4.0952857220184686   T   T   T
 14.0910843841846791  6.2804406440189382  4.0403777350053467   T   T   T
  6.3659539751216405  2.2626884330331460  0.5982465716743234   T   T   T
 13.7910076091100784  2.1944120472207969  0.5829203492169420   T   T   T
  4.4886601701823858  2.1331610593632235  5.1658366296841312   T   T   T
 11.9303036263419813  2.2109253448788690  5.1556952284774678   T   T   T
  7.5859048003887466  5.6501862609491180  8.6431778084097601   T   T   T
 15.0471747132372062  5.6226103259242928  8.6720821688514658   T   T   T
  2.1036152926535463  5.6892667006644677  4.0943425950444485   T   T   T
  9.4513629844650904  5.5975234312971924  4.0890014185127370   T   T   T
  4.6234477400582055  2.4395736929647742  3.6722693799564636   T   T   T
 12.1255592522742059  2.6059654006627837  3.6829663515637350   T   T   T
 10.1870800977227987  2.6080401791957706  8.2569034764521074   T   T   T
 17.6123926697312463  2.4098209869341334  8.1991488024451140   T   T   T
  5.3894193398559347  5.5536235865333685  3.5464899706646111   T   T   T
 12.8500674906370804  5.5127442611097255  3.5588797868067514   T   T   T
  3.5256128165508702  5.4683111279141521  8.1276692079562221   T   T   T
 11.0484749523188626  5.3113829657334213  8.0722579806345909   T   T   T
  2.8430461781698884  0.6161727715645400  1.4446508746947098   T   T   T
 10.3330292569213054  0.5237018136541273  1.5749114588426871   T   T   T
  8.3924118082586983  0.5401653783201027  6.0008823800986715   T   T   T
 15.7875159185854645  0.5449250508104088  6.0150212603158169   T   T   T
  3.3392211121454878  3.0961753697246985  1.0945961343041835   T   T   T
 10.8171902152408244  2.9986549548107013  1.1318281909612657   T   T   T
  9.0111353946432740  2.9979471276875782  5.7058688306660219   T   T   T
 16.3161242859497513  3.0244020574459705  5.6321199792421455   T   T   T
  4.2374221657307949  5.6810152680426569  1.0487922456021970   T   T   T
 11.7072491456757497  5.6889275294183319  1.0682714520598942   T   T   T
  9.8473337787922013  5.5417502173185769  5.5671547678067537   T   T   T
  2.3902677493893818  5.7271965841926731  5.6130365129913997   T   T   T
  6.0750611483917698  3.4524427498389318  1.5372479641533123   T   T   T
 13.5015571394619887  3.4245572668022053  1.4534201796047093   T   T   T
  4.1982361351013724  3.3724106463277610  6.0249464860728006   T   T   T
 11.6508600563631664  3.3673055543188957  6.1008404370265410   T   T   T
  5.0578153417123435  1.2569926672409686  0.7061241272238833   T   T   T
 12.5209729407322126  1.1598484486548528  0.7263272790143066   T   T   T
  3.1616133079443820  1.1394487217327838  5.2998836738454571   T   T   T
 10.6522961648603030  1.1725894717081744  5.1128455871532985   T   T   T
  6.0211790416828350  5.2227402056317063  8.4678246598187599   T   T   T
 13.4788550127467932  5.3136156686574640  8.5433560124936463   T   T   T
  7.8745314416868135  5.2839573400233082  3.9181443704705421   T   T   T
 15.3764211245968117  5.3463152561550515  3.8926959360042890   T   T   T
  4.9233557615805603  7.4469491229428053  7.6825907276923830   T   T   T
 12.3919832500007665  7.4233974678432313  7.6170233904600781   T   T   T
  6.8051383794858253  7.5189338026095482  3.1534662234143305   T   T   T
 14.2304734877752619  7.5200539468114407  3.1099890559986947   T   T   T
  6.7556136263324174  1.5091819014190466  8.1881434114648997   T   T   T
 14.1861600209208127  1.3705811603686802  8.2778025395792856   T   T   T
  8.6211746656756585  1.5163234537463730  3.6521229157379116   T   T   T
 16.0667993726314364  1.4772099137073111  3.6407116743401020   T   T   T
  7.6910189775682989  7.0907754895702277  8.1750127295539592   T   T   T
 15.3090145623819147  7.0148406456524377  8.0481794902055928   T   T   T
  2.3556805345644154  7.0755752285606714  3.4638286506294262   T   T   T
  9.6344433607985334  7.0347813797477103  3.5374231070555893   T   T   T
  8.3543294533489494  4.6211084953214057  7.8315671807222440   T   T   T
 15.7586919179169218  4.5299108805775203  7.8876305905635453   T   T   T
  2.8134792949262368  4.5655334479128689  3.3748540876676847   T   T   T
 10.1830052839932268  4.5739737318630169  3.2399214618893977   T   T   T
  5.5903902788653230  1.2253758545743907  5.6594576646762897   T   T   T
 13.0383494311355168  1.2402514775101239  5.5488370237666986   T   T   T
  7.4953801847796360  1.3759461062976679  1.0765048739996725   T   T   T
 14.9487482809454146  1.3327133116668204  1.0507404943983722   T   T   T
  6.4857549955894207  6.6702552956483174  5.5461192125471861   T   T   T
 13.9051617089301001  6.7134582822035602  5.4793363792206078   T   T   T
  0.9556062910236299  6.7181008848750317  0.9714272506157389   T   T   T
  8.2098118288308868  6.7923731708904258  0.8962187012686005   T   T   T
