V4 O8
1.0
   2.9560439999999999    0.0018280000000000    0.6074689999999990
   1.5104670000000000    6.3427819999999997    0.1510290000000000
  -0.0162760000000000   -0.1804500000000000    7.6241880000000002
V O
4 8
direct
   0.6354550000000000    0.1973450000000000    0.5314470000000000 V
   0.1909219999999990    0.4438459999999990    0.1764300000000000 V
   0.8083750000000000    0.5558900000000000    0.8242309999999990 V
   0.3646300000000000    0.8022380000000000    0.4690010000000000 V
   0.8535469999999999    0.6914040000000000    0.6013090000000000 O
   0.4430130000000000    0.3802439999999990    0.7314630000000000 O
   0.5564500000000000    0.6194620000000000    0.2689820000000000 O
   0.1463990000000000    0.3081750000000000    0.3991719999999990 O
   0.1587579999999990    0.0390890000000000    0.6422789999999990 O
   0.8484010000000000    0.2599349999999990    0.0429180000000000 O
   0.8406159999999990    0.9606460000000000    0.3590930000000000 O
   0.1512420000000000    0.7410720000000000    0.9562790000000000 O
