V  O 
 1.0000000000000000
     2.9560439999999999    0.0018280000000000    0.6074689999999990
     1.5104670000000000    6.3427819999999997    0.1510290000000000
    -0.0162760000000000   -0.1804500000000000    7.6241880000000002
 V   O  
   4   8
Cartesian
  2.1978460283172958  1.1207531746158994  4.3335556885725053
  1.2762708770579043  2.9344541246712041  1.4646718385120490
  3.1120637966103870  3.2154184917210626  6.9424588669623990
  2.2526678131859432  4.9830853972287175  4.0637358134698296
  3.5301399487370442  4.2893855516700423  5.3507594560452256
  1.8543241389521530  2.2577286585656715  5.7577679216362627
  2.5883693921852244  3.9216763918460860  2.6138764630183342
  0.9047483458917996  1.8656592049506096  3.1135746842433667
  0.5259337239998757  0.2156794601884552  4.9481673826147912
  2.9245158182843385  2.1208340964098902  0.7932092108930218
  3.9214229943207339  5.9884254386601175  3.4457125780034810
  1.6055972458872607  4.0672379312682239  7.4870491365667178
