Mn O 
 1.0000000000000000
     1.5493049999999999   -2.6834759999999989    0.0000000000000000
     1.5493049999999999    2.6834759999999989    0.0000000000000000
     0.0000000000000000    0.0000000000000000   10.8981320000000004
 Mn  O  
   2   4
Cartesian
  0.0000000000000000 -0.0000000000000000  5.4490660000000002
 -0.0000000000000000 -0.0000000000000001 -0.0000000000000034
  1.5493049999999999  0.8944930154381088  4.5676903422873725
  1.5493049999999999 -0.8944930154381088  6.3304416577126261
  1.5493049999999999 -0.8944930154381088 10.0167563422873727
  1.5493049999999999  0.8944930154381088  0.8813756577126243
