Ca4 V9 O21
1.0
       20.0343742371         0.0000000000         0.0000000000
      -18.7453890833         7.0701213294         0.0000000000
       -0.3222507464        -1.7675521690         9.8533805896
    Ca  V    O   
    15  36   84  
Direct
     0.750017703         0.655390024         0.810816050
     0.250017703         0.655390024         0.810816050
     0.750017703         0.155390009         0.810816050
     0.344609886         0.249982089         0.189183891
     0.344609886         0.749982119         0.189183891
     0.844609857         0.249982089         0.189183891
     0.844609857         0.749982119         0.189183891
     0.155390009         0.250017703         0.810816050
     0.155390009         0.750017703         0.810816050
     0.655390024         0.250017703         0.810816050
     0.655390024         0.750017703         0.810816050
     0.249982074         0.344609916         0.189183921
     0.249982074         0.844609916         0.189183921
     0.749982059         0.344609916         0.189183921
     0.749982059         0.844609916         0.189183921
     0.408282131         0.091717869         0.000000000
     0.408282131         0.591717839         0.000000000
     0.908282161         0.091717869         0.000000000
     0.908282161         0.591717839         0.000000000
     0.000000000         0.000000000         0.000000000
     0.000000000         0.500000000         0.000000000
     0.500000000         0.000000000         0.000000000
     0.500000000         0.500000000         0.000000000
     0.182380855         0.000008665         0.364778996
     0.182380855         0.500008643         0.364778996
     0.682380855         0.000008665         0.364778996
     0.682380855         0.500008643         0.364778996
     0.317619175         0.499991328         0.635220945
     0.317619175         0.999991298         0.635220945
     0.817619205         0.499991328         0.635220945
     0.817619205         0.999991298         0.635220945
     0.091708310         0.091708310         0.366834283
     0.091708310         0.591708302         0.366834283
     0.591708302         0.091708310         0.366834283
     0.591708302         0.591708302         0.366834283
     0.408291698         0.408291698         0.633165836
     0.408291698         0.908291698         0.633165836
     0.908291698         0.408291698         0.633165836
     0.908291698         0.908291698         0.633165836
     0.091717869         0.408282131         0.000000000
     0.091717869         0.908282161         0.000000000
     0.591717839         0.408282131         0.000000000
     0.591717839         0.908282161         0.000000000
     0.000008665         0.182380855         0.364778996
     0.000008665         0.682380855         0.364778996
     0.500008643         0.182380855         0.364778996
     0.500008643         0.682380855         0.364778996
     0.499991328         0.317619175         0.635220945
     0.499991328         0.817619205         0.635220945
     0.999991298         0.317619175         0.635220945
     0.999991298         0.817619205         0.635220945
     0.450362653         0.049637347         0.000000000
     0.450362653         0.549637318         0.000000000
     0.950362682         0.049637347         0.000000000
     0.950362682         0.549637318         0.000000000
     0.353170455         0.146829545         0.000000000
     0.353170455         0.646829545         0.000000000
     0.853170455         0.146829545         0.000000000
     0.853170455         0.646829545         0.000000000
     0.453106523         0.145514503         0.197242051
     0.453106523         0.645514488         0.197242051
     0.953106523         0.145514503         0.197242051
     0.953106523         0.645514488         0.197242051
     0.250000000         0.250000000         0.000000000
     0.250000000         0.750000000         0.000000000
     0.750000000         0.250000000         0.000000000
     0.750000000         0.750000000         0.000000000
     0.453325808         0.250025094         0.406701922
     0.453325808         0.750025094         0.406701922
     0.953325808         0.250025094         0.406701922
     0.953325808         0.750025094         0.406701922
     0.249974877         0.046674192         0.593298137
     0.249974877         0.546674192         0.593298137
     0.749974847         0.046674192         0.593298137
     0.749974847         0.546674192         0.593298137
     0.145455956         0.046840221         0.384592354
     0.145455956         0.546840191         0.384592354
     0.645455956         0.046840221         0.384592354
     0.645455956         0.546840191         0.384592354
     0.354485512         0.046893492         0.802757978
     0.354485512         0.546893477         0.802757978
     0.854485512         0.046893492         0.802757978
     0.854485512         0.546893477         0.802757978
     0.049623501         0.049623501         0.198491991
     0.049623501         0.549623489         0.198491991
     0.549623489         0.049623501         0.198491991
     0.549623489         0.549623489         0.198491991
     0.453159779         0.354544073         0.615407646
     0.453159779         0.854544044         0.615407646
     0.953159809         0.354544073         0.615407646
     0.953159809         0.854544044         0.615407646
     0.353176057         0.353176057         0.412702203
     0.353176057         0.853176057         0.412702203
     0.853176057         0.353176057         0.412702203
     0.853176057         0.853176057         0.412702203
     0.146829545         0.353170455         0.000000000
     0.146829545         0.853170455         0.000000000
     0.646829545         0.353170455         0.000000000
     0.646829545         0.853170455         0.000000000
     0.146823943         0.146823943         0.587297738
     0.146823943         0.646823943         0.587297738
     0.646823943         0.146823943         0.587297738
     0.646823943         0.646823943         0.587297738
     0.046840221         0.145455956         0.384592354
     0.046840221         0.645455956         0.384592354
     0.546840191         0.145455956         0.384592354
     0.546840191         0.645455956         0.384592354
     0.049637347         0.450362653         0.000000000
     0.049637347         0.950362682         0.000000000
     0.549637318         0.450362653         0.000000000
     0.549637318         0.950362682         0.000000000
     0.450376511         0.450376511         0.801507950
     0.450376511         0.950376511         0.801507950
     0.950376511         0.450376511         0.801507950
     0.950376511         0.950376511         0.801507950
     0.354544073         0.453159779         0.615407646
     0.354544073         0.953159809         0.615407646
     0.854544044         0.453159779         0.615407646
     0.854544044         0.953159809         0.615407646
     0.145514503         0.453106523         0.197242051
     0.145514503         0.953106523         0.197242051
     0.645514488         0.453106523         0.197242051
     0.645514488         0.953106523         0.197242051
     0.250025094         0.453325808         0.406701922
     0.250025094         0.953325808         0.406701922
     0.750025094         0.453325808         0.406701922
     0.750025094         0.953325808         0.406701922
     0.046674192         0.249974877         0.593298137
     0.046674192         0.749974847         0.593298137
     0.546674192         0.249974877         0.593298137
     0.546674192         0.749974847         0.593298137
     0.046893492         0.354485512         0.802757978
     0.046893492         0.854485512         0.802757978
     0.546893477         0.354485512         0.802757978
     0.546893477         0.854485512         0.802757978
