Ca V  Fe P  O                           
   1.00000000000000     
    14.8499546051000006    0.0000000000000000    0.0000000000000000
    -0.0125117168000000    8.2040796242000003    0.0000000000000000
     3.6964733550000002   -0.0852234029000000    9.1101353430999996
   Ca   V    Fe   P    O 
     3     4     4    16    56
Selective dynamics
Direct
  0.5393642571951571  0.9092785041091482  0.6897618999747723   T   T   T
  0.2373241403007001  0.9166754876899821  0.2609056125524862   T   T   T
  0.9850412603505343  0.9206029178176320  0.7695500251173483   T   T   T
  0.4815075042365665  0.4974162529352255  0.7660412571337574   T   T   T
  0.9839821766162595  0.4965932711332716  0.7631661217551530   T   T   T
  0.2290658376385903  0.4958343251887617  0.2671116626169230   T   T   T
  0.7384155894973694  0.5118020251144431  0.2540162482546932   T   T   T
  0.0063091540158067  0.0180950966847613  0.2402625908704631   T   T   T
  0.5137944809305427  0.0124241126758422  0.2492528878563695   T   T   T
  0.2640928653705524  0.0072436429973906  0.7481386965450642   T   T   T
  0.7594500518950801  0.0242464680385908  0.7456576198881272   T   T   T
  0.2204999833744308  0.2012975897181418  0.0577550413696226   T   T   T
  0.7213976718740766  0.1942899142500164  0.0667440897144725   T   T   T
  0.4691654642584816  0.2003091549560641  0.5615534527227424   T   T   T
  0.9739594789217828  0.2011092549258711  0.5551110190287278   T   T   T
  0.0866955401872865  0.7641538280778672  0.9448788769390268   T   T   T
  0.5863183925999356  0.7737618054774436  0.9437855955140482   T   T   T
  0.3353830542158879  0.7641310827630780  0.4429836204834034   T   T   T
  0.8336924792848235  0.7796781026646130  0.4384609959730404   T   T   T
  0.4116619181240103  0.2767865502559657  0.0723096706477111   T   T   T
  0.9128791790985811  0.2756083122272906  0.0637639503077281   T   T   T
  0.1643624837858037  0.2733484919764508  0.5700813788438099   T   T   T
  0.6659928362558682  0.2888775864864980  0.5609221356806305   T   T   T
  0.2753185439721254  0.6913742486202168  0.9497359087587903   T   T   T
  0.7796901045603711  0.6910017247683393  0.9423479380313325   T   T   T
  0.0267801952212714  0.6956089704049331  0.4510640539613969   T   T   T
  0.5234357402424644  0.6861985446096326  0.4417490009543414   T   T   T
  0.2101339599811365  0.3184777086244933  0.4062170397344566   T   T   T
  0.7182178821574037  0.3461613866263990  0.4037237877407790   T   T   T
  0.4625310370399268  0.3284496557077325  0.9111836049661690   T   T   T
  0.9625990053289509  0.3179240197690323  0.8988141736618878   T   T   T
  0.2632823534740604  0.6704717035339741  0.3906515599480050   T   T   T
  0.7763405287966679  0.6697365351740613  0.3741816795121702   T   T   T
  0.0169624462243236  0.6678369234971794  0.8900534118495308   T   T   T
  0.5242004749262921  0.6805224831886707  0.8722870916336873   T   T   T
  0.1535691748309636  0.0705900666111551  0.1563200234215756   T   T   T
  0.6512485821226351  0.0692286715457836  0.1635841357267186   T   T   T
  0.4129087212739654  0.0636879997076511  0.6657254094033048   T   T   T
  0.9055696121657166  0.0702061552031498  0.6518228144290424   T   T   T
  0.1947235456280478  0.3729055268644124  0.1241252227670152   T   T   T
  0.6980687696440985  0.3687486584972929  0.1300095913100697   T   T   T
  0.4419022504646882  0.3693502695706976  0.6319877248002105   T   T   T
  0.9496493869261022  0.3731075657716555  0.6199586717649241   T   T   T
  0.2536983590080110  0.6846593474306018  0.1177291799262093   T   T   T
  0.7602966733316036  0.6785787272888136  0.1069988507203884   T   T   T
  0.5032952792525757  0.6703302873360967  0.6091944676072043   T   T   T
  0.0107157200258809  0.6897638213514952  0.6176029175687097   T   T   T
  0.3627628938704980  0.4242679456435620  0.1706678361860473   T   T   T
  0.8706064756190713  0.4272601356692577  0.1583754804224460   T   T   T
  0.1182651539450062  0.4224470635018695  0.6672599588923938   T   T   T
  0.6138777067292184  0.4297008169196155  0.6656456732961316   T   T   T
  0.3228153459857486  0.1520767406856509  0.0781400128499126   T   T   T
  0.8267810577209782  0.1495931870616287  0.0745709442973688   T   T   T
  0.0744366401223260  0.1477540715374121  0.5809875489540964   T   T   T
  0.5797083720109989  0.1627943115485332  0.5596478192557621   T   T   T
  0.1766330595614556  0.6438667896485609  0.9255150769872629   T   T   T
  0.6785738903442636  0.6570735777481935  0.9216277802400445   T   T   T
  0.4243776577756775  0.6393052364670789  0.4186649025276835   T   T   T
  0.9229990867197647  0.6646549567277905  0.4419453401720184   T   T   T
  0.1226545975694969  0.9105021010725304  0.8385423814438551   T   T   T
  0.6232255915282864  0.9270027477194461  0.8464268161550330   T   T   T
  0.3708545431041287  0.9106728781167013  0.3376144512618909   T   T   T
  0.8809260439959283  0.9241498507508390  0.3392051267694141   T   T   T
  0.2343291281740564  0.1892452164907749  0.8981691128291212   T   T   T
  0.7347457778384721  0.1855284534592536  0.9054877644545904   T   T   T
  0.4727141358869168  0.1885523561104062  0.4067914642456352   T   T   T
  0.9904766861796195  0.1911022585785427  0.3947109795327393   T   T   T
  0.3044222388127861  0.8634806593026183  0.8937507741956461   T   T   T
  0.8163269389483753  0.8595967111601283  0.8787813170019723   T   T   T
  0.0660462456613155  0.8633088067605816  0.3883811078067560   T   T   T
  0.5440571077395144  0.8665515114119351  0.4059535407801618   T   T   T
  0.3481564281713398  0.5607309148348935  0.8657130720801711   T   T   T
  0.8491363079707053  0.5566954204714467  0.8529997893438814   T   T   T
  0.0936524344765595  0.5578253287760684  0.3641134675555290   T   T   T
  0.5995030460377245  0.5659797957529944  0.3497828678060226   T   T   T
  0.2304279033960053  0.1683579241322586  0.6170899250830885   T   T   T
  0.7274402746455979  0.1832514767013027  0.6167291871775497   T   T   T
  0.4750818611058092  0.1712284414173353  0.1237416640193850   T   T   T
  0.9823377351381812  0.1749863076763549  0.1093957533782963   T   T   T
  0.2917207497309879  0.8164691539745801  0.6027897755329024   T   T   T
  0.7720020985041106  0.8346886816725766  0.5947727025684206   T   T   T
  0.0405123227056489  0.8179071543922714  0.1036991069571126   T   T   T
  0.5343465038883618  0.8156311488251662  0.1041418019241166   T   T   T
 
             NaN             NaN             NaN
             NaN             NaN             NaN
             NaN             NaN             NaN
             NaN             NaN             NaN
             NaN             NaN             NaN
             NaN             NaN             NaN
             NaN             NaN             NaN
             NaN             NaN             NaN
             NaN             NaN             NaN
             NaN             NaN             NaN
             NaN             NaN             NaN
             NaN             NaN             NaN
             NaN             NaN             NaN
             NaN             NaN             NaN
             NaN             NaN             NaN
             NaN             NaN             NaN
             NaN             NaN             NaN
             NaN             NaN             NaN
             NaN             NaN             NaN
             NaN             NaN             NaN
             NaN             NaN             NaN
             NaN             NaN             NaN
             NaN             NaN             NaN
             NaN             NaN             NaN
             NaN             NaN             NaN
             NaN             NaN             NaN
             NaN             NaN             NaN
             NaN             NaN             NaN
             NaN             NaN             NaN
             NaN             NaN             NaN
             NaN             NaN             NaN
             NaN             NaN             NaN
             NaN             NaN             NaN
             NaN             NaN             NaN
             NaN             NaN             NaN
             NaN             NaN             NaN
             NaN             NaN             NaN
             NaN             NaN             NaN
             NaN             NaN             NaN
             NaN             NaN             NaN
             NaN             NaN             NaN
             NaN             NaN             NaN
             NaN             NaN             NaN
             NaN             NaN             NaN
             NaN             NaN             NaN
             NaN             NaN             NaN
             NaN             NaN             NaN
             NaN             NaN             NaN
             NaN             NaN             NaN
             NaN             NaN             NaN
             NaN             NaN             NaN
             NaN             NaN             NaN
             NaN             NaN             NaN
             NaN             NaN             NaN
             NaN             NaN             NaN
             NaN             NaN             NaN
             NaN             NaN             NaN
             NaN             NaN             NaN
             NaN             NaN             NaN
             NaN             NaN             NaN
             NaN             NaN             NaN
             NaN             NaN             NaN
             NaN             NaN             NaN
             NaN             NaN             NaN
             NaN             NaN             NaN
             NaN             NaN             NaN
             NaN             NaN             NaN
             NaN             NaN             NaN
             NaN             NaN             NaN
             NaN             NaN             NaN
             NaN             NaN             NaN
             NaN             NaN             NaN
             NaN             NaN             NaN
             NaN             NaN             NaN
             NaN             NaN             NaN
             NaN             NaN             NaN
             NaN             NaN             NaN
             NaN             NaN             NaN
             NaN             NaN             NaN
             NaN             NaN             NaN
             NaN             NaN             NaN
             NaN             NaN             NaN
             NaN             NaN             NaN
