Ca V  Fe P  O 
 1.0000000000000000
    14.8499546051000006    0.0000000000000000    0.0000000000000000
    -0.0125117168000000    8.2040796242000003    0.0000000000000000
     3.6964733550000002   -0.0852234029000000    9.1101353430999996
 Ca  V   Fe  P   O  
   3   4   4  16  56
Selective dynamics
Cartesian
 10.5813467453375925  7.4370149291216769  6.2815388456656862   T   T   T
  4.5046065595630482  7.5827048118195854  2.4297724385906472   T   T   T
 17.4392655652827386  7.5627846962385892  7.1348404290760605   T   T   T
  9.9954868856877983  4.0161260618798149  6.9737989182144657   T   T   T
 17.4589723180743555  4.0433325108156390  6.9360173739043329   T   T   T
  4.4214869485775967  4.0675323241241275  2.4136129302319254   T   T   T
 11.9253494742227364  4.1645018884882603  2.3181371100106682   T   T   T
  1.0209830403888540  0.0843926079280143  2.2339453604661026   T   T   T
  8.5360849946452948  0.0808498192417593  2.2630039646056717   T   T   T
  6.6748281238247555  0.0178512471405904  6.8074821788752606   T   T   T
 14.0420321840972893  0.0783143629025556  6.8106122626937493   T   T   T
  3.4595284331151857  1.6691728588640213  0.5263205271326407   T   T   T
 10.9565602108476057  1.5808069602962265  0.5738232136734761   T   T   T
  9.0059486576507304  1.6316620356997189  5.0835107247907692   T   T   T
 16.4730149458426247  1.6046437717524267  5.0818790744542026   T   T   T
  4.7949284700213557  6.2306676060737924  8.6188164531229035   T   T   T
 12.1783174250581094  6.2671556837635567  8.6328617839232873   T   T   T
  6.6283007528794124  6.2640351382229147  4.0629496525100031   T   T   T
 13.9976011384067860  6.3370003222544362  4.0205571462826457   T   T   T
  6.3611660940206658  2.2098580804256871  0.6273362683955364   T   T   T
 13.7973036713711874  2.1939790029640616  0.5679742525316446   T   T   T
  4.5140787987976578  2.1332731068907425  5.1537951315010604   T   T   T
 11.9463541415802865  2.2662167875201131  5.1252393940355496   T   T   T
  7.6236787471831597  5.6477288920460271  8.6426068878293449   T   T   T
 15.0453086137539227  5.5973709087806833  8.6231054434677343   T   T   T
  2.0649441473462589  5.7069341928847273  4.1226983135428705   T   T   T
  9.4336453768819677  5.6163202477516201  4.0223588755170354   T   T   T
  4.6188613115083363  2.4274318171751683  3.6567305654014968   T   T   T
 12.1472525725096236  2.7178383800125903  3.6938619990416246   T   T   T
 10.2134409915468130  2.4810276464753400  8.2558877261725652   T   T   T
 17.6605378026722697  2.4708774251058450  8.1987032407513354   T   T   T
  5.3740886229675100  5.5269894159760691  3.5671323686454870   T   T   T
 12.9068904035830201  5.4051358901554902  3.4871581812823944   T   T   T
  3.5497904518911678  5.4781100005371739  8.1234040639030098   T   T   T
 10.9954198496401414  5.5224798678297855  7.9987358689303960   T   T   T
  2.8229681379911278  0.5875293177943806  1.4275412355279136   T   T   T
 10.2527636466129390  0.5534055249486146  1.4385144882328877   T   T   T
  8.5051622464740699  0.5009218508973006  6.0132310429596521   T   T   T
 15.8108036674208439  0.5138245380121472  5.9720225552993815   T   T   T
  3.3223413706782980  3.0748710799724575  1.0808442270965686   T   T   T
 10.8903929191525304  3.0090125322762784  1.1574432675892798   T   T   T
  8.8678145435497733  3.0184626167947490  5.6822307000084376   T   T   T
 16.3457545324202975  3.0023246495919165  5.6443328011205027   T   T   T
  4.2310796308561613  5.7276249186566224  1.0508777198575057   T   T   T
 11.7038447816914832  5.6193049355456210  1.0049269344177039   T   T   T
  9.7926291121774938  5.5034034799239189  5.5378510112717843   T   T   T
  2.4371423828946512  5.7343747882490241  5.6330525025823288   T   T   T
  6.0547061192014766  3.4369876916545352  1.5007838824259094   T   T   T
 13.4954396747271055  3.4144087575901998  1.4615995601202416   T   T   T
  4.2390724822736807  3.3711408950952211  6.0124333781419192   T   T   T
 11.6156647979725953  3.4209434450422105  6.0891898916000740   T   T   T
  5.0401792023371410  1.2197928917835987  0.7345353402749902   T   T   T
 12.5363080235757138  1.1716356270581001  0.6249152801635831   T   T   T
  3.1970813168300563  1.1288260212060470  5.3090782190358814   T   T   T
 10.6268422262993436  1.2756996570626700  5.1317135600701853   T   T   T
  6.0595119753405120  5.2581533822857081  8.4360669701010096   T   T   T
 13.4603424087795851  5.3067354567948097  8.4693814259315339   T   T   T
  7.8665241887319262  5.2454492475108268  3.8640855789415789   T   T   T
 15.3400894225822846  5.4090468222930355  4.0426168139068785   T   T   T
  4.9510276117140046  7.4583167290759143  7.6718959816384347   T   T   T
 12.3935215946973578  7.5191967243920468  7.7225716592584659   T   T   T
  6.7974265570044805  7.4885409297207506  3.1227638254473478   T   T   T
 14.2917611123799251  7.5231241001733204  3.1079722653187183   T   T   T
  6.7931050372574919  1.4690716456632160  8.1740208201122293   T   T   T
 14.2437755275299160  1.4622353112262605  8.2148787359163844   T   T   T
  8.5589482308262390  1.5317171702673020  3.6479784014568937   T   T   T
 16.1128014962064015  1.4970019014210543  3.6237027367524579   T   T   T
  7.8215341826103160  7.0494868807258726  8.0666682463862092   T   T   T
 15.2809184577895145  7.0058758803220735  8.0191446524198184   T   T   T
  2.3446938174127645  7.0882671241256565  3.4863628765002828   T   T   T
  9.5912500621500456  7.0920414205996742  3.6531777437941750   T   T   T
  8.3791957505365779  4.5597732254379837  7.8979082619873182   T   T   T
 15.7494666523498541  4.5272374614353579  7.8127007857851245   T   T   T
  2.7596778258708357  4.5849010559168812  3.3727894152802071   T   T   T
 10.2002214584717059  4.6146467430894207  3.1916027276681067   T   T   T
  5.6408730739995434  1.2327285322302091  5.6265402477191406   T   T   T
 13.0033773525322029  1.3124176830240857  5.6456644016532733   T   T   T
  7.4685323955722831  1.3136519127823612  1.1236084282063925   T   T   T
 14.9605065111982238  1.3429499030625505  1.0305824350658750   T   T   T
  6.5433236804764521  6.6633942716480581  5.5215132360964585   T   T   T
 13.6619938775650951  6.7734545568395879  5.4515221814156272   T   T   T
  0.9809049298141818  6.7176311868266421  0.9609121482425405   T   T   T
  8.2860741273916343  6.7185245278650179  0.9721897290423079   T   T   T
