Ca Mn V  P  O 
1.0
        7.3615770340         0.0000000000         0.0000000000
        0.1764880905         8.2527450794         0.0000000000
        0.4044067635         0.4538283880        18.2490875540
   Ca   Mn    V    P    O
    3    4    4   16   56
Direct
     0.635685742         0.929102838         0.619875908
     0.140436888         0.915712357         0.118504785
     0.871797264         0.415814877         0.875801980
     0.610215366         0.005713198         0.127084538
     0.361080498         0.006441974         0.379463881
     0.110406481         0.013323071         0.631752253
     0.849318266         0.984291613         0.879046798
     0.151136532         0.486803979         0.124500543
     0.902693510         0.492447793         0.372168243
     0.649658561         0.496497184         0.620041609
     0.401595831         0.505479276         0.872707665
     0.852915168         0.754843414         0.029032528
     0.464238107         0.679697156         0.028225996
     0.887234926         0.264374197         0.223829731
     0.281950057         0.187338114         0.224840209
     0.609884560         0.769371569         0.276001483
     0.218967751         0.685949147         0.277303517
     0.638453245         0.270361632         0.472489625
     0.964015007         0.691923261         0.526556492
     0.031859346         0.193321988         0.475139737
     0.354937881         0.774340630         0.527044415
     0.777935743         0.200476557         0.724153280
     0.384026885         0.281423479         0.722632229
     0.723900437         0.700706065         0.772483647
     0.115559965         0.774338245         0.779433250
     0.537982523         0.180452153         0.970590889
     0.146901309         0.263296485         0.974023283
     0.679511905         0.646057844         0.044723637
     0.831316829         0.916342556         0.071581416
     0.576793432         0.176243618         0.052623387
     0.413098425         0.846304297         0.058690585
     0.374494225         0.539435625         0.069228388
     0.929658294         0.416094393         0.177063212
     0.125058666         0.288583279         0.056109175
     0.015721817         0.664446712         0.062331725
     0.736628354         0.161483467         0.197691962
     0.638981879         0.818427145         0.195399329
     0.368207484         0.053753227         0.175966114
     0.305223376         0.358240366         0.195320636
     0.180796340         0.686318099         0.194224030
     0.873741329         0.297587872         0.305904269
     0.773782134         0.674909711         0.305948943
     0.068202779         0.138690695         0.214713439
     0.436927378         0.657087326         0.285683393
     0.583333135         0.919755578         0.325693876
     0.330270141         0.172710449         0.305225700
     0.169555992         0.852524042         0.308575571
     0.134427786         0.546051979         0.319614142
     0.928880095         0.692795753         0.443119496
     0.680749238         0.422733307         0.426154912
     0.818420887         0.144169256         0.463414460
     0.486598969         0.167920694         0.447194338
     0.385703564         0.820086658         0.446153253
     0.118956037         0.057639655         0.427553087
     0.912556231         0.856798649         0.558933020
     0.056756642         0.363203436         0.444715738
     0.880565166         0.549694061         0.567625940
     0.624934912         0.302064389         0.554828763
     0.518327773         0.680324137         0.557163000
     0.181669846         0.663318872         0.536430359
     0.329428196         0.926659644         0.575439513
     0.075787224         0.177748263         0.556011796
     0.864504695         0.064392395         0.677395701
     0.805228531         0.370330691         0.693654597
     0.679247081         0.692721307         0.690674722
     0.428928435         0.429095268         0.673163295
     0.564443290         0.154904857         0.715135992
     0.940289319         0.650952578         0.782871068
     0.230593726         0.180465445         0.698326111
     0.828797996         0.189839572         0.805110335
     0.145162538         0.828715742         0.699211359
     0.692484856         0.868493915         0.800815940
     0.640730023         0.562279582         0.819178104
     0.367839843         0.327066779         0.803259432
     0.268210858         0.666984439         0.806920350
     0.986055374         0.176687807         0.942017734
     0.877279460         0.781574965         0.946480393
     0.067397065         0.918024421         0.828466892
     0.628409803         0.041781016         0.929026961
     0.577882588         0.348237365         0.934867024
     0.442490190         0.672996521         0.945333958
     0.170940891         0.423310369         0.927791476
     0.323356211         0.148121163         0.960962415
