Ca Mn V  Cu O 
1.0
       14.1958017349         0.0000000000         0.0000000000
        2.3524162248        13.9995330209         0.0000000000
        3.0571614951         2.5863107076        11.1577586015
   Ca   Mn    V   Cu    O
   15    8   32    8   96
Direct
     0.355674624         0.144325286         0.750000119
     0.355674624         0.144325286         0.250000119
     0.355674624         0.644325256         0.250000119
     0.355674624         0.644325256         0.750000119
     0.855674624         0.144325286         0.250000119
     0.855674624         0.144325286         0.750000119
     0.855674624         0.644325256         0.250000119
     0.855674624         0.644325256         0.750000119
     0.143278092         0.356721908         0.000000000
     0.143278092         0.856721878         0.000000000
     0.143278092         0.856721878         0.500000000
     0.643278122         0.356721908         0.000000000
     0.643278122         0.356721908         0.500000000
     0.643278122         0.856721878         0.000000000
     0.643278122         0.856721878         0.500000000
     0.042994730         0.457005173         0.250000119
     0.042994730         0.457005173         0.750000119
     0.042994730         0.957005143         0.250000119
     0.042994730         0.957005143         0.750000119
     0.542994738         0.457005173         0.250000119
     0.542994738         0.457005173         0.750000119
     0.542994738         0.957005143         0.250000119
     0.542994738         0.957005143         0.750000119
     0.404571444         0.307693154         0.998620689
     0.404571444         0.307693154         0.498620689
     0.404571444         0.807693124         0.998620689
     0.404571444         0.807693124         0.498620689
     0.904571414         0.307693154         0.998620689
     0.904571414         0.307693154         0.498620689
     0.904571414         0.807693124         0.998620689
     0.904571414         0.807693124         0.498620689
     0.309414834         0.403299719         0.250425875
     0.309414834         0.403299719         0.750425875
     0.309414834         0.903299689         0.250425875
     0.309414834         0.903299689         0.750425875
     0.809414864         0.403299719         0.250425875
     0.809414864         0.403299719         0.750425875
     0.809414864         0.903299689         0.250425875
     0.809414864         0.903299689         0.750425875
     0.192307875         0.095428854         0.501378536
     0.192307875         0.095428854         0.001378536
     0.192307875         0.595428824         0.501378536
     0.192307875         0.595428824         0.001378536
     0.692307889         0.095428854         0.501378536
     0.692307889         0.095428854         0.001378536
     0.692307889         0.595428824         0.501378536
     0.692307889         0.595428824         0.001378536
     0.096700326         0.190584958         0.249574363
     0.096700326         0.190584958         0.749574363
     0.096700326         0.690584958         0.249574363
     0.096700326         0.690584958         0.749574363
     0.596700311         0.190584958         0.249574363
     0.596700311         0.190584958         0.749574363
     0.596700311         0.690584958         0.249574363
     0.596700311         0.690584958         0.749574363
     0.422576010         0.077423960         0.000000000
     0.422576010         0.077423960         0.500000000
     0.422576010         0.577423930         0.000000000
     0.422576010         0.577423930         0.500000000
     0.922576010         0.077423960         0.000000000
     0.922576010         0.077423960         0.500000000
     0.922576010         0.577423930         0.000000000
     0.922576010         0.577423930         0.500000000
     0.499116182         0.384453893         0.436749756
     0.499116182         0.384453893         0.936749756
     0.499116182         0.884453893         0.436749756
     0.499116182         0.884453893         0.936749756
     0.999116182         0.384453893         0.436749756
     0.999116182         0.384453893         0.936749756
     0.999116182         0.884453893         0.436749756
     0.999116182         0.884453893         0.936749756
     0.455468178         0.185760155         0.042097103
     0.455468178         0.185760155         0.542097092
     0.455468178         0.685760140         0.042097103
     0.455468178         0.685760140         0.542097092
     0.955468178         0.185760155         0.042097103
     0.955468178         0.185760155         0.542097092
     0.955468178         0.685760140         0.042097103
     0.955468178         0.685760140         0.542097092
     0.395140678         0.491409332         0.204743639
     0.395140678         0.491409332         0.704743624
     0.395140678         0.991409302         0.204743639
     0.395140678         0.991409302         0.704743624
     0.895140648         0.491409332         0.204743639
     0.895140648         0.491409332         0.704743624
     0.895140648         0.991409302         0.204743639
     0.895140648         0.991409302         0.704743624
     0.319503158         0.320320606         0.398945481
     0.319503158         0.320320606         0.898945451
     0.319503158         0.820320606         0.398945481
     0.319503158         0.820320606         0.898945451
     0.819503188         0.320320606         0.398945481
     0.819503188         0.320320606         0.898945451
     0.819503188         0.820320606         0.398945481
     0.819503188         0.820320606         0.898945451
     0.314239264         0.044532005         0.457903087
     0.314239264         0.044532005         0.957903087
     0.314239264         0.544532001         0.457903087
     0.314239264         0.544532001         0.957903087
     0.814239264         0.044532005         0.457903087
     0.814239264         0.044532005         0.957903087
     0.814239264         0.544532001         0.457903087
     0.814239264         0.544532001         0.957903087
     0.326487243         0.319217801         0.148126990
     0.326487243         0.319217801         0.648126960
     0.326487243         0.819217801         0.148126990
     0.326487243         0.819217801         0.648126960
     0.826487243         0.319217801         0.148126990
     0.826487243         0.319217801         0.648126960
     0.826487243         0.819217801         0.148126990
     0.826487243         0.819217801         0.648126960
     0.179679424         0.180496901         0.101054512
     0.179679424         0.180496901         0.601054490
     0.179679424         0.680496931         0.101054512
     0.179679424         0.680496931         0.601054490
     0.679679394         0.180496901         0.101054512
     0.679679394         0.180496901         0.601054490
     0.679679394         0.680496931         0.101054512
     0.679679394         0.680496931         0.601054490
     0.185748190         0.447819799         0.291197777
     0.185748190         0.447819799         0.791197777
     0.185748190         0.947819829         0.291197777
     0.185748190         0.947819829         0.791197777
     0.685748219         0.447819799         0.291197777
     0.685748219         0.447819799         0.791197777
     0.685748219         0.947819829         0.291197777
     0.685748219         0.947819829         0.791197777
     0.180782109         0.173512697         0.351873070
     0.180782109         0.173512697         0.851873040
     0.180782109         0.673512697         0.351873070
     0.180782109         0.673512697         0.851873040
     0.680782080         0.173512697         0.351873070
     0.680782080         0.173512697         0.851873040
     0.680782080         0.673512697         0.351873070
     0.680782080         0.673512697         0.851873040
     0.115545735         0.000883423         0.063250527
     0.115545735         0.000883423         0.563250542
     0.115545735         0.500883400         0.063250527
     0.115545735         0.500883400         0.563250542
     0.615545750         0.000883423         0.063250527
     0.615545750         0.000883423         0.563250542
     0.615545750         0.500883400         0.063250527
     0.615545750         0.500883400         0.563250542
     0.052180149         0.314251959         0.208802149
     0.052180149         0.314251959         0.708802164
     0.052180149         0.814251959         0.208802149
     0.052180149         0.814251959         0.708802164
     0.552180171         0.314251959         0.208802149
     0.552180171         0.314251959         0.708802164
     0.552180171         0.814251959         0.208802149
     0.552180171         0.814251959         0.708802164
     0.008590681         0.104859382         0.295256317
     0.008590681         0.104859382         0.795256317
     0.008590681         0.604859352         0.295256317
     0.008590681         0.604859352         0.795256317
     0.508590698         0.104859382         0.295256317
     0.508590698         0.104859382         0.795256317
     0.508590698         0.604859352         0.295256317
     0.508590698         0.604859352         0.795256317
