Ca2 Mn6 P6 O24
1.0
        8.6544885635         0.0000000000         0.0000000000
        0.1127744312         8.6537537649         0.0000000000
        4.4028890646         4.3458851231        11.9501674347
   Ca   Mn    P    O
    3   12   12   48
Direct
     0.500000000         0.500000000         0.500000000
     0.500000000         0.500000000         0.250000000
     0.500000000         0.500000000         0.000000000
     0.385127008         0.067244001         0.176102504
     0.385127008         0.067244001         0.676102519
     0.740904987         0.259095013         0.375000000
     0.740904987         0.259095013         0.875000000
     0.067244001         0.385127008         0.426102489
     0.067244001         0.385127008         0.926102519
     0.932756007         0.614872992         0.073897503
     0.932756007         0.614872992         0.573897481
     0.259095013         0.740904987         0.125000000
     0.259095013         0.740904987         0.625000000
     0.614872992         0.932756007         0.323897511
     0.614872992         0.932756007         0.823897481
     0.134553999         0.350692987         0.183529004
     0.134553999         0.350692987         0.683529019
     0.287557006         0.712442994         0.375000000
     0.287557006         0.712442994         0.875000000
     0.350692987         0.134553999         0.433528990
     0.350692987         0.134553999         0.933529019
     0.649307013         0.865445971         0.066471003
     0.649307013         0.865445971         0.566470981
     0.712442994         0.287557006         0.125000000
     0.712442994         0.287557006         0.625000000
     0.865445971         0.649307013         0.316471010
     0.865445971         0.649307013         0.816470981
     0.192201003         0.181436002         0.184976503
     0.192201003         0.181436002         0.684976518
     0.165994003         0.733910978         0.482330501
     0.165994003         0.733910978         0.982330501
     0.044466998         0.409606993         0.094010502
     0.044466998         0.409606993         0.594010472
     0.463463992         0.726509988         0.382349014
     0.463463992         0.726509988         0.882349014
     0.720696986         0.520680010         0.348235488
     0.720696986         0.520680010         0.848235488
     0.002715000         0.330673009         0.298590511
     0.002715000         0.330673009         0.798590541
     0.669327021         0.997285008         0.451409489
     0.669327021         0.997285008         0.951409459
     0.479319990         0.279303014         0.401764512
     0.479319990         0.279303014         0.901764512
     0.273490012         0.536535978         0.367650986
     0.273490012         0.536535978         0.867650986
     0.590393007         0.955533028         0.155989498
     0.590393007         0.955533028         0.655989528
     0.266088992         0.834006011         0.267669499
     0.266088992         0.834006011         0.767669499
     0.181436002         0.192201003         0.434976488
     0.181436002         0.192201003         0.934976459
     0.818563998         0.807798982         0.065023497
     0.818563998         0.807798982         0.565023482
     0.733910978         0.165994003         0.232330501
     0.733910978         0.165994003         0.732330501
     0.409606993         0.044466998         0.344010502
     0.409606993         0.044466998         0.844010472
     0.726509988         0.463463992         0.132348999
     0.726509988         0.463463992         0.632349014
     0.520680010         0.720696986         0.098235503
     0.520680010         0.720696986         0.598235488
     0.330673009         0.002715000         0.048590500
     0.330673009         0.002715000         0.548590481
     0.997285008         0.669327021         0.201409504
     0.997285008         0.669327021         0.701409519
     0.279303014         0.479319990         0.151764497
     0.279303014         0.479319990         0.651764512
     0.536535978         0.273490012         0.117651001
     0.536535978         0.273490012         0.617650986
     0.955533028         0.590393007         0.405989498
     0.955533028         0.590393007         0.905989528
     0.834006011         0.266088992         0.017669501
     0.834006011         0.266088992         0.517669499
     0.807798982         0.818563998         0.315023512
     0.807798982         0.818563998         0.815023541
