Ca Co C  O 
1.0
       12.7870597839         0.0000000000         0.0000000000
        0.0002140191         8.6411600086         0.0000000000
        2.1868566783        -0.0004007312         9.1729441949
   Ca   Co    C    O
    7    8   16   48
Direct
     0.721412420         0.066254698         0.197159067
     0.221412450         0.066254698         0.197159067
     0.471457273         0.066519864         0.697176814
     0.971457243         0.066519864         0.697176814
     0.278596550         0.566402614         0.302749872
     0.028615812         0.566277087         0.802725255
     0.528615832         0.566277087         0.802725255
     0.254618108         0.000568390         0.520420372
     0.754618108         0.000568390         0.520420372
     0.245368391         0.500568449         0.979519308
     0.745368361         0.500568449         0.979519308
     0.004820737         0.000517488         0.020147884
     0.504820764         0.000517488         0.020147884
     0.495229483         0.500588894         0.479587525
     0.995229483         0.500588894         0.479587525
     0.362699479         0.231860876         0.435518354
     0.862699509         0.231860876         0.435518354
     0.112783879         0.231997043         0.935598016
     0.612783909         0.231997043         0.935598016
     0.137264431         0.731834531         0.064551696
     0.637264431         0.731834531         0.064551696
     0.387337118         0.732068658         0.564412832
     0.887337089         0.732068658         0.564412832
     0.108001798         0.271270752         0.471690595
     0.608001828         0.271270752         0.471690595
     0.357896298         0.271006405         0.971613526
     0.857896328         0.271006405         0.971613526
     0.392072797         0.771084547         0.028462863
     0.892072797         0.771084547         0.028462863
     0.142009586         0.771120191         0.528382003
     0.642009616         0.771120191         0.528382003
     0.345707476         0.128527716         0.343112677
     0.845707476         0.128527716         0.343112677
     0.095745727         0.128764167         0.843133867
     0.595745742         0.128764167         0.843133867
     0.154199451         0.628505826         0.156933382
     0.654199481         0.628505826         0.156933382
     0.404290527         0.628658772         0.656756222
     0.904290557         0.628658772         0.656756222
     0.393091351         0.371199518         0.394273221
     0.893091321         0.371199518         0.394273221
     0.143188000         0.371326059         0.894371450
     0.643188000         0.371326059         0.894371450
     0.106910363         0.871248245         0.105588064
     0.606910348         0.871248245         0.105588064
     0.356627554         0.871243477         0.605856121
     0.856627584         0.871243477         0.605856121
     0.406050473         0.689816833         0.428212076
     0.906050444         0.689816833         0.428212076
     0.155823991         0.689639688         0.928399324
     0.655824006         0.689639688         0.928399324
     0.094157226         0.189605519         0.071674369
     0.594157219         0.189605519         0.071674369
     0.344233185         0.189612940         0.571600854
     0.844233155         0.189612940         0.571600854
     0.138630033         0.370131493         0.367883265
     0.638630033         0.370131493         0.367883265
     0.388700873         0.369647592         0.867698550
     0.888700843         0.369647592         0.867698550
     0.361330390         0.869743586         0.132386714
     0.861330390         0.869743586         0.132386714
     0.111305997         0.869992495         0.632211804
     0.611306012         0.869992495         0.632211804
     0.128397837         0.124225765         0.451854408
     0.628397822         0.124225765         0.451854408
     0.378318071         0.124000341         0.951840937
     0.878318071         0.124000341         0.951840937
     0.371526837         0.624112785         0.048122715
     0.871526837         0.624112785         0.048122715
     0.121573403         0.624137998         0.548225105
     0.621573389         0.624137998         0.548225105
     0.202876702         0.816594303         0.404983193
     0.702876687         0.816594303         0.404983193
     0.452853709         0.816617191         0.905027628
     0.952853680         0.816617191         0.905027628
     0.297097564         0.316532999         0.095053330
     0.797097564         0.316532999         0.095053330
     0.047179047         0.316798091         0.595085740
     0.547179043         0.316798091         0.595085740
