Ca Mn P  O 
1.0
       13.9978256226         0.0000000000         0.0000000000
        0.0000013892        10.4327287674         0.0000000000
       -0.0000013561         4.9683734479         8.8899712323
   Ca   Mn    P    O
    7    8   16   56
Direct
     0.374835759         0.469269753         0.331045449
     0.625164628         0.530733109         0.668952584
     0.625164628         0.030733109         0.668952584
     0.874834895         0.530732930         0.168950170
     0.874834895         0.030732930         0.168950170
     0.125149712         0.969264805         0.831056833
     0.125149712         0.469264805         0.831056833
     0.833975852         0.996950448         0.805287600
     0.833975852         0.496950448         0.805287600
     0.166029707         0.503028691         0.194712490
     0.166029707         0.003028691         0.194712490
     0.333974898         0.503033936         0.694720447
     0.333974898         0.003033936         0.694720447
     0.666037381         0.996962607         0.305273175
     0.666037381         0.496962607         0.305273175
     0.309028983         0.162348732         0.916136026
     0.309028983         0.662348747         0.916136026
     0.034940150         0.253247172         0.204616502
     0.034940150         0.753247142         0.204616502
     0.191002771         0.162325203         0.416100502
     0.191002771         0.662325203         0.416100502
     0.691020489         0.337671518         0.083852358
     0.691020489         0.837671518         0.083852358
     0.808991432         0.337693959         0.583830297
     0.808991432         0.837693930         0.583830297
     0.465041071         0.253221810         0.704709649
     0.465041071         0.753221810         0.704709649
     0.965082288         0.246753708         0.795415223
     0.965082288         0.746753693         0.795415223
     0.534925699         0.246733591         0.295431525
     0.534925699         0.746733606         0.295431525
     0.695076227         0.436804056         0.913064241
     0.695076227         0.936804056         0.913064241
     0.077756472         0.195133463         0.374645829
     0.077756472         0.695133448         0.374645829
     0.728761733         0.414276749         0.168580338
     0.728761733         0.914276719         0.168580338
     0.195084676         0.063255273         0.586827040
     0.195084676         0.563255250         0.586827040
     0.434914410         0.193744704         0.294612795
     0.434914410         0.693744719         0.294612795
     0.894672275         0.125548452         0.901854217
     0.894672275         0.625548482         0.901854217
     0.394712657         0.374396861         0.598163486
     0.394712657         0.874396861         0.598163486
     0.036227401         0.119183309         0.177392006
     0.036227401         0.619183302         0.177392006
     0.605316579         0.125559181         0.401843905
     0.605316579         0.625559211         0.401843905
     0.771244586         0.414249420         0.668561459
     0.771244586         0.914249420         0.668561459
     0.565052450         0.306234270         0.705363274
     0.565052450         0.806234241         0.705363274
     0.261555552         0.311257690         0.865978718
     0.261555552         0.811257720         0.865978718
     0.963741839         0.380852163         0.822622478
     0.963741839         0.880852163         0.822622478
     0.934921801         0.306234419         0.205388963
     0.934921801         0.806234419         0.205388963
     0.228754506         0.085755892         0.331508309
     0.228754506         0.585755885         0.331508309
     0.105326079         0.374476969         0.098116405
     0.105326079         0.874476969         0.098116405
     0.271254718         0.085788019         0.831512809
     0.271254718         0.585788012         0.831512809
     0.804920375         0.436767876         0.413125455
     0.804920375         0.936767876         0.413125455
     0.536246777         0.380831391         0.322613686
     0.536246777         0.880831361         0.322613686
     0.304903328         0.063276485         0.086774968
     0.304903328         0.563276470         0.086774968
     0.463765949         0.119230032         0.677370191
     0.463765949         0.619230032         0.677370191
     0.922212005         0.304843217         0.625355721
     0.922212005         0.804843187         0.625355721
     0.065098062         0.193724841         0.794613838
     0.065098062         0.693724871         0.794613838
     0.738465846         0.188603103         0.134081364
     0.738465846         0.688603103         0.134081364
     0.238470525         0.311329097         0.365965068
     0.238470525         0.811329126         0.365965068
     0.761547625         0.188649282         0.634062171
     0.761547625         0.688649297         0.634062171
     0.577756107         0.304846704         0.125364825
     0.577756107         0.804846704         0.125364825
     0.422203630         0.195175096         0.874545574
     0.422203630         0.695175111         0.874545574
