Ca Sr V  F 
1.0
       10.9539670944         0.0000000000         0.0000000000
        0.0000000000         9.7085981369         0.0000000000
       -0.0000014910         0.0000000000        11.1973047256
   Ca   Sr    V    F
    7    8    8   48
Direct
     0.249170363         0.359947264         0.596816897
     0.000829645         0.640050828         0.096812338
     0.500829637         0.640050828         0.096812338
     0.499170512         0.140051320         0.403186947
     0.999170542         0.140051320         0.403186947
     0.250830382         0.859946430         0.903182268
     0.750830412         0.859946430         0.903182268
     0.249692857         0.307025790         0.146826863
     0.749692857         0.307025790         0.146826863
     0.500301242         0.692972362         0.646827161
     0.000301242         0.692972362         0.646827161
     0.250306010         0.807024181         0.353172660
     0.750306010         0.807024181         0.353172660
     0.999698758         0.192971408         0.853174567
     0.499698758         0.192971408         0.853174567
     0.998591781         0.992200196         0.128061444
     0.498591781         0.992200196         0.128061444
     0.251411051         0.007809758         0.628078461
     0.751411080         0.007809758         0.628078461
     0.501405895         0.492203385         0.371928602
     0.001405895         0.492203385         0.371928602
     0.248588681         0.507821918         0.871933222
     0.748588681         0.507821918         0.871933222
     0.142090544         0.162513912         0.548093677
     0.642090559         0.162513912         0.548093677
     0.107910171         0.837485671         0.048097230
     0.607910156         0.837485671         0.048097230
     0.357907593         0.662511408         0.951903939
     0.857907593         0.662511408         0.951903939
     0.392087579         0.337483227         0.451905608
     0.892087579         0.337483227         0.451905608
     0.109092563         0.634388149         0.276076674
     0.609092593         0.634388149         0.276076674
     0.140904605         0.365607232         0.776066720
     0.640904605         0.365607232         0.776066720
     0.390906274         0.134388283         0.223925009
     0.890906274         0.134388283         0.223925009
     0.359093696         0.865611732         0.723928750
     0.859093666         0.865611732         0.723928750
     0.104293406         0.151651949         0.050232537
     0.604293406         0.151651949         0.050232537
     0.145701423         0.848343015         0.550229371
     0.645701408         0.848343015         0.550229371
     0.395706952         0.651653647         0.449768305
     0.895706952         0.651653647         0.449768305
     0.354298830         0.348341048         0.949769914
     0.854298830         0.348341048         0.949769914
     0.108147584         0.321642131         0.315637887
     0.608147562         0.321642131         0.315637887
     0.141859874         0.678352892         0.815641463
     0.641859889         0.678352892         0.815641463
     0.391853720         0.821644545         0.184362859
     0.891853690         0.821644545         0.184362859
     0.358141273         0.178354979         0.684358835
     0.858141303         0.178354979         0.684358835
     0.140415698         0.488762021         0.027764149
     0.640415668         0.488762021         0.027764149
     0.109587952         0.511236787         0.527772248
     0.609587967         0.511236787         0.527772248
     0.359586149         0.988763511         0.472230256
     0.859586120         0.988763511         0.472230256
     0.390414178         0.011237264         0.972229838
     0.890414178         0.011237264         0.972229838
     0.102858931         0.985004961         0.287940532
     0.602858901         0.985004961         0.287940532
     0.147142246         0.014996409         0.787933469
     0.647142231         0.014996409         0.787933469
     0.397142649         0.485006332         0.212064207
     0.897142649         0.485006332         0.212064207
     0.352858812         0.514994144         0.712065995
     0.852858782         0.514994144         0.712065995
