Ca V  P  O                              
   1.00000000000000     
    10.5155344009000000    0.0000000000000000    0.0000000000000000
     0.0000067011000000    7.1892080306999997    0.0000000000000000
     0.0000045097000000    3.2146597663000001    7.8328516333999998
   Ca   V    P    O 
     3     4     8    28
Selective dynamics
Direct
  0.7174172092840863  0.3854401858981547  0.5934494168377213   T   T   T
  0.2086258221994157  0.6090415636592965  0.9013636065700439   T   T   T
  0.2957442610098298  0.6232826085913388  0.3959833943705675   T   T   T
  0.6112565166289770  0.7295881169915646  0.7500978684544464   T   T   T
  0.8871857214647818  0.7390343930768708  0.2382083331318654   T   T   T
  0.1056174583087284  0.2649245267945446  0.7516919531364934   T   T   T
  0.3962530249640110  0.2548781767697506  0.2598429273015199   T   T   T
  0.8561914909096728  0.9716859784115144  0.7918782518475780   T   T   T
  0.6400808596061864  0.9482192935113005  0.3108077591687106   T   T   T
  0.9094403489959078  0.6456422805054203  0.6773035378146233   T   T   T
  0.5917954713197062  0.6360017795569632  0.1842275714879520   T   T   T
  0.4116548345715856  0.3532916574499936  0.8197288049551474   T   T   T
  0.0933289456880431  0.3727259644635197  0.3130043037417138   T   T   T
  0.3520465692835870  0.0295096801038781  0.7028263233421370   T   T   T
  0.1443476470781704  0.0442940620627681  0.1980162167976331   T   T   T
  0.7155729163950113  0.9991259067256735  0.7323212963093937   T   T   T
  0.8813164165924832  0.8409642332109044  0.9764233600215846   T   T   T
  0.4164193469504198  0.8243637905216517  0.7463471359129770   T   T   T
  0.9288973240730698  0.8700841092196114  0.6710932992771532   T   T   T
  0.7794257336605384  0.9649938844871144  0.2549135234776756   T   T   T
  0.6186081918659028  0.7967155840375000  0.4952080956716713   T   T   T
  0.6016182708038755  0.6512207679895852  0.0031162812340071   T   T   T
  0.0780496785812232  0.8420727687580367  0.2411886201090923   T   T   T
  0.5629454796526403  0.8566180968316459  0.1873781701252142   T   T   T
  0.7832239323781991  0.5667968287839358  0.7727748675258255   T   T   T
  0.8956983134660774  0.6342795004874233  0.5011577273199208   T   T   T
  0.0318980947431626  0.5350476808810427  0.7647139589623677   T   T   T
  0.5354642942561298  0.4551154108336135  0.7357483011177308   T   T   T
  0.7137090511946838  0.5601576680197979  0.2916722558859206   T   T   T
  0.2909075629770470  0.4496356178411176  0.7089877864182981   T   T   T
  0.4723231304001132  0.5163928927290158  0.2775911630915573   T   T   T
  0.9754573397765895  0.4892682344003205  0.2308099702438113   T   T   T
  0.1226729656369088  0.3732325594254249  0.4900975236283571   T   T   T
  0.2185415213277508  0.4569616399834047  0.2060583903349951   T   T   T
  0.4206698519230869  0.1263640209506818  0.8293815373167277   T   T   T
  0.9164916243973025  0.1828789381628866  0.7320736868791684   T   T   T
  0.3885364418021169  0.3619541415931309  0.9943829773898756   T   T   T
  0.3713201071148475  0.1792804965726020  0.5209168937870530   T   T   T
  0.2119492268082936  0.9926317161371401  0.7644158950142241   T   T   T
  0.0775258693873440  0.1475946754831696  0.3202559560711080   T   T   T
  0.5738346799715544  0.1480683648020928  0.2771822043478593   T   T   T
  0.1322336570391300  0.1940789214344818  0.0140859969354210   T   T   T
  0.2838220235118314  0.9988579288501072  0.2646484436328578   T   T   T
 
  0.00000000E+00  0.00000000E+00  0.00000000E+00
  0.00000000E+00  0.00000000E+00  0.00000000E+00
  0.00000000E+00  0.00000000E+00  0.00000000E+00
  0.00000000E+00  0.00000000E+00  0.00000000E+00
  0.00000000E+00  0.00000000E+00  0.00000000E+00
  0.00000000E+00  0.00000000E+00  0.00000000E+00
  0.00000000E+00  0.00000000E+00  0.00000000E+00
  0.00000000E+00  0.00000000E+00  0.00000000E+00
  0.00000000E+00  0.00000000E+00  0.00000000E+00
  0.00000000E+00  0.00000000E+00  0.00000000E+00
  0.00000000E+00  0.00000000E+00  0.00000000E+00
  0.00000000E+00  0.00000000E+00  0.00000000E+00
  0.00000000E+00  0.00000000E+00  0.00000000E+00
  0.00000000E+00  0.00000000E+00  0.00000000E+00
  0.00000000E+00  0.00000000E+00  0.00000000E+00
  0.00000000E+00  0.00000000E+00  0.00000000E+00
  0.00000000E+00  0.00000000E+00  0.00000000E+00
  0.00000000E+00  0.00000000E+00  0.00000000E+00
  0.00000000E+00  0.00000000E+00  0.00000000E+00
  0.00000000E+00  0.00000000E+00  0.00000000E+00
  0.00000000E+00  0.00000000E+00  0.00000000E+00
  0.00000000E+00  0.00000000E+00  0.00000000E+00
  0.00000000E+00  0.00000000E+00  0.00000000E+00
  0.00000000E+00  0.00000000E+00  0.00000000E+00
  0.00000000E+00  0.00000000E+00  0.00000000E+00
  0.00000000E+00  0.00000000E+00  0.00000000E+00
  0.00000000E+00  0.00000000E+00  0.00000000E+00
  0.00000000E+00  0.00000000E+00  0.00000000E+00
  0.00000000E+00  0.00000000E+00  0.00000000E+00
  0.00000000E+00  0.00000000E+00  0.00000000E+00
  0.00000000E+00  0.00000000E+00  0.00000000E+00
  0.00000000E+00  0.00000000E+00  0.00000000E+00
  0.00000000E+00  0.00000000E+00  0.00000000E+00
  0.00000000E+00  0.00000000E+00  0.00000000E+00
  0.00000000E+00  0.00000000E+00  0.00000000E+00
  0.00000000E+00  0.00000000E+00  0.00000000E+00
  0.00000000E+00  0.00000000E+00  0.00000000E+00
  0.00000000E+00  0.00000000E+00  0.00000000E+00
  0.00000000E+00  0.00000000E+00  0.00000000E+00
  0.00000000E+00  0.00000000E+00  0.00000000E+00
  0.00000000E+00  0.00000000E+00  0.00000000E+00
  0.00000000E+00  0.00000000E+00  0.00000000E+00
  0.00000000E+00  0.00000000E+00  0.00000000E+00
