Ca Nb V  O 
1.0
       19.7544651031         0.0000000000         0.0000000000
      -16.1704939826        11.3514715168         0.0000000000
       -3.5897993626         1.1331747533        12.6846909626
   Ca   Nb    V    O
   17   18   54  144
Direct
     0.326421887         0.340504557         0.454514980
     0.326421887         0.007171214         0.454514980
     0.326421887         0.007171214         0.954514980
     0.326421887         0.340504557         0.954514980
     0.326421887         0.673837900         0.454514980
     0.326421887         0.673837900         0.954514980
     0.659755230         0.007171214         0.454514980
     0.659755230         0.007171214         0.954514980
     0.659755230         0.340504557         0.454514980
     0.659755230         0.340504557         0.954514980
     0.659755230         0.673837900         0.954514980
     0.993088543         0.007171214         0.454514980
     0.993088543         0.007171214         0.954514980
     0.993088543         0.340504557         0.454514980
     0.993088543         0.340504557         0.954514980
     0.993088543         0.673837900         0.454514980
     0.993088543         0.673837900         0.954514980
     0.234808266         0.098720811         0.146223113
     0.234808266         0.098720811         0.646223128
     0.234808266         0.432054132         0.146223113
     0.234808266         0.432054132         0.646223128
     0.234808266         0.765387475         0.146223113
     0.234808266         0.765387475         0.646223128
     0.568141580         0.098720811         0.146223113
     0.568141580         0.098720811         0.646223128
     0.568141580         0.432054132         0.146223113
     0.568141580         0.432054132         0.646223128
     0.568141580         0.765387475         0.146223113
     0.568141580         0.765387475         0.646223128
     0.901474953         0.098720811         0.146223113
     0.901474953         0.098720811         0.646223128
     0.901474953         0.432054132         0.146223113
     0.901474953         0.432054132         0.646223128
     0.901474953         0.765387475         0.146223113
     0.901474953         0.765387475         0.646223128
     0.133418843         0.200350210         0.157758668
     0.133418843         0.200350210         0.657758653
     0.133418843         0.533683538         0.157758668
     0.133418843         0.533683538         0.657758653
     0.133418843         0.867016852         0.157758668
     0.133418843         0.867016852         0.657758653
     0.466752172         0.200350210         0.157758668
     0.466752172         0.200350210         0.657758653
     0.466752172         0.533683538         0.157758668
     0.466752172         0.533683538         0.657758653
     0.466752172         0.867016852         0.157758668
     0.466752172         0.867016852         0.657758653
     0.800085485         0.200350210         0.157758668
     0.800085485         0.200350210         0.657758653
     0.800085485         0.533683538         0.157758668
     0.800085485         0.533683538         0.657758653
     0.800085485         0.867016852         0.157758668
     0.800085485         0.867016852         0.657758653
     0.202218726         0.131238744         0.343566954
     0.202218726         0.131238744         0.843566954
     0.202218726         0.464572072         0.343566954
     0.202218726         0.464572072         0.843566954
     0.202218726         0.797905385         0.343566954
     0.202218726         0.797905385         0.843566954
     0.535552084         0.131238744         0.343566954
     0.535552084         0.131238744         0.843566954
     0.535552084         0.464572072         0.343566954
     0.535552084         0.464572072         0.843566954
     0.535552084         0.797905385         0.343566954
     0.535552084         0.797905385         0.843566954
     0.868885398         0.131238744         0.343566954
     0.868885398         0.131238744         0.843566954
     0.868885398         0.464572072         0.343566954
     0.868885398         0.464572072         0.843566954
     0.868885398         0.797905385         0.343566954
     0.868885398         0.797905385         0.843566954
     0.097177558         0.236377642         0.359579295
     0.097177558         0.236377642         0.859579325
     0.097177558         0.569710970         0.359579295
     0.097177558         0.569710970         0.859579325
     0.097177558         0.903044283         0.359579295
     0.097177558         0.903044283         0.859579325
     0.430510879         0.236377642         0.359579295
     0.430510879         0.236377642         0.859579325
     0.430510879         0.569710970         0.359579295
     0.430510879         0.569710970         0.859579325
     0.430510879         0.903044283         0.359579295
     0.430510879         0.903044283         0.859579325
     0.763844252         0.236377642         0.359579295
     0.763844252         0.236377642         0.859579325
     0.763844252         0.569710970         0.359579295
     0.763844252         0.569710970         0.859579325
     0.763844252         0.903044283         0.359579295
     0.763844252         0.903044283         0.859579325
     0.043280330         0.290322632         0.363206416
     0.043280330         0.290322632         0.863206387
     0.043280330         0.623655975         0.363206416
     0.043280330         0.623655975         0.863206387
     0.043280330         0.956989288         0.363206416
     0.043280330         0.956989288         0.863206387
     0.376613677         0.290322632         0.363206416
     0.376613677         0.290322632         0.863206387
     0.376613677         0.623655975         0.363206416
     0.376613677         0.623655975         0.863206387
     0.376613677         0.956989288         0.363206416
     0.376613677         0.956989288         0.863206387
     0.709946990         0.290322632         0.363206416
     0.709946990         0.290322632         0.863206387
     0.709946990         0.623655975         0.363206416
     0.709946990         0.623655975         0.863206387
     0.709946990         0.956989288         0.363206416
     0.709946990         0.956989288         0.863206387
     0.077618740         0.255950749         0.177936807
     0.077618740         0.255950749         0.677936792
     0.077618740         0.589284062         0.177936807
     0.077618740         0.589284062         0.677936792
     0.077618740         0.922617435         0.177936807
     0.077618740         0.922617435         0.677936792
     0.410952061         0.255950749         0.177936807
     0.410952061         0.255950749         0.677936792
     0.410952061         0.589284062         0.177936807
     0.410952061         0.589284062         0.677936792
     0.410952061         0.922617435         0.177936807
     0.410952061         0.922617435         0.677936792
     0.744285405         0.255950749         0.177936807
     0.744285405         0.255950749         0.677936792
     0.744285405         0.589284062         0.177936807
     0.744285405         0.589284062         0.677936792
     0.744285405         0.922617435         0.177936807
     0.744285405         0.922617435         0.677936792
     0.127147406         0.206236422         0.498925507
     0.127147406         0.206236422         0.998925507
     0.127147406         0.539569736         0.498925507
     0.127147406         0.539569736         0.998925507
     0.127147406         0.872903109         0.498925507
     0.127147406         0.872903109         0.998925507
     0.460480750         0.206236422         0.498925507
     0.460480750         0.206236422         0.998925507
     0.460480750         0.539569736         0.498925507
     0.460480750         0.539569736         0.998925507
     0.460480750         0.872903109         0.498925507
     0.460480750         0.872903109         0.998925507
     0.793814063         0.206236422         0.498925507
     0.793814063         0.206236422         0.998925507
     0.793814063         0.539569736         0.498925507
     0.793814063         0.539569736         0.998925507
     0.793814063         0.872903109         0.498925507
     0.793814063         0.872903109         0.998925507
     0.147447824         0.186434790         0.318345904
     0.147447824         0.186434790         0.818345904
     0.147447824         0.519768119         0.318345904
     0.147447824         0.519768119         0.818345904
     0.147447824         0.853101432         0.318345904
     0.147447824         0.853101432         0.818345904
     0.480781168         0.186434790         0.318345904
     0.480781168         0.186434790         0.818345904
     0.480781168         0.519768119         0.318345904
     0.480781168         0.519768119         0.818345904
     0.480781168         0.853101432         0.318345904
     0.480781168         0.853101432         0.818345904
     0.814114511         0.186434790         0.318345904
     0.814114511         0.186434790         0.818345904
     0.814114511         0.519768119         0.318345904
     0.814114511         0.519768119         0.818345904
     0.814114511         0.853101432         0.318345904
     0.814114511         0.853101432         0.818345904
     0.188846424         0.144648403         0.185183421
     0.188846424         0.144648403         0.685183406
     0.188846424         0.477981746         0.185183421
     0.188846424         0.477981746         0.685183406
     0.188846424         0.811315060         0.185183421
     0.188846424         0.811315060         0.685183406
     0.522179782         0.144648403         0.185183421
     0.522179782         0.144648403         0.685183406
     0.522179782         0.477981746         0.185183421
     0.522179782         0.477981746         0.685183406
     0.522179782         0.811315060         0.185183421
     0.522179782         0.811315060         0.685183406
     0.855513096         0.144648403         0.185183421
     0.855513096         0.144648403         0.685183406
     0.855513096         0.477981746         0.185183421
     0.855513096         0.477981746         0.685183406
     0.855513096         0.811315060         0.185183421
     0.855513096         0.811315060         0.685183406
     0.208100677         0.125571966         0.005894284
     0.208100677         0.125571966         0.505894303
     0.208100677         0.458905309         0.005894284
     0.208100677         0.458905309         0.505894303
     0.208100677         0.792238653         0.005894284
     0.208100677         0.792238653         0.505894303
     0.541433990         0.125571966         0.005894284
     0.541433990         0.125571966         0.505894303
     0.541433990         0.458905309         0.005894284
     0.541433990         0.458905309         0.505894303
     0.541433990         0.792238653         0.005894284
     0.541433990         0.792238653         0.505894303
     0.874767363         0.125571966         0.005894284
     0.874767363         0.125571966         0.505894303
     0.874767363         0.458905309         0.005894284
     0.874767363         0.458905309         0.505894303
     0.874767363         0.792238653         0.005894284
     0.874767363         0.792238653         0.505894303
     0.257457197         0.076086842         0.334673256
     0.257457197         0.076086842         0.834673285
     0.257457197         0.409420162         0.334673256
     0.257457197         0.409420162         0.834673285
     0.257457197         0.742753506         0.334673256
     0.257457197         0.742753506         0.834673285
     0.590790510         0.076086842         0.334673256
     0.590790510         0.076086842         0.834673285
     0.590790510         0.409420162         0.334673256
     0.590790510         0.409420162         0.834673285
     0.590790510         0.742753506         0.334673256
     0.590790510         0.742753506         0.834673285
     0.924123883         0.076086842         0.334673256
     0.924123883         0.076086842         0.834673285
     0.924123883         0.409420162         0.334673256
     0.924123883         0.409420162         0.834673285
     0.924123883         0.742753506         0.334673256
     0.924123883         0.742753506         0.834673285
     0.289389789         0.044222947         0.149191424
     0.289389789         0.044222947         0.649191439
     0.289389789         0.377556294         0.149191424
     0.289389789         0.377556294         0.649191439
     0.289389789         0.710889637         0.149191424
     0.289389789         0.710889637         0.649191439
     0.622723103         0.044222947         0.149191424
     0.622723103         0.044222947         0.649191439
     0.622723103         0.377556294         0.149191424
     0.622723103         0.377556294         0.649191439
     0.622723103         0.710889637         0.149191424
     0.622723103         0.710889637         0.649191439
     0.956056476         0.044222947         0.149191424
     0.956056476         0.044222947         0.649191439
     0.956056476         0.377556294         0.149191424
     0.956056476         0.377556294         0.649191439
     0.956056476         0.710889637         0.149191424
     0.956056476         0.710889637         0.649191439
