Ca V  P  O 
1.0
        8.5804691315         0.0000000000         0.0000000000
        0.0000000000        10.0550374985         0.0000000000
        0.0000000000         2.3383358003         6.9055733663
   Ca    V    P    O
    3    4    8   28
Direct
     0.097421609         0.866896629         0.765807927
     0.597421646         0.133103356         0.234192073
     0.597421646         0.633103371         0.234192073
     0.006835394         0.139657244         0.232209042
     0.006835394         0.639657259         0.232209042
     0.506835401         0.360342771         0.767790973
     0.506835401         0.860342741         0.767790973
     0.308559179         0.057390276         0.000433633
     0.308559179         0.557390273         0.000433633
     0.808559179         0.442609727         0.999566376
     0.808559179         0.942609727         0.999566376
     0.731552601         0.141772762         0.605532050
     0.731552601         0.641772747         0.605532050
     0.231552586         0.358227223         0.394467950
     0.231552586         0.858227253         0.394467950
     0.948412955         0.343854368         0.036295760
     0.948412955         0.843854368         0.036295760
     0.341310978         0.470686525         0.230030745
     0.341310978         0.970686555         0.230030745
     0.081966355         0.436070681         0.421491385
     0.081966355         0.936070681         0.421491385
     0.581966400         0.063929342         0.578508556
     0.581966400         0.563929319         0.578508556
     0.448412985         0.156145632         0.963704228
     0.448412985         0.656145632         0.963704228
     0.841310918         0.029313477         0.769969285
     0.841310918         0.529313505         0.769969285
     0.310083747         0.454609066         0.884595335
     0.310083747         0.954609036         0.884595335
     0.810083747         0.045390915         0.115404673
     0.810083747         0.545390904         0.115404673
     0.705434501         0.267521650         0.672279119
     0.705434501         0.767521620         0.672279119
     0.825281620         0.172251180         0.418299854
     0.825281620         0.672251165         0.418299854
     0.651240051         0.366893142         0.017402053
     0.651240051         0.866893172         0.017402053
     0.151240051         0.133106872         0.982597947
     0.151240051         0.633106887         0.982597947
     0.325281650         0.327748835         0.581700146
     0.325281650         0.827748835         0.581700146
     0.205434501         0.232478350         0.327720910
     0.205434501         0.732478380         0.327720910
