Ca V  Fe P  O 
1.0
        8.4352693558         0.0000000000         0.0000000000
       -0.0000078981        14.8284149170         0.0000000000
       -0.0000013476         3.8115384672         9.3754190362
   Ca    V   Fe    P    O
    7    4    4   16   56
Direct
     0.409105778         0.506762087         0.246913686
     0.408751100         0.758466005         0.746793330
     0.909112573         0.493242055         0.753083229
     0.909112573         0.993242025         0.753083229
     0.409105778         0.006762093         0.246913686
     0.908756733         0.241534024         0.253210276
     0.908756733         0.741533995         0.253210276
     0.992479682         0.262164176         0.744963348
     0.992479682         0.762164176         0.744963348
     0.492471486         0.237837642         0.255032450
     0.492471486         0.737837672         0.255032450
     0.488259554         0.489821911         0.758321047
     0.488259554         0.989821911         0.758321047
     0.988268912         0.010179182         0.241675168
     0.988268912         0.510179162         0.241675168
     0.766559660         0.081159890         0.947272241
     0.766559660         0.581159890         0.947272241
     0.690749168         0.279521972         0.943982422
     0.690749168         0.779521942         0.943982422
     0.193585336         0.469817996         0.554479241
     0.193585336         0.969817996         0.554479241
     0.767589748         0.331239641         0.445559710
     0.767589748         0.831239641         0.445559710
     0.267532319         0.168723762         0.554470897
     0.267532319         0.668723762         0.554470897
     0.693577230         0.030209605         0.445512772
     0.693577230         0.530209601         0.445512772
     0.190807462         0.220484242         0.055993438
     0.190807462         0.720484257         0.055993438
     0.266476542         0.418801904         0.052760720
     0.266476542         0.918801904         0.052760720
     0.655616224         0.179319471         0.914073408
     0.655616224         0.679319501         0.914073408
     0.922344863         0.113797911         0.861498952
     0.922344863         0.613797903         0.861498952
     0.191793695         0.244517624         0.895123363
     0.191793695         0.744517624         0.895123363
     0.850757539         0.321369052         0.876158416
     0.850757539         0.821369052         0.876158416
     0.548678756         0.338692248         0.864801228
     0.548678756         0.838692248         0.864801228
     0.284395993         0.465772033         0.892353475
     0.284395993         0.965772033         0.892353475
     0.676858008         0.020079853         0.879518092
     0.676858008         0.520079851         0.879518092
     0.170625359         0.228802696         0.619327784
     0.170625359         0.728802681         0.619327784
     0.792056918         0.282612562         0.604995906
     0.792056918         0.782612562         0.604995906
     0.049938299         0.411993295         0.634892821
     0.049938299         0.911993265         0.634892821
     0.352125794         0.426543802         0.623133242
     0.352125794         0.926543832         0.623133242
     0.693097711         0.006705564         0.605757713
     0.693097711         0.506705582         0.605757713
     0.420653224         0.137326583         0.644339144
     0.420653224         0.637326598         0.644339144
     0.159606248         0.070645347         0.583322704
     0.159606248         0.570645332         0.583322704
     0.659586906         0.429366231         0.416672856
     0.659586906         0.929366231         0.416672856
     0.920621455         0.362669051         0.355676621
     0.920621455         0.862669051         0.355676621
     0.193098441         0.493291736         0.394233674
     0.193098441         0.993291736         0.394233674
     0.852116168         0.073450565         0.376870662
     0.852116168         0.573450565         0.376870662
     0.549961925         0.087988868         0.365122288
     0.549961925         0.587988853         0.365122288
     0.292068869         0.217403457         0.394958556
     0.292068869         0.717403471         0.394958556
     0.670631409         0.271205783         0.380678236
     0.670631409         0.771205783         0.380678236
     0.176818222         0.479941487         0.120510928
     0.176818222         0.979941487         0.120510928
     0.784378290         0.034254726         0.107542709
     0.784378290         0.534254730         0.107542709
     0.048629150         0.161283344         0.135227099
     0.048629150         0.661283374         0.135227099
     0.350755781         0.178630397         0.123842716
     0.350755781         0.678630412         0.123842716
     0.691797137         0.255483866         0.104866281
     0.691797137         0.755483866         0.104866281
     0.422437549         0.386178285         0.138548970
     0.422437549         0.886178255         0.138548970
     0.155626714         0.320707977         0.085928261
     0.155626714         0.820707977         0.085928261
