Sc2 V2 O8
1.0
   4.9371661199999997    0.5552690900000000    0.0148497500000000
   0.5469413400000001    4.9041799399999997    0.0070705500000000
  -2.7323290000000000   -2.7240472900000001    7.0913947300000002
Sc V O
2 2 8
direct
   0.6608208400000000    0.9109526200000000    0.3200303100000000 Sc
   0.3192000800000000    0.0695796900000000    0.6398016500000000 Sc
   0.1805376300000000    0.4300904300000000    0.3590974300000000 V
   0.8173142800000001    0.5670355000000000    0.6355072900000001 V
   0.4542231700000000    0.7020922100000000    0.4221893600000000 O
   0.9691340100000000    0.2202622800000000    0.4221534900000000 O
   0.0886244800000000    0.3813216700000000    0.8030338900000000 O
   0.7097660100000001    0.9199465900000000    0.8036537500000001 O
   0.5359548900000000    0.2921654100000000    0.5594255600000000 O
   0.0229037500000000    0.7671709600000001    0.5599048500000000 O
   0.8662171100000000    0.5531352300000000    0.1719613100000000 O
   0.3071856000000000    0.1187616400000000    0.1714301700000000 O
