Sc V  O 
 1.0000000000000000
     4.9371661199999997    0.5552690900000000    0.0148497500000000
     0.5469413400000001    4.9041799399999997    0.0070705500000000
    -2.7323290000000000   -2.7240472900000001    7.0913947300000002
 Sc  V   O  
   2   2   8
Cartesian
  2.8853574238249320  3.9588761156505723  2.4071556654189488
 -0.1366211707884712 -1.2256980480080610  4.5481194879514053
  0.1436024229365425  1.2292176407225415  2.3046298163732470
  2.6056547567121546  1.5041516303839502  4.6532249596028752
  1.3761099501862297  2.5443204205579577  2.9436728089978743
  3.8448320320176834  0.4679831455936000  2.9477746257820194
 -1.3551972461703354  0.0147262138716764  5.6702311338605043
  1.6248910969994477  2.4371556638435679  5.6816654542831557
  1.3768280259539596  0.1823548844291188  4.0154111369099530
 -1.0995252553179387  2.2725025743486884  4.0096220002412828
  4.1163855331319983  2.7290691055205629  1.2867720092601811
  1.1152826645812639  0.2880240643527374  1.2753989770371739
