Ca Mn V  P  O 
1.0
        8.5145435333         0.0000000000         0.0000000000
        0.0000000000         7.4188203812         0.0000000000
       -0.0000013380         3.5606587983         9.3963665848
   Ca   Mn    V    P    O
    3    2    2    8   28
Direct
     0.593009531         0.738565624         0.250636190
     0.093008310         0.261436373         0.749362886
     0.095295295         0.265035063         0.250306129
     0.509609997         0.259216636         0.757293105
     0.009611637         0.740783393         0.242705524
     0.008276089         0.730787992         0.745012760
     0.508276284         0.269211560         0.254987597
     0.231620431         0.893481314         0.945852220
     0.309175253         0.500042021         0.943362653
     0.806093693         0.504679501         0.556603611
     0.233249500         0.894677103         0.447255582
     0.733254075         0.105328016         0.552728057
     0.306082845         0.495334625         0.443370253
     0.809194744         0.499954373         0.056656834
     0.731635869         0.106467523         0.054209139
     0.342246443         0.730174661         0.914362431
     0.076421440         0.911963642         0.861143529
     0.810005188         0.613222122         0.896177053
     0.150160879         0.482427955         0.876577437
     0.450120747         0.462136507         0.863762617
     0.714184403         0.167568713         0.894658566
     0.319816679         0.083297022         0.875423133
     0.832398236         0.923307121         0.616964340
     0.208707750         0.830482662         0.606573820
     0.949644685         0.537967622         0.636865735
     0.649467170         0.525571764         0.624950647
     0.306914598         0.381974876         0.602997541
     0.580861926         0.074690603         0.641439974
     0.837128282         0.274328023         0.584061801
     0.337128282         0.725670516         0.415940464
     0.080868274         0.925308168         0.358565241
     0.806913257         0.618013144         0.397019476
     0.149477705         0.474427372         0.375056297
     0.449644387         0.462030679         0.363136232
     0.708708107         0.169513762         0.393435448
     0.332398981         0.076692626         0.383036643
     0.819800436         0.916734278         0.124562636
     0.214189872         0.832447946         0.105303265
     0.950107694         0.537859201         0.136229411
     0.650156558         0.517571449         0.123422682
     0.310007095         0.386783987         0.103813089
     0.576426446         0.088040203         0.138850570
     0.842243195         0.269825816         0.085634142
