Ca1 V4 O8
1.0
       11.2284603119         0.0000000000         0.0000000000
       -3.7428234989        12.5863278625         0.0000000000
        0.0000000000        -4.0639918238        12.5873434180
   Ca    V    O
   11   48   96
Direct
     0.333333343         0.500000000         0.500000000
     0.000000000         0.000000000         0.000000000
     0.000000000         0.000000000         0.500000000
     0.000000000         0.500000000         0.000000000
     0.000000000         0.500000000         0.500000000
     0.333333343         0.000000000         0.000000000
     0.333333343         0.000000000         0.500000000
     0.333333343         0.500000000         0.000000000
     0.666666687         0.000000000         0.000000000
     0.666666687         0.000000000         0.500000000
     0.666666687         0.500000000         0.000000000
     0.100638330         0.301914513         0.355957508
     0.100638330         0.301914513         0.855957508
     0.100638330         0.801914513         0.355957508
     0.100638330         0.801914513         0.855957508
     0.433971673         0.301914513         0.355957508
     0.433971673         0.301914513         0.855957508
     0.433971673         0.801914513         0.355957508
     0.433971673         0.801914513         0.855957508
     0.767305017         0.301914513         0.355957508
     0.767305017         0.301914513         0.855957508
     0.767305017         0.801914513         0.355957508
     0.767305017         0.801914513         0.855957508
     0.232694998         0.198085502         0.144042507
     0.232694998         0.198085502         0.644042492
     0.232694998         0.698085487         0.144042507
     0.232694998         0.698085487         0.644042492
     0.566028357         0.198085502         0.144042507
     0.566028357         0.198085502         0.644042492
     0.566028357         0.698085487         0.144042507
     0.566028357         0.698085487         0.644042492
     0.899361670         0.198085502         0.144042507
     0.899361670         0.198085502         0.644042492
     0.899361670         0.698085487         0.144042507
     0.899361670         0.698085487         0.644042492
     0.132396325         0.397189498         0.155122995
     0.132396325         0.397189498         0.655122995
     0.132396325         0.897189498         0.155122995
     0.132396325         0.897189498         0.655122995
     0.465729654         0.397189498         0.155122995
     0.465729654         0.397189498         0.655122995
     0.465729654         0.897189498         0.155122995
     0.465729654         0.897189498         0.655122995
     0.799062967         0.397189498         0.155122995
     0.799062967         0.397189498         0.655122995
     0.799062967         0.897189498         0.155122995
     0.799062967         0.897189498         0.655122995
     0.200936988         0.102810502         0.344877005
     0.200936988         0.102810502         0.844877005
     0.200936988         0.602810502         0.344877005
     0.200936988         0.602810502         0.844877005
     0.534270346         0.102810502         0.344877005
     0.534270346         0.102810502         0.844877005
     0.534270346         0.602810502         0.344877005
     0.534270346         0.602810502         0.844877005
     0.867603660         0.102810502         0.344877005
     0.867603660         0.102810502         0.844877005
     0.867603660         0.602810502         0.344877005
     0.867603660         0.602810502         0.844877005
     0.131154329         0.393463999         0.491605490
     0.131154329         0.393463999         0.991605520
     0.131154329         0.893463969         0.491605490
     0.131154329         0.893463969         0.991605520
     0.464487672         0.393463999         0.491605490
     0.464487672         0.393463999         0.991605520
     0.464487672         0.893463969         0.491605490
     0.464487672         0.893463969         0.991605520
     0.797820985         0.393463999         0.491605490
     0.797820985         0.393463999         0.991605520
     0.797820985         0.893463969         0.491605490
     0.797820985         0.893463969         0.991605520
     0.202179000         0.106536001         0.008394500
     0.202179000         0.106536001         0.508394480
     0.202179000         0.606536031         0.008394500
     0.202179000         0.606536031         0.508394480
     0.535512328         0.106536001         0.008394500
     0.535512328         0.106536001         0.508394480
     0.535512328         0.606536031         0.008394500
     0.535512328         0.606536031         0.508394480
     0.868845642         0.106536001         0.008394500
     0.868845642         0.106536001         0.508394480
     0.868845642         0.606536031         0.008394500
     0.868845642         0.606536031         0.508394480
     0.077959001         0.233878002         0.176808506
     0.077959001         0.233878002         0.676808476
     0.077959001         0.733878016         0.176808506
     0.077959001         0.733878016         0.676808476
     0.411292344         0.233878002         0.176808506
     0.411292344         0.233878002         0.676808476
     0.411292344         0.733878016         0.176808506
     0.411292344         0.733878016         0.676808476
     0.744625688         0.233878002         0.176808506
     0.744625688         0.233878002         0.676808476
     0.744625688         0.733878016         0.176808506
     0.744625688         0.733878016         0.676808476
     0.255374342         0.266122013         0.323191494
     0.255374342         0.266122013         0.823191524
     0.255374342         0.766121984         0.323191494
     0.255374342         0.766121984         0.823191524
     0.588707685         0.266122013         0.323191494
     0.588707685         0.266122013         0.823191524
     0.588707685         0.766121984         0.323191494
     0.588707685         0.766121984         0.823191524
     0.922040999         0.266122013         0.323191494
     0.922040999         0.266122013         0.823191524
     0.922040999         0.766121984         0.323191494
     0.922040999         0.766121984         0.823191524
     0.146735325         0.440205514         0.314939499
     0.146735325         0.440205514         0.814939499
     0.146735325         0.940205514         0.314939499
     0.146735325         0.940205514         0.814939499
     0.480068654         0.440205514         0.314939499
     0.480068654         0.440205514         0.814939499
     0.480068654         0.940205514         0.314939499
     0.480068654         0.940205514         0.814939499
     0.813401997         0.440205514         0.314939499
     0.813401997         0.440205514         0.814939499
     0.813401997         0.940205514         0.314939499
     0.813401997         0.940205514         0.814939499
     0.186598003         0.059794500         0.185060501
     0.186598003         0.059794500         0.685060501
     0.186598003         0.559794486         0.185060501
     0.186598003         0.559794486         0.685060501
     0.519931316         0.059794500         0.185060501
     0.519931316         0.059794500         0.685060501
     0.519931316         0.559794486         0.185060501
     0.519931316         0.559794486         0.685060501
     0.853264689         0.059794500         0.185060501
     0.853264689         0.059794500         0.685060501
     0.853264689         0.559794486         0.185060501
     0.853264689         0.559794486         0.685060501
     0.050505336         0.151516497         0.370218992
     0.050505336         0.151516497         0.870218992
     0.050505336         0.651516497         0.370218992
     0.050505336         0.651516497         0.870218992
     0.383838683         0.151516497         0.370218992
     0.383838683         0.151516497         0.870218992
     0.383838683         0.651516497         0.370218992
     0.383838683         0.651516497         0.870218992
     0.717172027         0.151516497         0.370218992
     0.717172027         0.151516497         0.870218992
     0.717172027         0.651516497         0.370218992
     0.717172027         0.651516497         0.870218992
     0.282828003         0.348483503         0.129780993
     0.282828003         0.348483503         0.629781008
     0.282828003         0.848483503         0.129780993
     0.282828003         0.848483503         0.629781008
     0.616161346         0.348483503         0.129780993
     0.616161346         0.348483503         0.629781008
     0.616161346         0.848483503         0.129780993
     0.616161346         0.848483503         0.629781008
     0.949494660         0.348483503         0.129780993
     0.949494660         0.348483503         0.629781008
     0.949494660         0.848483503         0.129780993
     0.949494660         0.848483503         0.629781008
