Ca V  Cr P  O                           
   1.00000000000000     
     9.8034191132000004    0.0000000000000000    0.0000000000000000
     0.0310846032000000    8.1394794092999998    0.0000000000000000
    -2.1279917691999999   -0.0524358375000000    6.8508461865000001
   Ca   V    Cr   P    O 
     1     2     2     8    28
Selective dynamics
Direct
  0.4667469551091596  0.9437124904074393  0.8035508126987304   T   T   T
  0.1019975644759190  0.5022343940787133  0.7260914406475849   T   T   T
  0.6082977966191319  0.4970545716584446  0.7173901344708257   T   T   T
  0.3868491297236041  0.0018346845310231  0.2684890697374196   T   T   T
  0.8878999324453190  0.0031088970106008  0.2647881940963792   T   T   T
  0.1862482291048375  0.1932170128329812  0.4910363546659948   T   T   T
  0.6893379743377028  0.1814696094398278  0.5045555612757638   T   T   T
  0.1159174344303715  0.7695630273725670  0.1001650046182832   T   T   T
  0.6224220497387570  0.7570895894394427  0.1123026473703187   T   T   T
  0.3778881651941040  0.2756399040755368  0.8903958179254996   T   T   T
  0.8805530174685032  0.2681940910528918  0.8906977104086835   T   T   T
  0.3004149641834972  0.6791768829498902  0.4855649094873714   T   T   T
  0.8061157317846219  0.6885640086179273  0.4934314382229354   T   T   T
  0.0089706530658661  0.3282028853689472  0.8281479485960275   T   T   T
  0.5084535293780563  0.3237299978790159  0.8269480477814141   T   T   T
  0.0797318583554187  0.6601992684538008  0.9164969366232264   T   T   T
  0.5740981753169048  0.6650468982977386  0.9142661518925622   T   T   T
  0.0671281750858959  0.0688187823957415  0.4549138882055644   T   T   T
  0.5654557875816711  0.0597495838423704  0.4797692549632329   T   T   T
  0.1396086611847792  0.3705108112465539  0.5180298398295839   T   T   T
  0.6370116695728395  0.3605669222259069  0.5156613740477632   T   T   T
  0.2140131812229542  0.6755795749434986  0.6325427128694816   T   T   T
  0.7090182441000550  0.6754245984100107  0.6263721109913086   T   T   T
  0.2823621736845870  0.4187953060857657  0.9079326800202099   T   T   T
  0.7799179736037904  0.4178189664736187  0.8913646474644134   T   T   T
  0.2886590750058710  0.1482241024565464  0.7147715295036604   T   T   T
  0.7912545643446941  0.1421239172263990  0.7233592906681600   T   T   T
  0.2061336545981134  0.6404617021963144  0.2690422381186989   T   T   T
  0.7101117731531640  0.6331068712847878  0.2736695784495225   T   T   T
  0.2160455301401125  0.9095944748563360  0.0850495459099150   T   T   T
  0.7095733517164773  0.9072369629680443  0.0827237498869148   T   T   T
  0.2817727751129358  0.1803985465776932  0.3579969557730824   T   T   T
  0.7727822629123787  0.1693842881959852  0.3581433202481072   T   T   T
  0.3591858000592086  0.8571362330282661  0.4853229806831349   T   T   T
  0.8579428887276667  0.8608969999951454  0.4759973035017530   T   T   T
  0.4253464014082891  0.5572007499246311  0.5383902230409746   T   T   T
  0.9261662191194741  0.5596803834280504  0.5451135664086230   T   T   T
  0.4238319929848734  0.1511749092742662  0.0569804141337478   T   T   T
  0.9198992852360652  0.1717445743822878  0.0769735207398976   T   T   T
  0.4861685445753488  0.8208240666159715  0.1529704698327505   T   T   T
  0.9859895583096796  0.8241169514984783  0.1570680151905723   T   T   T
 
             NaN             NaN             NaN
             NaN             NaN             NaN
             NaN             NaN             NaN
             NaN             NaN             NaN
             NaN             NaN             NaN
             NaN             NaN             NaN
             NaN             NaN             NaN
             NaN             NaN             NaN
             NaN             NaN             NaN
             NaN             NaN             NaN
             NaN             NaN             NaN
             NaN             NaN             NaN
             NaN             NaN             NaN
             NaN             NaN             NaN
             NaN             NaN             NaN
             NaN             NaN             NaN
             NaN             NaN             NaN
             NaN             NaN             NaN
             NaN             NaN             NaN
             NaN             NaN             NaN
             NaN             NaN             NaN
             NaN             NaN             NaN
             NaN             NaN             NaN
             NaN             NaN             NaN
             NaN             NaN             NaN
             NaN             NaN             NaN
             NaN             NaN             NaN
             NaN             NaN             NaN
             NaN             NaN             NaN
             NaN             NaN             NaN
             NaN             NaN             NaN
             NaN             NaN             NaN
             NaN             NaN             NaN
             NaN             NaN             NaN
             NaN             NaN             NaN
             NaN             NaN             NaN
             NaN             NaN             NaN
             NaN             NaN             NaN
             NaN             NaN             NaN
             NaN             NaN             NaN
             NaN             NaN             NaN
