Ca V  Cr P  O 
 1.0000000000000000
     9.8034191132000004    0.0000000000000000    0.0000000000000000
     0.0310846032000000    8.1394794092999998    0.0000000000000000
    -2.1279917691999999   -0.0524358375000000    6.8508461865000001
 Ca  V   Cr  P   O  
   1   2   2   8  28
Selective dynamics
Cartesian
  2.7738751822962970  7.5507572942705439  5.4868544264381161   T   T   T
 -0.5146002537239905  4.0655606582428199  4.9741011972459814   T   T   T
  4.4740351733143120  4.0091860366319532  4.9521936802814652   T   T   T
  3.2332638034755181  0.0195794675568731  1.8252564166610545   T   T   T
  8.1550312218259755  0.0187743989328824  1.8209062917795655   T   T   T
  0.8089637821813235  1.5610473217140508  3.3469350977468677   T   T   T
  5.7041016218698459  1.4593314656149232  3.4661982663073720   T   T   T
  0.9442312548269081  6.2468408024603281  0.6871904191295359   T   T   T
  5.8770483704946637  6.1766180793512877  0.7747110899480407   T   T   T
  1.8470570523341932  2.1893453983823972  6.0891659107232110   T   T   T
  6.7691387874314692  2.1242956436258651  6.1002642363624346   T   T   T
  1.9463623191545825  5.4964404911902474  3.3173360312090834   T   T   T
  6.8573576530510669  5.5909483058806790  3.3925073075127563   T   T   T
 -1.6495599569807828  2.5870293983103134  5.6599109049744873   T   T   T
  3.2730465161643827  2.5964225425759007  5.7076511211969496   T   T   T
 -1.1562580150965143  5.3002840414971111  6.2840499878874549   T   T   T
  3.6756578200345267  5.3789190595426621  6.2647550217814363   T   T   T
 -0.2466690512400994  0.5071385651070158  3.1230528546951173   T   T   T
  4.5543430744427251  0.4668490946782423  3.2710915774737290   T   T   T
  0.2675699023115690  2.9871928637109146  3.5564455732326659   T   T   T
  5.1601409583639990  2.9164079512547545  3.5638833942608210   T   T   T
  0.7913316618067109  5.4932357701146639  4.3355012556948154   T   T   T
  5.6081512873379618  5.4966834374504936  4.2836126352234256   T   T   T
  0.8678967365202694  3.3342178765562940  6.2259673249132073   T   T   T
  5.7884668694619430  3.3579980078513971  6.1257166746029474   T   T   T
  1.3727730509457547  1.1849002796727561  4.8637142512017792   T   T   T
  6.1933311506802813  1.1187379840581548  4.9739262345313007   T   T   T
  1.4811825021349951  5.1845995098170148  1.8366379872777747   T   T   T
  6.3779066846622383  5.1578597383561684  1.8689863562877087   T   T   T
  1.9462137673462059  7.3932081562904708  0.5553613024671655   T   T   T
  6.7826461632010533  7.4030711244720440  0.5584353820536765   T   T   T
  2.0195755787446821  1.5043876198946786  2.4285221602775793   T   T   T
  6.8525934883639064  1.4086093027211377  2.4912871535028658   T   T   T
  2.5111573659294688  6.9525674875367915  3.3029261536490067   T   T   T
  7.4058350279958320  6.9906075780277872  3.2755909328391071   T   T   T
  3.0350845534956683  4.4990322257050748  3.6926985211783165   T   T   T
  7.9024322570796235  4.5270712711948109  3.7254341003261997   T   T   T
  4.0482888970096553  1.1934547049102704  0.3566073839473452   T   T   T
  8.8875771022527079  1.3936866323556665  0.5274028009285745   T   T   T
  4.4489890611315719  6.6675377964453446  1.0524188967040276   T   T   T
  9.3512469184439961  6.6520432745168359  1.0814055063679318   T   T   T
