Ca V  O                                 
   1.00000000000000     
    11.0148601532000008    0.0000000000000000    0.0000000000000000
    -0.0001855896000000   10.4011516553999996    0.0000000000000000
     3.6723958583999998   -6.1538260171000001   14.5152821726999992
   Ca   V    O 
    11    36    90
Direct
  0.5664502472552966  0.6341937106904629  0.4415545173287162
  0.9952846481920629  0.6305694949646691  0.4945313092366469
  0.0224733577429233  0.6243513055641390  0.9552433003683359
  0.3444967048088766  0.6922261613499621  0.9718726773438513
  0.6816949848596926  0.6414218155264035  0.9641215848272590
  0.3206541747204440  0.3601153941570112  0.0178150073076810
  0.3324305501585642  0.4030235780231357  0.5102456636571568
  0.6485587735866789  0.3517174622814541  0.0387649409029642
  0.6768920123758001  0.3932069972559983  0.5298019623004442
  0.9788538666017400  0.3440980232739154  0.0359821681469017
  0.0055422853869551  0.3238933603865501  0.5174472677876736
  0.2277733116624738  0.0938494650511941  0.3337488945989217
  0.2187244093168143  0.1210460242441603  0.8326581172549143
  0.5523412397153463  0.1003838149771465  0.3456416436938609
  0.5548962555841001  0.1209361456177594  0.8345397245972614
  0.8865397843946412  0.0977677725920907  0.3415128003546359
  0.8835940608232613  0.1181067466524449  0.8392374758640995
  0.1074582796078628  0.8784485606204304  0.1683739298806206
  0.1147523917672915  0.9004620443418629  0.6580101574455910
  0.4456923731435259  0.8761766924309063  0.1684865509467594
  0.4394238953122593  0.9178822524511390  0.6652063286373860
  0.7829286381989631  0.8719005505087363  0.1599996309332332
  0.7764200594818786  0.9008686188788408  0.6582510388693700
  0.0418456789245261  0.8902327815205181  0.3814980700639324
  0.0398021295024003  0.9201045030192567  0.8838476299869957
  0.3729803645089337  0.8818329011066715  0.3830676892713238
  0.3789122539129349  0.8977787810462217  0.8628311255676473
  0.7068541119938827  0.8972990613532658  0.3826781264657813
  0.7063241928143313  0.9087752268311201  0.8761662899342918
  0.2948991690385462  0.0691168724022202  0.1089040663192387
  0.2922509014368703  0.1230082937651278  0.6186844771661165
  0.6237525743930511  0.0771331620185198  0.1239144573913987
  0.6253610605870161  0.1148855854943190  0.6226541240919163
  0.9550951109400790  0.0948319380934633  0.1312141168960726
  0.9598970800721529  0.1069443710146425  0.6232605886545902
  0.0871174128645800  0.5789231871075197  0.2213546558532996
  0.0960152150634460  0.6039848807432445  0.7125467051644853
  0.4165410636099781  0.5775860370057947  0.2206361772360662
  0.4369673103379112  0.5989217285420404  0.7035494473465266
  0.7519322813827600  0.5852248159321627  0.2282899764823104
  0.7713184072707091  0.6045283634788017  0.7153090596853122
  0.2269384470249857  0.3976412857758639  0.2928182818203469
  0.2498601675479683  0.4223443843054274  0.7773236915512240
  0.5603298864702176  0.3768313813563472  0.2727776365745818
  0.5761828464305310  0.4201145464208005  0.7760225952424764
  0.8940332627414250  0.4009359864270284  0.2924926038589364
  0.9096012937693636  0.4170533668647743  0.7823422879248254
  0.0010600840814291  0.0276338511869930  0.5025939986645607
  0.9990581969516987  1.0185694380057448  1.0028065956091803
  0.3320003885877833  1.0044943197030964  0.5020556345966510
  0.3335802648232304  0.9431661771885910 -0.0056451683301064
  0.6649453511260196 -0.0021080825507789  0.5028883855788763
  0.6653710692650532 -0.0050290398071390  0.9986114154629147
  0.0608313577383852  0.0492818152707032  0.3223475570176766
  0.0548828236957882  0.0647795307632112  0.8211133616869533
  0.3998291954007888  0.0360981477185539  0.3135250104157863
  0.3917699975503213  0.0784533479754351  0.8209538536481142
  0.7246385830035971  0.0411097015711529  0.3232930416561000
  0.7271889098099978  0.0627979754831998  0.8187334968117993
  0.2704437884955708  0.9263149213507743  0.1837571241516472
  0.2673708346970969  0.9715550268379713  0.6898727507982404
  0.6120233372135157  0.9181965840799738  0.1736543772307674
  0.6018440853760614  0.9678806996502010  0.6852064832835257
  0.9362847838537267  0.9378769216746817  0.1886795855156957
  0.9396800204779819  0.9554497396628994  0.6777478093815056
  0.1205178129916155  0.0442655732209163  0.1361790112181022
  0.1219227988929757  0.0765840726779618  0.6357019503556837
  0.4511692975921466  0.0409818700971926  0.1346731890853963
  0.4519294031854157  0.0933734996008863  0.6370341996009081
  0.7893636629904586  0.0443763960413473  0.1362375037939814
  0.7882753161112193  0.0746999801723074  0.6362695963199125
  0.2128022000972978  0.9253461900057490  0.3681190735052742
  0.2129885111013163  0.9569214726543549  0.8644485515400757
  0.5428302536959271  0.9255895353097098  0.3696426684162094
  0.5429823352874016  0.9525644528030994  0.8628597153922347
  0.8783876835340750  0.9293223764064985  0.3688706774485568
  0.8790789676716410  0.9408534694968844  0.8627870965973634
  0.2049776950054047  0.2227397873503427  0.4388425417635222
  0.1747266882035756  0.2549927064498720  0.9386611641397544
  0.5206978765312128  0.2303009083065255  0.4489604274661089
  0.5216615703238376  0.2511938328027158  0.9416216229735215
  0.8483912442523249  0.2247985782123597  0.4486753442935563
  0.8420077960355622  0.2359268156908616  0.9495725302308949
  0.1374874200729227  0.7501058892860074  0.0618227093613218
  0.1448816856780023  0.7785059999440029  0.5540579788155930
  0.4850229724767298  0.7473556820451823  0.0609147390598083
  0.4656795085573074  0.8101469677300288  0.5579372556274769
  0.8278913506465053  0.7487547354974453  0.0515715874257200
  0.8077247865093549  0.7768534966678221  0.5541664117610887
  0.0739036021724048  0.4231061012987416  0.2661985951502847
  0.0842547854779047  0.4583687589822840  0.7729997648451230
  0.3985695344862319  0.4101203159695901  0.2515104743172230
  0.4244202691785462  0.4361047207990781  0.7393271622039419
  0.7282194597459559  0.4329673282257348  0.2809299958021395
  0.7473265800222731  0.4501315708147260  0.7645853700176789
  0.2420037662958488  0.5632939768295185  0.2497038966174387
  0.2616354666590768  0.5678298828887741  0.7184122430794649
  0.5733621755102278  0.5547928866597491  0.2482946585929010
  0.6039235173166849  0.5635440130956757  0.7156663801895780
  0.9130408711142664  0.5576604485000808  0.2485077609347603
  0.9232510699845686  0.5854840458842560  0.7503498666426459
  0.2409944336684621  0.2122534476134137  0.2678029768610570
  0.2434819294419769  0.2421733439093053  0.7653968140465650
  0.5776685672342473  0.1905823082855043  0.2674393948391012
  0.5805961795980659  0.2382973875263238  0.7681506109261171
  0.9030734457951042  0.2102073623540004  0.2767556067169650
  0.9079054051605407  0.2306293382971457  0.7784529123665913
  0.0823073751779195  0.7689701096971544  0.2407923122131724
  0.0938751762886465  0.7837222670469793  0.7228840651734544
  0.4187140905630884  0.7643100960120325  0.2374792650069948
  0.4250221000788096  0.7977689305345647  0.7220223640952280
  0.7559530439851928  0.7648612741794729  0.2281203089014308
  0.7595650305256167  0.7869857280612651  0.7242531648497607
  0.1241999867374234  0.4983700577352688  0.1044556350754219
  0.1146153224492506  0.5150589636046247  0.5966394596260145
  0.4558906562637304  0.5006239543367267  0.1034155411462901
  0.4865527125095219  0.5400608741454169  0.5819590785454590
  0.7907621859993776  0.4944025483711785  0.1102349723034649
  0.8383109300336264  0.5184383177300242  0.5976679305714271
  0.1850078963842161  0.4664551634122266  0.4083370312636500
  0.2304823147282398  0.5074665959900035  0.8941565373975455
  0.4890375393381276  0.4332920974675938  0.3896248490834163
  0.5235124712236963  0.5097370216186623  0.8920054375912176
  0.8632802337361923  0.4705458007809672  0.4092967339759440
  0.8659896965727184  0.4894521747006439  0.9030791986626876
  0.2953557237062749  0.2214682914475772  0.0967718148649813
  0.2870504227516725  0.2795899358724691  0.6118612776576482
  0.6163119885350249  0.2569091885644500  0.1387861240353208
  0.6391476510195591  0.2748705834841916  0.6199483849274886
  0.9440553413488545  0.2674116849269805  0.1447548118651941
  0.9570909766842610  0.2845304896007240  0.6431704991359428
  0.0327552882464227  0.7392761833084890  0.3950054661467496
  0.0568635772615369  0.7526939933015282  0.8743557530935606
  0.3820208464986790  0.7268352192749057  0.3895323340990319
  0.3914113312179697  0.7189370631672267  0.8416165767629836
  0.7125056900007135  0.7268532488519598  0.3723198314714851
  0.7040839672639031  0.7359179501390006  0.8635437811081852
 
             NaN             NaN             NaN
             NaN             NaN             NaN
             NaN             NaN             NaN
             NaN             NaN             NaN
             NaN             NaN             NaN
             NaN             NaN             NaN
             NaN             NaN             NaN
             NaN             NaN             NaN
             NaN             NaN             NaN
             NaN             NaN             NaN
             NaN             NaN             NaN
             NaN             NaN             NaN
             NaN             NaN             NaN
             NaN             NaN             NaN
             NaN             NaN             NaN
             NaN             NaN             NaN
             NaN             NaN             NaN
             NaN             NaN             NaN
             NaN             NaN             NaN
             NaN             NaN             NaN
             NaN             NaN             NaN
             NaN             NaN             NaN
             NaN             NaN             NaN
             NaN             NaN             NaN
             NaN             NaN             NaN
             NaN             NaN             NaN
             NaN             NaN             NaN
             NaN             NaN             NaN
             NaN             NaN             NaN
             NaN             NaN             NaN
             NaN             NaN             NaN
             NaN             NaN             NaN
             NaN             NaN             NaN
             NaN             NaN             NaN
             NaN             NaN             NaN
             NaN             NaN             NaN
             NaN             NaN             NaN
             NaN             NaN             NaN
             NaN             NaN             NaN
             NaN             NaN             NaN
             NaN             NaN             NaN
             NaN             NaN             NaN
             NaN             NaN             NaN
             NaN             NaN             NaN
             NaN             NaN             NaN
             NaN             NaN             NaN
             NaN             NaN             NaN
             NaN             NaN             NaN
             NaN             NaN             NaN
             NaN             NaN             NaN
             NaN             NaN             NaN
             NaN             NaN             NaN
             NaN             NaN             NaN
             NaN             NaN             NaN
             NaN             NaN             NaN
             NaN             NaN             NaN
             NaN             NaN             NaN
             NaN             NaN             NaN
             NaN             NaN             NaN
             NaN             NaN             NaN
             NaN             NaN             NaN
             NaN             NaN             NaN
             NaN             NaN             NaN
             NaN             NaN             NaN
             NaN             NaN             NaN
             NaN             NaN             NaN
             NaN             NaN             NaN
             NaN             NaN             NaN
             NaN             NaN             NaN
             NaN             NaN             NaN
             NaN             NaN             NaN
             NaN             NaN             NaN
             NaN             NaN             NaN
             NaN             NaN             NaN
             NaN             NaN             NaN
             NaN             NaN             NaN
             NaN             NaN             NaN
             NaN             NaN             NaN
             NaN             NaN             NaN
             NaN             NaN             NaN
             NaN             NaN             NaN
             NaN             NaN             NaN
             NaN             NaN             NaN
             NaN             NaN             NaN
             NaN             NaN             NaN
             NaN             NaN             NaN
             NaN             NaN             NaN
             NaN             NaN             NaN
             NaN             NaN             NaN
             NaN             NaN             NaN
             NaN             NaN             NaN
             NaN             NaN             NaN
             NaN             NaN             NaN
             NaN             NaN             NaN
             NaN             NaN             NaN
             NaN             NaN             NaN
             NaN             NaN             NaN
             NaN             NaN             NaN
             NaN             NaN             NaN
             NaN             NaN             NaN
             NaN             NaN             NaN
             NaN             NaN             NaN
             NaN             NaN             NaN
             NaN             NaN             NaN
             NaN             NaN             NaN
             NaN             NaN             NaN
             NaN             NaN             NaN
             NaN             NaN             NaN
             NaN             NaN             NaN
             NaN             NaN             NaN
             NaN             NaN             NaN
             NaN             NaN             NaN
             NaN             NaN             NaN
             NaN             NaN             NaN
             NaN             NaN             NaN
             NaN             NaN             NaN
             NaN             NaN             NaN
             NaN             NaN             NaN
             NaN             NaN             NaN
             NaN             NaN             NaN
             NaN             NaN             NaN
             NaN             NaN             NaN
             NaN             NaN             NaN
             NaN             NaN             NaN
             NaN             NaN             NaN
             NaN             NaN             NaN
             NaN             NaN             NaN
             NaN             NaN             NaN
             NaN             NaN             NaN
             NaN             NaN             NaN
             NaN             NaN             NaN
             NaN             NaN             NaN
             NaN             NaN             NaN
             NaN             NaN             NaN
             NaN             NaN             NaN
             NaN             NaN             NaN
             NaN             NaN             NaN
