Ca V  O 
 1.0000000000000000
    11.0148601532000008    0.0000000000000000    0.0000000000000000
    -0.0001855896000000   10.4011516553999996    0.0000000000000000
     3.6723958583999998   -6.1538260171000001   14.5152821726999992
 Ca  V   O  
  11  36  90
Cartesian
  8.1636170661564300  3.7906817201590504  6.7376986607637290
  1.8355941348278166  3.5004990916219247  7.2801209527654756
  3.7207524302097958  0.7504979367982738 14.0333662044590604
  7.3306868516573820  1.2584853351015786 14.1392766618017554
 11.0158561740094463  0.5324023072048416 14.0876762083558642
  3.6821349106375494  3.7749653871910724  0.2248363728219825
  5.4869426641579757  1.0504735380913097  7.3781195826492167
  7.3261683396747861  3.2718858087779910  0.4716119551812736
  9.3171651153820996  0.6916497739162110  7.5373697874513672
 10.9311548839459860  3.4906420504850773  0.3722290818325700
 12.9225336744337600  0.0710529674495852  7.4925611093320921
  3.7207806248410122 -1.0647272608457661  4.8280054860151385
  5.4857547253436261 -3.8852182811409799 12.1024154015756444
  7.3463704585780061 -1.1323549950396183  5.0017013554772936
  9.1911444351529372 -3.9479437423760864 12.1006977676760314
 11.0130276637201714 -1.1260171387308833  4.8820913534986499
 12.8309237904218261 -4.0237877129181845 12.1128422431559439
  1.8236080759848983  8.1802377401562811  2.4693625051015435
  3.6913171251841224  5.3057702123553918  9.5757751408487088
  5.5174097395224493  8.1811105423899892  2.4292143789731320
  7.3020960140791074  5.5130077540098386  9.6886104720693513
  9.1923628374091653  8.1451284492568572  2.3737450087320928
 10.9683861912240985  5.2588604125785476  9.5632682028703613
  1.8629719184015765  6.8989699136299656  5.5502129565048177
  3.7044891849689141  4.0487969744380834 12.7569183175538079
  5.4897948254228606  6.7948610949087147  5.4829053116531830
  7.3351328779678280  4.0252849389498264 12.5323808314968890
  9.1995646079473463  6.8999029327929078  5.4450379026017464
 10.9949607918116463  4.0235849497744267 12.7780232188803122
  3.6524972950643244  0.1718381008992660  1.6125545488114368
  5.4976496229762386 -2.5399769800279226  8.9439008518653313
  7.3533121282445215  0.1340044738024158  1.8607170800109438
  9.2017388896862666 -2.6193215274575001  8.9919732599437108
 11.0301148554907105  0.2400126951902577  1.9016655039300097
 12.8418163709255193 -2.6970575891012030  9.0677747687109171
  1.7931710572581423  4.6838105222380273  3.1375796240403155
  3.6428697911727519  1.8576150863919916 10.3321244545354585
  5.5092651843822269  4.6835986252979351  3.1877379020313303
  7.3781268806607789  1.9381010298079699 10.2356231174502952
  9.1468478194591807  4.6753969889212614  3.2671534676477978
 11.0914194155371639  1.7998477175854590 10.3871330260908685
  3.6230747336386138  2.3995486344546508  4.2117454777175745
  5.5671133984704975 -0.3832647438501727 11.2930455493980588
  7.2353198261152611  2.2658776129209657  4.0812900356778181
  9.1420881695852589 -0.4497836080219915 11.3378087982277798
 10.9719901053344042  2.3835468967467044  4.2633160543821464
 12.8857756200248890 -0.5112832653062758 11.4371927920062273
  1.8633998248105699 -2.6193486559160433  7.3082422254949408
  3.6590897996275631 -6.1763164752845947 14.4725966695453216
  5.5009993443940788 -3.0947432737473841  7.2930534947316090
  7.3316062102190527 -6.7369538013160843 14.5334450512747289
  9.1706719600329123 -3.0488925190951175  7.3155802542924064
 11.0319713428821924 -5.8923043863153213 14.4779904771390964
  1.8434299064889523 -1.5246023665072259  4.5952290024544933
  3.6071568252295130 -4.4186502968033174 11.8970311996078202
  5.5954865031574039 -1.5843413983547494  4.5348423487090868
  7.3386759825850483 -4.3046804870670270 11.8472845755159177
  9.1193976906110397 -1.5726343027683058  4.6014511485048502
 11.0573916098066594 -4.4773489466863499 11.7762245785003330
  3.7295920744817184  8.6337233767404022  2.6971305004351747
  5.4750281635457148  5.8931137764274135  9.9995481247008371
  7.3596910739129022  8.5528143563751726  2.6041618912952536
  9.1191098297376598  5.8895840588918986  9.9558304130207009
 10.9595266487899892  8.6514611620615085  2.7708229118280991
 12.9034626718027319  5.6925599601008603  9.8210399766825383
  1.8131200437951751 -0.2267913863101335  1.9497461275321153
  3.6599624575969192 -3.1297486307726370  9.2214765346995158
  5.5406591683396078 -0.2721210529272688  1.9260503199388428
  7.3143356374051756 -2.8965516124592008  9.2750368403510990
  9.1689334742040192 -0.3066733077505154  1.9171789751664112
 11.0487464481565372 -3.1554190076550510  9.2093827424975760
  3.7056703841026510  7.3413993624517673  5.3470858862238897
  5.4915368877840942  4.5808588206971503 12.5712529043704428
  7.3362753005788015  7.3183516669416022  5.3804555184239611
  9.1977646429921798  4.5151590869832869 12.5647747401660901
 11.0217362679424955  7.3285627595079976  5.3741162024340303
 12.8459764284267202  4.3960669826760164 12.5046826092345409
  3.8518207325281755 -0.2945484396906565  6.3541429340171174
  5.4640466981772038 -3.1229983218501247 13.6434671045233440
  7.3683348476073984 -0.4053509357576663  6.5213160212380901
  9.1972134063326951 -3.2132327223587205 13.6568803908535674
 10.9601114858976771 -0.3940766349668812  6.4366417487578387
 12.8050249055817016 -3.4513150520081868 13.7171159278813519
  1.7609654519514464  7.4633090607189816  0.8990621661070105
  3.7253471453818476  4.6478970528584513  8.0649909756235623
  5.5804313812926027  7.4614015968650822  0.8740040930928408
  7.2065638392985685  5.1050777724798388  8.0877661159025518
  9.2056631175373518  7.4730236623120208  0.7990423771260151
 10.8412173225667079  4.4882140875440504  8.0693808682231492
  1.8346174362365455  2.7739568976230617  3.8000878105673546
  3.7600311323884159 -0.0174803420088804 11.1242851282178599
  5.3714407809727316  2.7323252008616588  3.6867918190102587
  7.3605118465347026 -0.0781626120327112 10.7664922603904092
  9.1551229860826897  2.7619841471477198  4.0905960614863028
 10.9692961817961976 -0.0447829133475687 11.3112158788605814
  3.6178031337524890  4.3061745911362275  3.4715483870317163
  5.5354637689305246  1.4692511087133135 10.3424157531492487
  7.2738527442834364  4.2688502780446056  3.6138509770078193
  9.2436912366227677  1.4302574227047720 10.5333312564088857
 11.0325276510781052  4.2968814503538768  3.5939226409701006
 12.8288252174322857  1.4758631486810778 10.9375963705832682
  3.6390095817589501  0.6781581633887642  3.7545152240226378
  5.4818316631124882 -2.1442208776559979 11.0558896260522737
  7.3628624915358740  0.3557122683725702  3.9199993518916494
  9.2106093392632449 -2.2101104204577013 11.1315789213811200
 11.0034226432623790  0.5998314724157549  3.9376181132872459
 12.8392638260825915 -2.4843879158857911 11.2345942409281783
  1.8266157565911609  6.4235370667902405  3.5326722701188507
  3.7102804095659057  3.7672704143441442 10.5540886824494216
  5.4930319676184958  6.5022705734713409  3.4212164837041086
  7.3561308417110496  3.8294763248640322 10.4037965210872443
  9.1803053923811806  6.5390753549783840  3.3979642327660735
 11.0043546576099125  3.5651804530394839 10.6513025837933029
  1.7473952951706577  4.6098960390987136  1.4329026948477712
  3.3602087801849385  1.7012741816416082  8.6173641498422597
  5.5766227474970602  4.5901338838885755  1.4642291635764846
  7.5428172627588124  1.9500274743885688  8.4570460355783599
  9.1093655479691495  4.4860132621154332  1.5380349083442402
 11.2875805800273366  1.6006120202548051  8.6900093815380650
  3.5999165723010709  2.4360201884718715  5.8888486247481966
  5.7141844025992121 -0.2158251062653692 12.9972054331802624
  6.9610716280453353  2.1895322336827157  5.7903911325069100
  8.9271875011184942 -0.2944533988914867 13.0412077184004769
 11.0931057234715951  2.4199203177276769  5.9544601616080861
 12.9637950312343460 -0.5288718324883976 13.2014833027253200
  3.6565456836838619  1.8287501359753797  1.3320277707455206
  5.3891545482146359 -0.8693676013530621  8.8128634732837643
  7.3942644801974442  1.8876165663531557  2.0824993760825561
  9.3475224484828612 -0.9162483449660390  9.0312696322388017
 10.9392667986934295  1.9498494999943654  1.8880581258958211
 12.8378783766178390 -0.9703450987768637  9.3834840093375700
  1.8456515846201194  5.2470186876059648  5.8559765791653495
  3.8390188697063845  2.3446666033300461 12.5626765351335088
  5.5536096618397766  5.1316531775219749  5.5113291110143763
  7.3236735597514366  2.2614771149526365 12.2281940884799543
  9.1868058306047065  5.1821530821788109  5.4399995128725864
 10.9158913908722788  2.3367229861037933 12.8665840658898976
