Ca Mn C  S  O 
1.0
       13.9523935318         0.0000000000         0.0000000000
        0.0000000000        10.6783819199         0.0000000000
       -0.0000156649         0.3234543390         9.0435472218
   Ca   Mn    C    S    O
    7    8    8    8   56
Direct
     0.501423180         0.619460821         0.214940965
     0.251425326         0.380546212         0.785056412
     0.251425326         0.880546212         0.785056412
     0.751425326         0.380546212         0.785056412
     0.751425326         0.880546212         0.785056412
     0.001423180         0.119460791         0.214940965
     0.001423180         0.619460821         0.214940965
     0.111746825         0.107824340         0.639130592
     0.111746825         0.607824326         0.639130592
     0.611746848         0.107824340         0.639130592
     0.611746848         0.607824326         0.639130592
     0.361750126         0.392177075         0.360873282
     0.361750126         0.892177105         0.360873282
     0.861750126         0.392177075         0.360873282
     0.861750126         0.892177105         0.360873282
     0.133078396         0.127131343         0.917271852
     0.133078396         0.627131343         0.917271852
     0.633078396         0.127131343         0.917271852
     0.633078396         0.627131343         0.917271852
     0.383043945         0.372839332         0.082745664
     0.383043945         0.872839332         0.082745664
     0.883043945         0.372839332         0.082745664
     0.883043945         0.872839332         0.082745664
     0.372522354         0.138446733         0.581393301
     0.372522354         0.638446748         0.581393301
     0.872522354         0.138446733         0.581393301
     0.872522354         0.638446748         0.581393301
     0.122504666         0.361524731         0.418593109
     0.122504666         0.861524701         0.418593109
     0.622504652         0.361524731         0.418593109
     0.622504652         0.861524701         0.418593109
     0.368857265         0.356273711         0.947106004
     0.368857265         0.856273711         0.947106004
     0.868857265         0.356273711         0.947106004
     0.868857265         0.856273711         0.947106004
     0.133976087         0.016363692         0.859884679
     0.133976087         0.516363680         0.859884679
     0.633976102         0.016363692         0.859884679
     0.633976102         0.516363680         0.859884679
     0.145104617         0.222006634         0.821305692
     0.145104617         0.722006619         0.821305692
     0.645104647         0.222006634         0.821305692
     0.645104647         0.722006619         0.821305692
     0.458411455         0.115848996         0.672629714
     0.458411455         0.615849018         0.672629714
     0.958411455         0.115848996         0.672629714
     0.958411455         0.615849018         0.672629714
     0.288051635         0.076638713         0.652606845
     0.288051635         0.576638699         0.652606845
     0.788051605         0.076638713         0.652606845
     0.788051605         0.576638699         0.652606845
     0.135761783         0.412505239         0.569666386
     0.135761783         0.912505269         0.569666386
     0.635761797         0.412505239         0.569666386
     0.635761797         0.912505269         0.569666386
     0.352157414         0.277559966         0.564280987
     0.352157414         0.777559996         0.564280987
     0.852157414         0.277559966         0.564280987
     0.852157414         0.777559996         0.564280987
     0.102165185         0.222510472         0.435701191
     0.102165185         0.722510457         0.435701191
     0.602165163         0.222510472         0.435701191
     0.602165163         0.722510457         0.435701191
     0.385764807         0.087486848         0.430297643
     0.385764807         0.587486863         0.430297643
     0.885764837         0.087486848         0.430297643
     0.885764837         0.587486863         0.430297643
     0.038094290         0.423327655         0.347430468
     0.038094290         0.923327684         0.347430468
     0.538094282         0.423327655         0.347430468
     0.538094282         0.923327684         0.347430468
     0.208377898         0.384145647         0.327398330
     0.208377898         0.884145617         0.327398330
     0.708377898         0.384145647         0.327398330
     0.708377898         0.884145617         0.327398330
     0.395115763         0.277985573         0.178670138
     0.395115763         0.777985573         0.178670138
     0.895115733         0.277985573         0.178670138
     0.895115733         0.777985573         0.178670138
     0.383983999         0.483668387         0.140093505
     0.383983999         0.983668387         0.140093505
     0.883983970         0.483668387         0.140093505
     0.883983970         0.983668387         0.140093505
     0.118835881         0.143728018         0.052923393
     0.118835881         0.643728018         0.052923393
     0.618835866         0.143728018         0.052923393
     0.618835866         0.643728018         0.052923393
