Ca V  Cr P  O 
 1.0000000000000000
     9.8034191132000004    0.0000000000000000    0.0000000000000000
     0.0310846032000000    8.1394794092999998    0.0000000000000000
    -2.1279917691999999   -0.0524358375000000    6.8508461865000001
 Ca  V   Cr  P   O  
   1   2   2   8  28
Selective dynamics
Cartesian
  3.6041593232392355  7.7453305775704893  5.2267958916169990   T   T   T
 -0.4973228549957701  4.0659396012908289  4.9890218705146108   T   T   T
  4.4403879097078853  4.0139961238657049  4.9622319818652745   T   T   T
  3.2201279593666228  0.0139774324303018  1.7888886151510153   T   T   T
  8.1575467582214447  0.0040754687765620  1.8202520022058268   T   T   T
  0.8217824952605745  1.5235379726188505  3.3851935442462917   T   T   T
  5.7221961054764074  1.5089900613736908  3.4287156931620566   T   T   T
  0.9300707646093210  6.2374331118459603  0.7130135266144598   T   T   T
  5.8178905016117017  6.1811624336736584  0.7771188075754907   T   T   T
  1.8469035916006964  2.1235659600834769  6.0872248689270512   T   T   T
  6.7606473647888574  2.1278915754974110  6.0929345760929969   T   T   T
  1.9372619381680676  5.5275796381449993  3.3651936892046148   T   T   T
  6.8431243148767313  5.5962054714015048  3.3893563932269233   T   T   T
 -1.6589148793662878  2.5752078276520578  5.6566630859616156   T   T   T
  3.2874302313671162  2.5134265623838616  5.6762414460778094   T   T   T
 -1.1359935915778394  5.2751724482522082  6.3181538836528315   T   T   T
  3.6671621216515797  5.3966353395273003  6.2602242458584039   T   T   T
 -0.2464554766295937  0.4947688670318097  3.1064291532167427   T   T   T
  4.5826448866777332  0.4788424802077967  3.2389979643256228   T   T   T
  0.2660925106603000  2.9495668868708358  3.6033935576755574   T   T   T
  5.1688928655628228  2.9411799597594852  3.5239653804562647   T   T   T
  0.7515681118621601  5.4794190572216488  4.3286045032683989   T   T   T
  5.5824192931143415  5.5385667419233435  4.2872730583655194   T   T   T
  0.8927231508726892  3.2994082462692713  6.2003970326040623   T   T   T
  5.7786771741778962  3.3606452016856814  6.1101288533942828   T   T   T
  1.3942939522212696  1.1031817421823737  4.8829503809897705   T   T   T
  6.1568137033992540  1.1199068402089789  4.9583492875074517   T   T   T
  1.4829347238283892  5.2098795881954851  1.8756694602124222   T   T   T
  6.3850664436288103  5.1678520366639047  1.8635100419196924   T   T   T
  1.8843323862370556  7.4187141659900036  0.5886517208384516   T   T   T
  6.7463947778934283  7.4104044163119331  0.5550473865181058   T   T   T
  2.0272685400185231  1.4969326154080800  2.4570679438148786   T   T   T
  6.8817343789528804  1.4283514076430708  2.4775092482348344   T   T   T
  2.5409094695778833  6.9621279493619213  3.3424758599819859   T   T   T
  7.3895996965953241  7.0015976596837710  3.2717073772921452   T   T   T
  3.0208248786419136  4.5084966548876224  3.7389724029552025   T   T   T
  7.8762792603189764  4.5366689528946518  3.7581211745848684   T   T   T
  4.0632831892497911  1.2103540862601114  0.4088891998181690   T   T   T
  8.8555211775867875  1.3704452944676877  0.5029937664169243   T   T   T
  4.4143699241641086  6.6248580968947515  1.1373603052716872   T   T   T
  9.3169174479821120  6.6201821040665587  1.0709246392055394   T   T   T
