Mn V  P  O 
 1.0000000000000000
     7.1519990000000000    0.0000000000000000    0.0000000000000000
     0.1925170000000000    8.1609929999999995    0.0000000000000000
     1.8729079999999989    0.3478730000000000   13.5303970000000007
 Mn  V   P   O  
   3   3  12  42
Cartesian
  4.3258637302897833  0.0924440878471675  2.3261066115085138
  2.5612329512752354  0.2098576437500178  6.8323304997999541
  8.1445937627325957  8.4864785175598314 11.3464031411868902
  1.2188691867455921  4.1737093660015212  2.2158428776642420
  6.6136254953748530  4.2890797787176442  6.7270278230938816
  4.8476247284777862  4.4038890205198005 11.2375021646153144
  6.3474931852642476  6.3312808047665170  0.5955614052658705
  3.5494604076500691  5.6439387514339154  0.5047193012704477
  6.3660952085986224  2.3740906040331513  3.9698408543139911
  2.0030062354977360  1.5843491902463394  3.9788585077098868
  4.5863197331438572  6.4445859298427628  5.1050187844835513
  1.7883374166250523  5.7598035912132870  5.0123135546466537
  7.3976303059330437  1.7013954397248985  8.4908899044707251
  4.6086734380480312  2.4897514774160103  8.4815534867850531
  7.1784347505358834  5.8745898048450043  9.5286844234169497
  2.8256704368413619  6.5634858869394685  9.6173955456534461
  5.6355516604797744  1.8203686726626302 13.0052863486921488
  2.8444513705230250  2.6054516439013762 12.9902609120525021
  5.1062137567497103  5.2929271670500810  0.6866255981713862
  6.1215248611526194  7.5440796792066802  1.4945221411344702
  4.1806323463967994  1.5195276816874401  0.9287446689767660
  3.2888801231455771  7.0416968486055440  0.9540396657146398
  2.8508294693563330  4.5437640780922885  1.3404521773090809
  6.7841811004683947  3.5752550135707613  3.0441384796047513
  0.9068541700692109  2.7936534483048105  0.9060435633094495
  7.5659133272313968  1.3099653866495624  3.8838278968886235
  0.3486398911646542  5.4473262105437437  1.1279283218121630
  5.1292320126847830  1.6705266057367001  3.5449275591383214
  4.8221269487698715  6.7814864419763934  3.6478384435698112
  2.6072894321999307  0.5062428318864406  3.1014880459299028
  2.1748449936192036  3.0027222789452876  3.3321813528830013
  1.4516784868834343  5.5257033559023458  3.5126064912885169
  6.3069126155346771  2.9076171897901291  5.4178608633784595
  5.7379632998827965  5.5644025422203045  5.6463749642007883
  3.3440452692218434  5.4072212098171075  5.1976255628072643
  4.3564905900534390  7.6626081255678731  5.9957757811434682
  2.4137182589200705  1.6372102414685483  5.4344442024942463
  8.0002611640883057  0.6203802104132695  7.6154233099478903
  7.5723899759963524  3.1182252328682867  7.8447014527007433
  1.5256189615707656  7.1567613169022497  5.4623959082468438
  1.0904304196086581  4.6585328190825930  5.8474953785321659
  6.8476217231178031  5.6390439069694507  8.0266758870998149
  5.0282975737144469  3.6935621440955182  7.5599351280740841
  5.8085224844779573  1.4268256233318020  8.3939797750651088
  3.3733850289813647  1.7878169977351839  8.0501388900812589
  7.8074304668804526  1.7508925115406710  9.9467141890512014
  3.0586233332252863  6.9025073733198283  8.1604259615745711
  6.9125467624857473  7.2723228895676559  9.9774567009461155
  6.4819159458103446  4.7718938164054654 10.3630720995709726
  4.5464540176560826  3.0194297786383992  9.9314121396659978
  3.9799859610588708  5.6803977381021999 10.1528059520920522
  8.7622682235886291  1.9006820907231119 12.5608054755912484
  1.5835810984253111  5.5248598501666466  9.7169607361323234
  8.4552350126672042  7.0213614881455939 12.6699271325506899
  2.5983166035706269  7.7799621740135638 10.5114294696109472
  6.2350017954969275  0.7399367077811356 12.1263149535688175
  5.8059697970719792  3.2380696753488079 12.3609650162106135
  5.0844993579678315  5.7549526687871415 12.5356249598979144
  3.2609764444360261  3.8065312021147788 12.0631871391332410
  4.0469837151137380  1.5433842536742461 12.9138576551720323
