Ca V  Cr P  O 
1.0
        9.8332920074         0.0000000000         0.0000000000
       -4.7440345075         8.6518467974         0.0000000000
       -1.1622775810        -2.0976494256         6.9309968664
   Ca    V   Cr    P    O
    3    2    2    8   28
Direct
     0.675194740         0.084713839         0.261233181
     0.167794645         0.077008940         0.732898891
     0.178326473         0.583701313         0.256386906
     0.862791002         0.355103612         0.728741705
     0.891291738         0.886085987         0.267857701
     0.397261411         0.384202689         0.260960490
     0.362481624         0.854426324         0.730894208
     0.097726680         0.292365402         0.493042082
     0.752676189         0.020904057         0.888439715
     0.256809950         0.537324548         0.887748539
     0.460138232         0.144338280         0.510824740
     0.593200505         0.783533812         0.498311371
     0.727587581         0.489971936         0.113245137
     0.229094759         0.994329154         0.104703546
     0.965894759         0.658807635         0.506182015
     0.072645307         0.124212377         0.462289423
     0.351986587         0.027731014         0.612344027
     0.592373669         0.014243394         0.902457833
     0.103525959         0.534842968         0.914113224
     0.203379661         0.370302647         0.723195255
     0.392744094         0.051620502         0.275608450
     0.234205514         0.148931772         0.077473551
     0.200615779         0.391956717         0.375949860
     0.457076430         0.299179435         0.552340090
     0.138244376         0.687979639         0.545652390
     0.627335250         0.167970940         0.543000340
     0.869182169         0.161107093         0.828341544
     0.370214999         0.677836299         0.819896758
     0.254372150         0.920312464         0.919576406
     0.744774938         0.412222683         0.926999688
     0.339493930         0.528367341         0.074318424
     0.822073400         0.004630504         0.078253604
     0.084782913         0.878835559         0.159313425
     0.594945788         0.374305755         0.186708778
     0.563202262         0.612953365         0.460527331
     0.437272489         0.788258374         0.488909185
     0.940272272         0.292560279         0.474419743
     0.861725390         0.554306686         0.617662489
     0.698038161         0.852885246         0.726302445
     0.900909722         0.556649864         0.277054995
     0.720018148         0.638006032         0.086126097
     0.692851245         0.886893213         0.382984936
     0.964618325         0.814844608         0.524304032
