Ca Cr P  O 
 1.0000000000000000
     8.7485284804999992    0.0000000000000000    0.0000000000000000
     0.0000065873000000    9.8939285278000000    0.0000000000000000
    -0.0000058994000000    2.4026902022000001    6.9821501365999996
 Ca  Cr  P   O  
   3   4   8  28
Selective dynamics
Cartesian
  3.1049420322904973  3.6733538814613045  5.2129822158275134   T   T   T
  7.4988895719050870  4.3868453604104314  1.6008828455088076   T   T   T
  7.4324864723125961  9.1138031238861981  1.6528750737060782   T   T   T
  6.6097645590866776  2.8939307530610425  5.3718058433354487   T   T   T
  6.5067126622783267  7.9221535292798393  5.3723075482607943   T   T   T
  2.3342730260593254  4.5399031777817518  1.5844956709281484   T   T   T
  2.2925386628185471  9.3474670445637038  1.5827022856384390   T   T   T
  0.4728052329328158  1.8429233616603851 -0.0037860402230413   T   T   T
  0.5018023792842873  6.7967135669399052 -0.0784957191923847   T   T   T
  4.9163682523961354  5.4812551820755342  7.0458929721663921   T   T   T
  4.9075660230455931 10.4001759683778179  6.9821636360858657   T   T   T
  8.4713187152469516  5.3181424886596158  4.2697264671860653   T   T   T
  8.5159928813335348 10.2160683124770593  4.2244618936645297   T   T   T
  4.2287727391683427  2.1376507795416688  2.7862351319387053   T   T   T
  4.2690020969022031  7.0929780494614292  2.8195558765920614   T   T   T
  0.7376625125994802  4.7077389861384171  5.4124943558760830   T   T   T
  0.7474135373147823  9.6350426872470987  5.3608959772211762   T   T   T
  5.2738330151589636  2.7488921612494144  1.6388176492639326   T   T   T
  5.2769428982252400  7.6157806957429290  1.5657223919343155   T   T   T
  0.4738054849691129  3.0770196044051952  0.8808188101433502   T   T   T
  0.5054473531668747  8.0605109805804105  0.7984007909301120   T   T   T
  5.1212368250328231  4.2166730091901972  6.1676124389440323   T   T   T
  5.1009228830888178  9.1604612030474133  6.1268567326212668   T   T   T
  3.0095106289514137  3.0871438554340682  2.9303362832331059   T   T   T
  3.0472623901091582  8.0027026600030453  2.8321087420606497   T   T   T
  7.2772557788463290  4.3165278951385684  4.1059450124857495   T   T   T
  7.2702545704937727  9.2705317204893412  4.0880317436665061   T   T   T
  5.0193289299613157  2.2993608769056060  4.1103698815789560   T   T   T
  5.2082798870355873  7.2286042584688577  4.0190915597593566   T   T   T
  0.5228423382247493  5.2506377060798268  2.9756390458684638   T   T   T
  0.5068085470334374 10.1071162614401526  2.8894285593939575   T   T   T
  3.9057733005993147  5.6391916690474968  2.5460989684891411   T   T   T
  3.8752454345991096 10.6469140104132549  2.3342597929039868   T   T   T
  8.0913147343781890  1.7373797283907884  4.6143241159513062   T   T   T
  8.0176783677275445  6.6869739288970971  4.7245627417581719   T   T   T
  3.4731098424715059  5.9080174728802035  6.9541632844086427   T   T   T
  3.5398792979708307 11.0594758941371030  6.9288932321943095   T   T   T
  7.8506851618274007  1.1192272370785077 -0.0042877878145862   T   T   T
  7.8218361362880042  6.1352759218605195 -0.0591676212616707   T   T   T
  6.0124902821573167  6.5340866930904653  6.7867311006612621   T   T   T
  6.0624377573346626 11.4398163440167480  6.7511191229920451   T   T   T
  1.6790532389779531  0.9114978749227697  0.1589801615115962   T   T   T
  1.6065251379181051  5.8301707448030493  0.2406091712333253   T   T   T
