Ca Mn P  O 
1.0
       13.1222343445         0.0000000000         0.0000000000
        0.0000646428        10.7879810331         0.0000000000
       -0.0000336792         0.3670758670        18.0624611397
   Ca   Mn    P    O
   15   16   32  112
Direct
     0.294400811         0.343562603         0.234532192
     0.205578640         0.156471238         0.765470266
     0.205578640         0.656471252         0.765470266
     0.705578625         0.156471238         0.765470266
     0.705578625         0.656471252         0.765470266
     0.044432443         0.156455100         0.265470028
     0.544432461         0.156455100         0.265470028
     0.544432461         0.656455100         0.265470028
     0.455514312         0.343523622         0.734518111
     0.455514312         0.843523622         0.734518111
     0.955514312         0.343523622         0.734518111
     0.955514312         0.843523622         0.734518111
     0.294400811         0.843562603         0.234532192
     0.794400811         0.343562603         0.234532192
     0.794400811         0.843562603         0.234532192
     0.039421327         0.125069380         0.608253181
     0.039421327         0.625069380         0.608253181
     0.539421320         0.125069380         0.608253181
     0.539421320         0.625069380         0.608253181
     0.210577011         0.125102565         0.108290590
     0.210577011         0.625102580         0.108290590
     0.710577011         0.125102565         0.108290590
     0.710577011         0.625102580         0.108290590
     0.289432257         0.374901772         0.891711593
     0.289432257         0.874901772         0.891711593
     0.789432287         0.374901772         0.891711593
     0.789432287         0.874901772         0.891711593
     0.460584730         0.374931931         0.391717643
     0.460584730         0.874931931         0.391717643
     0.960584760         0.374931931         0.391717643
     0.960584760         0.874931931         0.391717643
     0.137375489         0.130988359         0.921033680
     0.137375489         0.630988359         0.921033680
     0.637375474         0.130988359         0.921033680
     0.637375474         0.630988359         0.921033680
     0.112644956         0.131087556         0.421058893
     0.112644956         0.631087542         0.421058893
     0.612644970         0.131087556         0.421058893
     0.612644970         0.631087542         0.421058893
     0.451731235         0.109861262         0.836987257
     0.451731235         0.609861255         0.836987257
     0.951731205         0.109861262         0.836987257
     0.951731205         0.609861255         0.836987257
     0.298223019         0.109838597         0.336953998
     0.298223019         0.609838605         0.336953998
     0.798223019         0.109838597         0.336953998
     0.798223019         0.609838605         0.336953998
     0.201794878         0.390207380         0.663024426
     0.201794878         0.890207410         0.663024426
     0.701794863         0.390207380         0.663024426
     0.701794863         0.890207410         0.663024426
     0.048236668         0.390183270         0.163025230
     0.048236668         0.890183270         0.163025230
     0.548236668         0.390183270         0.163025230
     0.548236668         0.890183270         0.163025230
     0.387417585         0.368933350         0.578992069
     0.387417585         0.868933320         0.578992069
     0.887417555         0.368933350         0.578992069
     0.887417555         0.868933320         0.578992069
     0.362629920         0.368957609         0.078991733
     0.362629920         0.868957639         0.078991733
     0.862629890         0.368957609         0.078991733
     0.862629890         0.868957639         0.078991733
     0.412441969         0.244799927         0.619232357
     0.412441969         0.744799912         0.619232357
     0.912441969         0.244799927         0.619232357
     0.912441969         0.744799912         0.619232357
     0.337479442         0.244764566         0.119187146
     0.337479442         0.744764566         0.119187146
     0.837479472         0.244764566         0.119187146
     0.837479472         0.744764566         0.119187146
     0.366686970         0.208417520         0.836389899
     0.366686970         0.708417535         0.836389899
     0.866686940         0.208417520         0.836389899
     0.866686940         0.708417535         0.836389899
     0.383426160         0.208233774         0.336327285
     0.383426160         0.708233774         0.336327285
     0.883426189         0.208233774         0.336327285
     0.883426189         0.708233774         0.336327285
     0.024110852         0.142398953         0.772226155
     0.024110852         0.642398953         0.772226155
     0.524110854         0.142398953         0.772226155
     0.524110854         0.642398953         0.772226155
     0.225878969         0.142313555         0.272144765
     0.225878969         0.642313540         0.272144765
     0.725878954         0.142313555         0.272144765
     0.725878954         0.642313540         0.272144765
     0.013046036         0.117465727         0.913784921
     0.013046036         0.617465734         0.913784921
     0.513046026         0.117465727         0.913784921
     0.513046026         0.617465734         0.913784921
     0.236923367         0.117463492         0.413802922
     0.236923367         0.617463470         0.413802922
     0.736923337         0.117463492         0.413802922
     0.736923337         0.617463470         0.413802922
     0.090934955         0.124515869         0.502476215
     0.090934955         0.624515891         0.502476215
     0.590934932         0.124515869         0.502476215
     0.590934932         0.624515891         0.502476215
     0.159070909         0.124641120         0.002468041
     0.159070909         0.624641120         0.002468041
     0.659070909         0.124641120         0.002468041
     0.659070909         0.624641120         0.002468041
     0.185264304         0.026885215         0.874828756
     0.185264304         0.526885211         0.874828756
     0.685264289         0.026885215         0.874828756
     0.685264289         0.526885211         0.874828756
     0.064681284         0.027072623         0.374770641
     0.064681284         0.527072608         0.374770641
     0.564681292         0.027072623         0.374770641
     0.564681292         0.527072608         0.374770641
     0.160094604         0.022646382         0.668350339
     0.160094604         0.522646368         0.668350339
     0.660094619         0.022646382         0.668350339
     0.660094619         0.522646368         0.668350339
     0.089860961         0.022690892         0.168221459
     0.089860961         0.522690892         0.168221459
     0.589860976         0.022690892         0.168221459
     0.589860976         0.522690892         0.168221459
     0.410105348         0.477368385         0.831651092
     0.410105348         0.977368355         0.831651092
     0.910105348         0.477368385         0.831651092
     0.910105348         0.977368355         0.831651092
     0.339860946         0.477331012         0.331757814
     0.339860946         0.977331042         0.331757814
     0.839860916         0.477331012         0.331757814
     0.839860916         0.977331042         0.331757814
     0.435311586         0.473050088         0.625164866
     0.435311586         0.973050117         0.625164866
     0.935311556         0.473050088         0.625164866
     0.935311556         0.973050117         0.625164866
     0.314702213         0.473098278         0.125180170
     0.314702213         0.973098278         0.125180170
     0.814702213         0.473098278         0.125180170
     0.814702213         0.973098278         0.125180170
     0.340951562         0.375409842         0.997538209
     0.340951562         0.875409842         0.997538209
     0.840951562         0.375409842         0.997538209
     0.840951562         0.875409842         0.997538209
     0.409033835         0.375283688         0.497519135
     0.409033835         0.875283718         0.497519135
     0.909033835         0.375283688         0.497519135
     0.909033835         0.875283718         0.497519135
     0.263045698         0.382568479         0.586186171
     0.263045698         0.882568479         0.586186171
     0.763045669         0.382568479         0.586186171
     0.763045669         0.882568479         0.586186171
     0.487033159         0.382471263         0.086202279
     0.487033159         0.882471263         0.086202279
     0.987033129         0.382471263         0.086202279
     0.987033129         0.882471263         0.086202279
     0.274097055         0.357557386         0.727818727
     0.274097055         0.857557416         0.727818727
     0.774097085         0.357557386         0.727818727
     0.774097085         0.857557416         0.727818727
     0.475887418         0.357669234         0.227823198
     0.475887418         0.857669234         0.227823198
     0.975887418         0.357669234         0.227823198
     0.975887418         0.857669234         0.227823198
     0.116665632         0.291773647         0.663646162
     0.116665632         0.791773677         0.663646162
     0.616665602         0.291773647         0.663646162
     0.616665602         0.791773677         0.663646162
     0.133369416         0.291665822         0.163658157
     0.133369416         0.791665792         0.163658157
     0.633369446         0.291665822         0.163658157
     0.633369446         0.791665792         0.163658157
     0.162489787         0.255095124         0.880780935
     0.162489787         0.755095124         0.880780935
     0.662489772         0.255095124         0.880780935
     0.662489772         0.755095124         0.880780935
     0.087550186         0.255272657         0.380831301
     0.087550186         0.755272627         0.380831301
     0.587550163         0.255272657         0.380831301
     0.587550163         0.755272627         0.380831301
