Ca Sc Mn O 
 1.0000000000000000
    11.5374555587999996    0.0000000000000000    0.0000000000000000
    -8.6585401879999999    7.6251270536000000    0.0000000000000000
     0.0000000000000000    0.0000000000000000   10.1281061171999998
 Ca  Sc  Mn  O  
   7   8  16  40
Selective dynamics
Cartesian
  0.9630865289544082  1.7878564303862809  6.8429447718463106   T   T   T
 -3.6824481581054336  5.7411606865894047  2.5294862475653783   T   T   T
  6.4103583703512275  1.9403429386257445  2.5308416052296008   T   T   T
  2.0023354596714369  5.7903494803666700  2.5523553496372511   T   T   T
 -3.4740212311507297  5.6698988935967254  7.5850872905308240   T   T   T
  6.6126268349015014  1.8557191899025172  7.5819393961887256   T   T   T
  2.3057150832913371  5.6675493347270933  7.5129099092596432   T   T   T
  3.5210358137988180  0.8546438516082492  2.5501022064649521   T   T   T
 -0.6973863480943837  4.4863737912120092  2.4993606667881587   T   T   T
  9.4823824180345095  0.9152226169809471  2.4977567731310684   T   T   T
  5.0030378157134532  4.6410885350176105  2.5109668461955579   T   T   T
 -2.1177424960012909  2.9783632125427699  7.6071314390939486   T   T   T
 -6.4456682881640743  6.8063691071563115  7.6451469036842914   T   T   T
  3.6250090894568565  2.9623849399069369  7.6507957514425922   T   T   T
 -0.7103925009253154  6.8016629134444884  7.6349261203838985   T   T   T
  4.3357602301909113  0.5384063304682420  5.6065849309083600   T   T   T
 -0.1202720468671151  4.4610095536094976  5.5804897631185844   T   T   T
  9.9120921826129358  0.5577676155521434  5.5748793522782005   T   T   T
  5.7772082252934638  4.3490392627536538  5.6955774127976158   T   T   T
  4.3797932396032522  0.5245389711253562  9.6846378244535316   T   T   T
  0.1058828285816992  4.3043335745860265  9.5158828912468874   T   T   T
 10.2062213862898137  0.5181547870412622  9.5141163395817632   T   T   T
  5.7635364937403990  4.3575813448510328  9.5249598490851284   T   T   T
 -2.9380715540524913  3.2883663518144495  0.5175407715458405   T   T   T
 -7.3608332111018946  7.1929370160517676  0.5990546630082988   T   T   T
  2.7149158475449466  3.2815942807097414  0.6190043135997373   T   T   T
 -1.4006230809002933  7.0632765972856175  0.6682059256581890   T   T   T
 -2.9989171860441997  3.3126649054541160  4.5026749745324830   T   T   T
 -7.2257556107701975  7.0775577054713672  4.4102817864697101   T   T   T
  2.7794992301785753  3.3133427426919488  4.4234004590429459   T   T   T
 -1.4955870288418529  7.0969209839117831  4.4448040640929287   T   T   T
  5.2103701465932053  0.2063614117226531  1.3691060975425324   T   T   T
  0.8693917619526826  4.1650603657311187  1.2379715660850130   T   T   T
 10.8756717467619239  0.1225363271047037  1.2355461080952528   T   T   T
  6.5597662162506012  4.0623600511953590  1.2166197353119768   T   T   T
  5.1583778892552843  0.2324967562622567  3.8298666980489622   T   T   T
  0.7956951826477758  4.1854656185543213  3.8988506889046928   T   T   T
 10.7777922318214348  0.1670190637726259  3.9167916987491411   T   T   T
  6.5525905786069112  4.0597827405421176  3.8555307488064670   T   T   T
  2.4991009017821555  1.1559706077902197  4.4554197465098948   T   T   T
 -1.9210632164969579  5.1415703362626406  4.2146442719951063   T   T   T
  8.1239799428127011  1.2295997057516725  4.2132380485129204   T   T   T
  3.7798203986153833  5.1738900629791926  4.1654107395220690   T   T   T
  2.6405643320065031  1.1807900678637051  0.6743629571792643   T   T   T
 -1.9413149506665333  5.1775413766057259  0.8590349473752324   T   T   T
  8.0907806540991238  1.2145076429180486  0.8594675457514641   T   T   T
  3.7924646653161718  5.1073602276070256  0.8946929450304683   T   T   T
 -2.1591699088002483  2.9971925000319688  2.5179017266414809   T   T   T
 -6.1990151887689322  6.7131632546539599  2.6504124600706289   T   T   T
  3.8941670011872214  2.8709910128618930  2.6118211207900144   T   T   T
 -0.4732337185460945  6.7130414095187891  2.4703313190893175   T   T   T
 -3.7270506320466681  3.5823295229723611  6.3271819813959489   T   T   T
 -7.9550360346676721  7.2667167436261648  6.1836894327314091   T   T   T
  2.1220224949757402  3.6271273539550273  6.2595802288143911   T   T   T
 -2.2634339654778217  7.3893895402116039  6.3063974973464187   T   T   T
 -0.9774321668053261  2.5223532367242436  5.8289774005250692   T   T   T
 -5.1848548537355414  6.2197215441239670  5.9858886566169103   T   T   T
  4.9508756096991799  2.5740435969479090  5.9802656574389417   T   T   T
  0.5275706703448769  6.3563676999960874  5.9432433201337904   T   T   T
  3.3021583780914567  0.9297782692574396  7.4631227906870965   T   T   T
 -1.0733128073333142  4.7558702651104241  7.4546964672198825   T   T   T
  9.0251594503778776  0.9536051295027616  7.4435288217865843   T   T   T
  4.7297787937790092  4.7440623081249242  7.6090187472630637   T   T   T
 -3.7284107140605895  3.5836616918430320  8.8451656604631417   T   T   T
 -8.0586606015831617  7.3952626734674407  8.8028445899158712   T   T   T
  2.0629656584047402  3.5989040012209146  8.8547788292557197   T   T   T
 -2.2004032940502993  7.3655760391323852  8.9913154561758830   T   T   T
 -1.0587593749337922  2.5755935889219099  9.3447285439929164   T   T   T
 -5.1763415633023069  6.2551248320546371  9.2166597086880291   T   T   T
  4.9530163864293550  2.5360168402794394  9.2151385922190947   T   T   T
  0.5933905453920556  6.3152672573038071  9.1609055675123745   T   T   T
