Ca V  Fe P  O 
1.0
        9.8196163177         0.0000000000         0.0000000000
       -4.6949497476         8.6294897087         0.0000000000
        1.3453924571         2.2642233341         6.9201602311
   Ca    V   Fe    P    O
    3    2    2    8   28
Direct
     0.292335868         0.204008177         0.735871077
     0.049245484         0.453018248         0.264576435
     0.546803832         0.959832132         0.259796530
     0.757220507         0.750371218         0.269066721
     0.498121947         0.991904080         0.731379509
     0.266761720         0.253532708         0.261931986
     0.998717248         0.485805362         0.736971080
     0.349924892         0.542508245         0.493917108
     0.846857309         0.038215101         0.497586578
     0.670284152         0.434871197         0.109808199
     0.169679016         0.939896405         0.106969602
     0.311503232         0.580583692         0.892144501
     0.814020157         0.078795552         0.891422033
     0.207576126         0.902440250         0.505253077
     0.711343706         0.401320249         0.503355980
     0.183396339         0.106318764         0.080983616
     0.006886040         0.197938055         0.384520680
     0.196980715         0.050136130         0.523992121
     0.293726265         0.467503309         0.078154333
     0.501413286         0.282693446         0.175985992
     0.342693627         0.391896874         0.456350565
     0.202769011         0.553947031         0.474877805
     0.698524892         0.049345028         0.481568277
     0.549544036         0.241841003         0.616203249
     0.048265021         0.741678178         0.618163049
     0.651038408         0.072338045         0.913299680
     0.144819930         0.566471159         0.917022884
     0.337890297         0.497690976         0.724537969
     0.758858442         0.412918329         0.273220330
     0.252438486         0.914289415         0.274628371
     0.676645160         0.597815335         0.089652471
     0.510506690         0.703828096         0.381665766
     0.700116575         0.549666643         0.518037558
     0.861544669         0.409126818         0.542973340
     0.360004276         0.911268413         0.539764762
     0.965788782         0.247664452         0.826287687
     0.458492190         0.752079606         0.829841852
     0.283192784         0.956604064         0.922142029
     0.783033371         0.458363593         0.919844806
     0.791420579         0.965047359         0.080210671
     0.997730792         0.793282270         0.167940244
     0.837280452         0.886403680         0.460260659
     0.834862292         0.990241349         0.727949262
