Ca Sc Mn O 
 1.0000000000000000
    11.5374555587999996    0.0000000000000000    0.0000000000000000
    -8.6585401879999999    7.6251270536000000    0.0000000000000000
     0.0000000000000000    0.0000000000000000   10.1281061171999998
 Ca  Sc  Mn  O  
   7   8  16  40
Selective dynamics
Cartesian
  0.4880396618696167  1.9600605621411640  4.1789531010486032   T   T   T
 -3.7006646662920173  5.7520281379758185  2.5413158509834526   T   T   T
  6.3855164589406987  1.9431169754908897  2.5408726326782642   T   T   T
  2.0283752290040766  5.7756143447651711  2.6351171646933107   T   T   T
 -3.5344208037288776  5.6945405684691410  7.6056520593782615   T   T   T
  6.5486769225306913  1.8758099353254301  7.6074359945747592   T   T   T
  2.3264982511016341  5.6746692103066954  7.5314266362630535   T   T   T
  3.5576524587471896  0.8376983117423193  2.5044121303700675   T   T   T
 -0.7281448027678957  4.5548028371838472  2.4609793869520713   T   T   T
  9.3971382910935493  0.8726798260505918  2.4646391969241432   T   T   T
  5.0513977735923099  4.6244306373260713  2.4620551846360414   T   T   T
 -2.0954987090507222  2.9762662438427845  7.6028407759120293   T   T   T
 -6.5147882982974270  6.9644541787234528  7.6343737738208128   T   T   T
  3.4734824379124603  2.9017686896274903  7.6376167217395334   T   T   T
 -0.7244038962123219  6.7993944119450038  7.6581906521684999   T   T   T
  4.4541155193897950  0.4991759931292885  5.6164078117773384   T   T   T
 -0.0201547358363512  4.4474230333770075  5.6774627142216856   T   T   T
  9.9036060411215381  0.5566824940087535  5.6925411923530582   T   T   T
  5.8275367517339420  4.3317952799117192  5.7040458695543581   T   T   T
  4.3674666286640402  0.5297766784876708  9.6353227012420195   T   T   T
  0.1315327009673602  4.2745269518635816  9.4993701199371756   T   T   T
 10.2690359878434823  0.5219904794885313  9.5241093464343560   T   T   T
  5.7045110475975838  4.3809097426776873  9.4508975344668116   T   T   T
 -2.9549911056230078  3.2934875778841106  0.4463652054688553   T   T   T
 -7.3509355591673273  7.1590294358051105  0.6119223958083096   T   T   T
  2.7259780033756571  3.3049284847043228  0.6161447716079419   T   T   T
 -1.4289915353928058  7.0703048969283113  0.6434873749605423   T   T   T
 -2.9516283746723211  3.2943940687356061  4.5058530327513218   T   T   T
 -6.9410881844954915  6.9023306544952856  4.5538554020079776   T   T   T
  3.1501650874516822  3.2595199934845480  4.5648691804487163   T   T   T
 -1.4781771435635414  7.0868765164420298  4.4150460624916334   T   T   T
  5.1866958664305089  0.2172582365390419  1.3026114400301503   T   T   T
  0.8577640563548237  4.1423891144698635  1.2436175183884821   T   T   T
 10.9049829588567260  0.1482735888795380  1.3024790825440569   T   T   T
  6.5352610252209606  4.0672616197773248  1.1249016270822472   T   T   T
  5.1992171525830040  0.2122011850473554  3.7931214027314715   T   T   T
  0.7689019796353253  4.1500493214776704  3.8697914778745113   T   T   T
 10.6877410093974028  0.1959333933831587  3.9653778640288655   T   T   T
  6.5977019270955459  4.0430650472007468  3.8246371657427192   T   T   T
  2.5495091170385056  1.1633195615919116  4.3769746918004344   T   T   T
 -1.9628597187216137  5.1956830151540760  4.1858969780657365   T   T   T
  8.0342758912357670  1.2156376671627749  4.1847841297233659   T   T   T
  3.8409598481981639  5.1310820908545720  4.1815753878756476   T   T   T
  2.5829981910282607  1.2003478858718171  0.7162086133332685   T   T   T
 -2.0094284318397428  5.1894416763534883  0.8909014147514831   T   T   T
  8.0314899543710112  1.2439173297035200  0.8910986509714687   T   T   T
  3.7459878009658678  5.1268435634710920  0.9730711513975686   T   T   T
 -1.9812077064784026  2.9246527758831222  2.6565802547385453   T   T   T
 -6.0881626390925767  6.6587846690657866  2.7097893289717248   T   T   T
  3.9906817761161495  2.8444610994236275  2.6921509168854438   T   T   T
 -0.4615975144864779  6.7036362160712812  2.4894492532509127   T   T   T
 -3.7303426735455898  3.5880077663986616  6.2973431761045795   T   T   T
 -7.9152989812484602  7.2873385866552240  6.1429500190173831   T   T   T
  2.1494637047651763  3.6089276110893111  6.1879899307413986   T   T   T
 -2.2490018588932865  7.3818609903127053  6.2781772970590737   T   T   T
 -1.1338462056035794  2.5061376460713105  5.7082856448059660   T   T   T
 -5.2691872259113124  6.2552681393876357  5.9221847957273654   T   T   T
  4.8552354507939102  2.6129662119565715  5.9163042789831879   T   T   T
  0.5569661330268303  6.4028256002526645  5.9845232109947668   T   T   T
  3.5976169753000855  0.8240216951742749  7.6027305083662355   T   T   T
 -1.0864669537037377  4.7550081643325903  7.5050503759704741   T   T   T
  9.0072569020451905  0.9664772051489373  7.4552849719606229   T   T   T
  4.7630378055769382  4.7354247066985975  7.6500143535787011   T   T   T
 -3.7796910183701029  3.6005504435134852  8.7575535565729989   T   T   T
 -8.0994608152568492  7.2883830261561213  8.8583494990723128   T   T   T
  2.0848937973398050  3.7104234471416166  8.8691351775538099   T   T   T
 -2.2321863840960283  7.3804170512158098  8.9625311909227356   T   T   T
 -1.1973932984895961  2.6271172105764418  9.4491579794928047   T   T   T
 -5.2613979267320854  6.2441519189566481  9.2509452464602813   T   T   T
  4.8913202901223292  2.6086397195004007  9.2517430947906814   T   T   T
  0.5422470049175889  6.3383797022605650  9.1984830838897143   T   T   T
