Ca Mn V  P  O 
1.0
        8.4591150284         0.0000000000         0.0000000000
        0.0000000000        10.0594596863         0.0000000000
        0.0000000000         0.4502212583        27.7775711096
   Ca   Mn    V    P    O
   15    4   12   32  112
Direct
     0.408111095         0.315744668         0.815295935
     0.408201158         0.068428233         0.065649375
     0.408201158         0.568428218         0.065649375
     0.410599560         0.070457600         0.564692438
     0.410599560         0.570457578         0.564692438
     0.908111334         0.184255272         0.184703887
     0.908111334         0.684255242         0.184703887
     0.906326771         0.181773514         0.683522224
     0.906326771         0.681773543         0.683522224
     0.406327635         0.318225414         0.316476732
     0.406327635         0.818225384         0.316476732
     0.908201218         0.431571633         0.934350848
     0.908201218         0.931571603         0.934350848
     0.910592854         0.429543495         0.435305685
     0.910592854         0.929543495         0.435305685
     0.987334788         0.073065743         0.565106511
     0.987334788         0.573065758         0.565106511
     0.487345695         0.426939249         0.434893787
     0.487345695         0.926939249         0.434893787
     0.993622422         0.072923183         0.067147218
     0.993622422         0.572923183         0.067147218
     0.493445694         0.178474694         0.183069333
     0.493445694         0.678474665         0.183069333
     0.491886318         0.176134139         0.683366597
     0.491886318         0.676134109         0.683366597
     0.993446290         0.321524948         0.816930473
     0.993446290         0.821524978         0.816930473
     0.991887569         0.323865622         0.316633940
     0.991887569         0.823865652         0.316633940
     0.493622273         0.427076548         0.932852805
     0.493622273         0.927076578         0.932852805
     0.192760676         0.067906506         0.874808669
     0.192760676         0.567906499         0.874808669
     0.768233716         0.080033548         0.776485443
     0.768233716         0.580033541         0.776485443
     0.189237028         0.069752149         0.373491943
     0.189237028         0.569752157         0.373491943
     0.769439220         0.081130937         0.276195347
     0.769439220         0.581130922         0.276195347
     0.268712401         0.168981165         0.973388731
     0.268712401         0.668981194         0.973388731
     0.692606211         0.180705205         0.875333905
     0.692606211         0.680705190         0.875333905
     0.261822104         0.172293469         0.472596705
     0.261822104         0.672293484         0.472596705
     0.694338620         0.181246594         0.375313073
     0.694338620         0.681246579         0.375313073
     0.192612395         0.319298267         0.124665976
     0.192612395         0.819298267         0.124665976
     0.768712580         0.331022143         0.026610786
     0.768712580         0.831022143         0.026610786
     0.194323629         0.318758100         0.624685526
     0.194323629         0.818758130         0.624685526
     0.761840284         0.327702790         0.527406633
     0.761840284         0.827702761         0.527406633
     0.268236101         0.419969380         0.223512858
     0.268236101         0.919969380         0.223512858
     0.692755163         0.432096988         0.125190958
     0.692755163         0.932096958         0.125190958
     0.269436300         0.418858498         0.723807275
     0.269436300         0.918858528         0.723807275
     0.689252436         0.430248529         0.626509607
     0.689252436         0.930248499         0.626509607
     0.851347446         0.004852687         0.129499227
     0.851347446         0.504852712         0.129499227
     0.550387681         0.020838792         0.134684563
     0.550387681         0.520838797         0.134684563
     0.693101108         0.049043778         0.903718710
     0.693101108         0.549043775         0.903718710
     0.848177135         0.001336023         0.631986558
     0.848177135         0.501336038         0.631986558
     0.546045542         0.018492909         0.635930061
     0.546045542         0.518492937         0.635930061
     0.421883583         0.086440206         0.979614437
     0.421883583         0.586440206         0.979614437
     0.698745787         0.051128291         0.404107302
     0.698745787         0.551128268         0.404107302
     0.291681200         0.062944524         0.207493752
     0.291681200         0.562944531         0.207493752
     0.158619687         0.096592687         0.932165384
     0.158619687         0.596592665         0.932165384
     0.420062065         0.096667387         0.478021801
     0.420062065         0.596667409         0.478021801
     0.675479829         0.101653054         0.229671523
     0.675479829         0.601653039         0.229671523
     0.293602079         0.063261449         0.709634066
     0.293602079         0.563261449         0.709634066
     0.658706784         0.151812941         0.818139374
     0.658706784         0.651812911         0.818139374
     0.155564174         0.096043475         0.431060255
     0.155564174         0.596043468         0.431060255
     0.671783030         0.098731637         0.730435669
     0.671783030         0.598731637         0.730435669
     0.174371079         0.150733918         0.019926162
     0.174371079         0.650733948         0.019926162
     0.921008766         0.162797451         0.770070612
     0.921008766         0.662797451         0.770070612
     0.660130143         0.149915338         0.317850947
     0.660130143         0.649915338         0.317850947
     0.791678727         0.187969103         0.042630121
     0.791678727         0.687969089         0.042630121
     0.170482412         0.148116395         0.519357860
     0.170482412         0.648116410         0.519357860
     0.192841008         0.199719414         0.846658289
     0.192841008         0.699719429         0.846658289
     0.922681689         0.164205521         0.270428181
     0.922681689         0.664205551         0.270428181
     0.774447739         0.183665678         0.543650389
     0.774447739         0.683665693         0.543650389
     0.188358068         0.203189626         0.346147627
     0.188358068         0.703189611         0.346147627
     0.050167091         0.230624497         0.115092874
     0.050167091         0.730624497         0.115092874
     0.851086676         0.253446400         0.879683197
     0.851086676         0.753446400         0.879683197
     0.351085156         0.246554345         0.120316833
     0.351085156         0.746554375         0.120316833
     0.050620712         0.230945483         0.615441024
     0.050620712         0.730945468         0.615441024
     0.550170779         0.269373268         0.884906828
     0.550170779         0.769373298         0.884906828
     0.851405263         0.257649839         0.378616273
     0.851405263         0.757649839         0.378616273
     0.351412684         0.242347404         0.621383607
     0.351412684         0.742347419         0.621383607
     0.550616384         0.269054711         0.384559542
     0.550616384         0.769054711         0.384559542
     0.692841470         0.300278872         0.153342083
     0.692841470         0.800278902         0.153342083
     0.291678399         0.312028766         0.957370162
     0.291678399         0.812028766         0.957370162
     0.421008378         0.337202460         0.229929328
     0.421008378         0.837202430         0.229929328
     0.688355744         0.296815008         0.653852999
     0.688355744         0.796815038         0.653852999
     0.674371481         0.349265933         0.980074048
     0.674371481         0.849265933         0.980074048
     0.274447739         0.316333026         0.456346303
     0.274447739         0.816333055         0.456346303
     0.158706844         0.348186463         0.181860879
     0.158706844         0.848186493         0.181860879
     0.422680825         0.335795254         0.729571521
     0.422680825         0.835795283         0.729571521
     0.670477211         0.351876676         0.480635762
     0.670477211         0.851876676         0.480635762
     0.175482899         0.398348153         0.770326614
     0.175482899         0.898348153         0.770326614
     0.658619821         0.403407186         0.067834787
     0.658619821         0.903407216         0.067834787
     0.160129875         0.350086272         0.682149649
     0.160129875         0.850086272         0.682149649
     0.791681588         0.437053233         0.792506695
     0.791681588         0.937053204         0.792506695
     0.171780169         0.401267886         0.269565552
     0.171780169         0.901267886         0.269565552
     0.921882570         0.413559109         0.020385535
     0.921882570         0.913559079         0.020385535
     0.655576468         0.403960496         0.568940222
     0.655576468         0.903960466         0.568940222
     0.793600738         0.436745703         0.290364981
     0.793600738         0.936745703         0.290364981
     0.193100855         0.450954318         0.096281573
     0.193100855         0.950954318         0.096281573
     0.920049489         0.403334379         0.521981716
     0.920049489         0.903334379         0.521981716
     0.050384033         0.479159176         0.865315199
     0.050384033         0.979159176         0.865315199
     0.351345897         0.495148093         0.870500863
     0.351345897         0.995148063         0.870500863
     0.198745608         0.448867589         0.595893443
     0.198745608         0.948867559         0.595893443
     0.046052683         0.481509686         0.364073306
     0.046052683         0.981509686         0.364073306
     0.348181218         0.498659819         0.368012518
     0.348181218         0.998659849         0.368012518
