Ca   V    O                             
   1.00000000000000     
     8.7623783629531697   -0.0074032623736148   -0.0008629291490052
     2.9196143674424300   14.1802640026955995    0.3556021128549630
     2.9383075614575600   -0.3653378985574950   14.0212522086565006
   Ca   V    O 
    11    48    96
Direct
  0.4270132053330030  0.5537551255479888  0.5094900524994448
  0.1771580244176377  0.0130167992851577  0.4450249795932200
  0.2070122309356288  0.9376485820576427  0.9881831830740556
  0.1790134766232476  0.5056557427192617  0.9451040887312853
  0.5083381669279406  0.0144319443003105  0.4476906782975532
  0.4681719297188089  0.0811455426499709  0.0109450449130085
  0.5125757116670258  0.5055927780111149  0.9452208497811271
  0.8418964134280348  0.0128573185270192  0.4503061763277252
  0.8344772897242401  0.9345893506513197  0.9853287488441085
  0.8541256001996034  0.5534414577743558  0.5107846238953986
  0.8414460866923524  0.5154546801928480  0.9474564520908918
  0.2214539445639201  0.0917243297211344  0.2379124615447376
  0.1942653644155883  0.0911810406457561  0.7985740783957188
  0.2004956877823501  0.5955226712545034  0.2893023068418039
  0.2228864936086978  0.5862622695632719  0.7360746131727515
  0.5539157842146025  0.0906181739680296  0.2385371229429852
  0.5335087937646991  0.0938967405470840  0.7885704235863454
  0.5407660308688815  0.5978140541653008  0.2836794582295893
  0.5538776828547005  0.5870072862477745  0.7379626226499467
  0.8844034378706837  0.0889181956139040  0.2389290036090839
  0.8739962572589896  0.0910571760775515  0.7974513921550092
  0.8648087783702033  0.5985000085522956  0.2833479840546115
  0.8857604484659107  0.5889661580241105  0.7392386031880804
  0.0414034950511721  0.2606210545005951  0.0985477382986248
  0.0663073769904340  0.2019938508625102  0.5982099839680054
  0.0653006471655403  0.7130280308366017  0.0948397926292308
  0.0453595818259838  0.7560088409140647  0.5902240568595361
  0.3703891280978667  0.2762114222398827  0.0980546560141282
  0.3870417578046095  0.2032009934037207  0.5981532962090020
  0.3936856062940887  0.7101488086758218  0.0943835179547465
  0.3864799422170555  0.7624093711744978  0.5897281074546664
  0.7122142914813147  0.2624627727426551  0.0982136512057031
  0.7261590260553649  0.2047588899503754  0.6006086611464676
  0.7229729739719090  0.7148636774312332  0.0914533822313486
  0.7071417578341151  0.7631077527106374  0.5911932945012589
  0.2787020459249682  0.2476180723634350  0.4056230429276244
  0.2610223074256699  0.2854635909273605  0.9076278486307342
  0.2645933167829590  0.7868676365925997  0.4048860996943044
  0.2792670272666242  0.7362195335567158  0.9058999274377522
  0.6131109727496863  0.2420777353322577  0.4111231006525141
  0.6059902987645630  0.2843980085836232  0.9086374019367606
  0.5991135486742185  0.7860465793728521  0.4048660912658302
  0.6077425491867394  0.7413992091640187  0.9091083418784504
  0.9440574836585119  0.2410412398833936  0.4114558876242326
  0.9323043575242770  0.2894348857691727  0.9081798175111966
  0.9339030448958242  0.7866210902806773  0.4052842025017954
  0.9551664120018031  0.7342575395455211  0.9069374405471438
  0.0926050374137649  0.4161224645760329  0.2647300436945334
  0.1250104200592811  0.4005290120046154  0.7118195489711340
  0.1235890173127335  0.9060690568791678  0.2159016565262721
  0.1095830577085943  0.9050512657294185  0.7552822057876120
  0.4448320749641297  0.4165067812554438  0.2638434480966456
  0.4610289791832758  0.3968007735796469  0.7133250081012594
  0.4575173001688432  0.9048690111416839  0.2102905590335309
  0.4427394390816131  0.9095477283938186  0.7607724494611343
  0.7713003053056838  0.4119291896970672  0.2659022316411385
  0.7916965310753619  0.3973186017977334  0.7123161217836459
  0.7900782293091783  0.9036985069856336  0.2153289333952531
  0.7732735912431815  0.9059560942054613  0.7581614331543475
  0.2709826444898639  0.3465108057054831  0.3291691972758025
  0.2792054435626846  0.3563854452013849  0.7955769989824298
  0.2803354174316902  0.8605203188318146  0.2939534626355943
  0.2717214808995747  0.8466630784569776  0.8301685528641470
  0.5995585563569246  0.3464027893775833  0.3323563511267983
  0.6111970538250653  0.3554790768914660  0.7965706479498952
  0.6114272310874849  0.8583650030163357  0.2927157460172747
  0.6063034845849076  0.8425709302404967  0.8255389618989186
  0.9395963550825930  0.3458339971395594  0.3325999272295522
  0.9445481209519107  0.3575691214784638  0.7943709120440876
  0.9449617199242396  0.8588296038742097  0.2937582857385387
  0.9383679776954367  0.8465592375131508  0.8305900657520329
  0.1597667917142392  0.1698507635749698  0.3500366731853105
  0.1390608730853930  0.2056439604053168  0.8642433370422348
  0.1411589319854496  0.7083925400633713  0.3589370381736988
  0.1594292463174924  0.6708057950277725  0.8412095631709257
  0.4871877858737481  0.1697059365125841  0.3507678113470146
  0.4727483986753755  0.2035167095801980  0.8683567607060730
  0.4737923907903322  0.7079521519086256  0.3581869423813041
  0.4922179183221060  0.6725594439718214  0.8428486889798639
  0.8222796341811748  0.1707488889218639  0.3484582976632168
  0.8084513799859050  0.2052291583403737  0.8649855872737215
  0.8081959919525756  0.7083431749914356  0.3576989291086869
  0.8218965269400410  0.6719557894536462  0.8475712179801871
  0.1626359377710483  0.3300026560996286  0.1620267484335992
  0.1847356308927036  0.2870259399686960  0.6444854581854282
  0.1863017826260656  0.7958498003739291  0.1396106526723403
  0.1700887602976013  0.8209184734046603  0.6569922840642528
  0.5020684791764806  0.3303647953019421  0.1609301733420032
  0.5185182210543404  0.2846807859370761  0.6442484430207680
  0.5171437318574337  0.7929217025722936  0.1387289237234982
  0.5003887273894521  0.8248117614089443  0.6593874110581365
  0.8328449336187282  0.3261457976221663  0.1651532727317446
  0.8539487454638555  0.2855012209507566  0.6439276612291549
  0.8523522485904795  0.7937078203194573  0.1368390880048539
  0.8394081658752145  0.8219105968240005  0.6576593944998044
  0.0505188376219003  0.1555252216121594  0.1791339130330792
  0.0461008054621393  0.1362822130333910  0.7138332008418783
  0.0507337650493040  0.6414262529199727  0.2046736217015261
  0.0541321977515418  0.6501043645060330  0.6744464458645045
  0.3864023247348142  0.1573694845100216  0.1741685445094779
  0.3797820375048661  0.1367697738561998  0.7139289911796730
  0.3781643430558539  0.6401006473051741  0.2054592842185499
  0.3904635651131872  0.6484282139923427  0.6688440395924617
  0.7180077161226862  0.1570332831079452  0.1785934664833328
  0.7155081522744744  0.1362987991415410  0.7162424325069143
  0.7142453392429891  0.6437702443174638  0.2020379124313116
  0.7234742571155898  0.6494713883774197  0.6703129072922773
  0.0540961286325728  0.0181375120634023  0.3084459865003343
  0.0341602256060184  0.0179897368171226  0.8712600644805173
  0.0266056950758170  0.5315660111651481  0.3577772503238051
  0.0548547931682599  0.5159871060956460  0.8082718656026056
  0.3895139982872355  0.0171522724543015  0.3057294029593713
  0.3659980109862427  0.0239891718686921  0.8700407123400518
  0.3723842043525056  0.5315004322070587  0.3575854751318503
  0.3891232377935726  0.5152437720850745  0.8091286739628742
  0.7196310677189546  0.0167195184070847  0.3090608606295022
  0.6982560793767741  0.0244238710783042  0.8702714225044588
  0.6988016914096573  0.5317108944586005  0.3610003122630215
  0.7192822880511254  0.5160408196656856  0.8093339734184043
  0.2536970714124113  0.2086438303523208  0.0245972818357851
  0.2774041963265187  0.1263508221208738  0.5271255125458807
  0.2768165906415173  0.6379557329592100  0.0176196971894184
  0.2591181776192423  0.7024271267348248  0.5187770350843268
  0.5829210610305116  0.2093989113897859  0.0252374450197493
  0.6091589177288032  0.1308134561922731  0.5247437680943630
  0.6075060366615145  0.6374872004714095  0.0185955884425727
  0.5932145456729822  0.6956454946355601  0.5164002037527956
  0.9177366198191697  0.2139045550604793  0.0229330271896712
  0.9458439513961621  0.1304890095951221  0.5236357287473392
  0.9469588210556439  0.6391507114080108  0.0177186634304528
  0.9203195734237910  0.7007640024600896  0.5178780835707244
  0.2654050810872661  0.4785240151371089  0.2131360548012649
  0.2947130186019649  0.4724034273524058  0.6486386646094381
  0.2910375542028358  0.9787232431646629  0.1394524564210405
  0.2642033312988029  0.9800138392956541  0.7126973694050480
  0.6032751332258331  0.4835642069288180  0.2054631363380492
  0.6236784504434698  0.4724981034275224  0.6475354215869982
  0.6242447247286076  0.9774408973071161  0.1396021588892013
  0.6020174409461395  0.9808419608235898  0.7087347560320474
  0.9301082991597148  0.4842658547818163  0.2052325706238595
  0.9492374247290847  0.4738980402233857  0.6504680585321916
  0.9577222243840321  0.9731283456261718  0.1426704354996590
  0.9337968542510066  0.9791844786803446  0.7120348156810471
  0.0763707111958451  0.2849332014476036  0.4851038189200726
  0.0503173718724988  0.3679531997263094  0.9714170492010556
  0.0506365398525876  0.8637257565679957  0.4720564545329239
  0.0694150533880339  0.8034091534186164  0.9812313939615654
  0.4033580778661184  0.2855273227594035  0.4851125438981762
  0.3825663765314948  0.3661740783062266  0.9748589486301494
  0.3858850002619006  0.8628045502839731  0.4731832974324271
  0.3995846116496508  0.7971509192691864  0.9809372976846280
  0.7389226019433898  0.2863427719206942  0.4869891539979952
  0.7174088684734278  0.3677247432953841  0.9719642139888498
  0.7167795780298547  0.8627288713924721  0.4734609557185464
  0.7394180754433594  0.7966879390254983  0.9778015332976547
 
             NaN             NaN             NaN
             NaN             NaN             NaN
             NaN             NaN             NaN
             NaN             NaN             NaN
             NaN             NaN             NaN
             NaN             NaN             NaN
             NaN             NaN             NaN
             NaN             NaN             NaN
             NaN             NaN             NaN
             NaN             NaN             NaN
             NaN             NaN             NaN
             NaN             NaN             NaN
             NaN             NaN             NaN
             NaN             NaN             NaN
             NaN             NaN             NaN
             NaN             NaN             NaN
             NaN             NaN             NaN
             NaN             NaN             NaN
             NaN             NaN             NaN
             NaN             NaN             NaN
             NaN             NaN             NaN
             NaN             NaN             NaN
             NaN             NaN             NaN
             NaN             NaN             NaN
             NaN             NaN             NaN
             NaN             NaN             NaN
             NaN             NaN             NaN
             NaN             NaN             NaN
             NaN             NaN             NaN
             NaN             NaN             NaN
             NaN             NaN             NaN
             NaN             NaN             NaN
             NaN             NaN             NaN
             NaN             NaN             NaN
             NaN             NaN             NaN
             NaN             NaN             NaN
             NaN             NaN             NaN
             NaN             NaN             NaN
             NaN             NaN             NaN
             NaN             NaN             NaN
             NaN             NaN             NaN
             NaN             NaN             NaN
             NaN             NaN             NaN
             NaN             NaN             NaN
             NaN             NaN             NaN
             NaN             NaN             NaN
             NaN             NaN             NaN
             NaN             NaN             NaN
             NaN             NaN             NaN
             NaN             NaN             NaN
             NaN             NaN             NaN
             NaN             NaN             NaN
             NaN             NaN             NaN
             NaN             NaN             NaN
             NaN             NaN             NaN
             NaN             NaN             NaN
             NaN             NaN             NaN
             NaN             NaN             NaN
             NaN             NaN             NaN
             NaN             NaN             NaN
             NaN             NaN             NaN
             NaN             NaN             NaN
             NaN             NaN             NaN
             NaN             NaN             NaN
             NaN             NaN             NaN
             NaN             NaN             NaN
             NaN             NaN             NaN
             NaN             NaN             NaN
             NaN             NaN             NaN
             NaN             NaN             NaN
             NaN             NaN             NaN
             NaN             NaN             NaN
             NaN             NaN             NaN
             NaN             NaN             NaN
             NaN             NaN             NaN
             NaN             NaN             NaN
             NaN             NaN             NaN
             NaN             NaN             NaN
             NaN             NaN             NaN
             NaN             NaN             NaN
             NaN             NaN             NaN
             NaN             NaN             NaN
             NaN             NaN             NaN
             NaN             NaN             NaN
             NaN             NaN             NaN
             NaN             NaN             NaN
             NaN             NaN             NaN
             NaN             NaN             NaN
             NaN             NaN             NaN
             NaN             NaN             NaN
             NaN             NaN             NaN
             NaN             NaN             NaN
             NaN             NaN             NaN
             NaN             NaN             NaN
             NaN             NaN             NaN
             NaN             NaN             NaN
             NaN             NaN             NaN
             NaN             NaN             NaN
             NaN             NaN             NaN
             NaN             NaN             NaN
             NaN             NaN             NaN
             NaN             NaN             NaN
             NaN             NaN             NaN
             NaN             NaN             NaN
             NaN             NaN             NaN
             NaN             NaN             NaN
             NaN             NaN             NaN
             NaN             NaN             NaN
             NaN             NaN             NaN
             NaN             NaN             NaN
             NaN             NaN             NaN
             NaN             NaN             NaN
             NaN             NaN             NaN
             NaN             NaN             NaN
             NaN             NaN             NaN
             NaN             NaN             NaN
             NaN             NaN             NaN
             NaN             NaN             NaN
             NaN             NaN             NaN
             NaN             NaN             NaN
             NaN             NaN             NaN
             NaN             NaN             NaN
             NaN             NaN             NaN
             NaN             NaN             NaN
             NaN             NaN             NaN
             NaN             NaN             NaN
             NaN             NaN             NaN
             NaN             NaN             NaN
             NaN             NaN             NaN
             NaN             NaN             NaN
             NaN             NaN             NaN
             NaN             NaN             NaN
             NaN             NaN             NaN
             NaN             NaN             NaN
             NaN             NaN             NaN
             NaN             NaN             NaN
             NaN             NaN             NaN
             NaN             NaN             NaN
             NaN             NaN             NaN
             NaN             NaN             NaN
             NaN             NaN             NaN
             NaN             NaN             NaN
             NaN             NaN             NaN
             NaN             NaN             NaN
             NaN             NaN             NaN
             NaN             NaN             NaN
             NaN             NaN             NaN
             NaN             NaN             NaN
             NaN             NaN             NaN
             NaN             NaN             NaN
             NaN             NaN             NaN
             NaN             NaN             NaN
             NaN             NaN             NaN
             NaN             NaN             NaN
             NaN             NaN             NaN
