Ca   V    O                             
   1.00000000000000     
     8.7623783629531697   -0.0074032623736148   -0.0008629291490052
     2.9196143674424300   14.1802640026955995    0.3556021128549630
     2.9383075614575600   -0.3653378985574950   14.0212522086565006
   Ca   V    O 
    11    48    96
Direct
  0.4270106778523370  0.5537537696662724  0.5094809525960571
  0.1771621175551061  0.0130318152592395  0.4450137091169140
  0.2071132304682735  0.9375094840258100  0.9881540742872232
  0.1789694913016433  0.5056927282991523  0.9451395011207495
  0.5083365619785596  0.0144416323903513  0.4476945299426731
  0.4681338609928218  0.0811493343766472  0.0109519866464254
  0.5125929697788081  0.5055428855353483  0.9452248204923848
  0.8418937525640331  0.0128636457900129  0.4503168805264295
  0.8344548523375508  0.9346090067484525  0.9853312734426751
  0.8541443043495676  0.5534327659812703  0.5107717741804407
  0.8414622316606071  0.5154527050529083  0.9474468243291270
  0.2214773250243027  0.0917073743073047  0.2379331903805593
  0.1942960002377347  0.0911343569275118  0.7985571275893975
  0.2004803350431175  0.5954841904650010  0.2893289697040373
  0.2228607495004908  0.5862571345568455  0.7360691993691688
  0.5539274553820306  0.0905964152852192  0.2385502802390107
  0.5335226836018236  0.0938760927100901  0.7885733461093452
  0.5407654717841552  0.5978426707702056  0.2837296908092100
  0.5538632926234186  0.5870023631167598  0.7379499127766280
  0.8843808890879785  0.0889076236520552  0.2389305654345009
  0.8740353270495902  0.0910374045731501  0.7974400348760611
  0.8647969700453473  0.5984960061898050  0.2833746388816820
  0.8857881207545404  0.5889704031155105  0.7392579840949409
  0.0413684165478259  0.2605980296420398  0.0985524258488724
  0.0663363225007458  0.2019768842016063  0.5981912211158900
  0.0652864157379085  0.7130604219705248  0.0948450741167122
  0.0453783193435484  0.7560220566894387  0.5902406543694667
  0.3704391086483270  0.2761945673942279  0.0980550165353549
  0.3870625412659976  0.2031771215849716  0.5981214931806917
  0.3936921314209343  0.7101948036488039  0.0943809058371414
  0.3864560741954222  0.7624208795874594  0.5897373161397752
  0.7122062873996384  0.2624364812916937  0.0981807998672366
  0.7261786070796106  0.2047427654880991  0.6006026021989044
  0.7229281753017389  0.7149085445813199  0.0914614662521060
  0.7071214651503794  0.7631339594602480  0.5912192070638795
  0.2787113162053174  0.2475930763686591  0.4056086446654419
  0.2610316761242686  0.2854949944418479  0.9075900773348025
  0.2646289067217538  0.7868516591315569  0.4048341890406917
  0.2792647371956676  0.7362241489095851  0.9058775044040317
  0.6130823619413874  0.2420512192594444  0.4111252248369439
  0.6059759813848586  0.2843710925305061  0.9086662551381721
  0.5991156675850533  0.7860072374906792  0.4048538180616319
  0.6078384258039122  0.7414313556746137  0.9090817221965679
  0.9441165505606008  0.2410167686052134  0.4114593089262115
  0.9323399379695303  0.2894225018268557  0.9081893815453270
  0.9339374611339295  0.7866519867988018  0.4051983906679411
  0.9551701795417600  0.7343003731718198  0.9069375560052180
  0.0926344104443970  0.4161740349111724  0.2647552524510886
  0.1250519634554053  0.4005330352107919  0.7118228802555180
  0.1236008799848278  0.9060200285049191  0.2159072555321373
  0.1096025330696335  0.9050585127841586  0.7552708963974126
  0.4447253260123460  0.4165294028923157  0.2638545271442396
  0.4609799870014228  0.3967932483923136  0.7133276937108022
  0.4575241773071070  0.9048392288718858  0.2102623869974636
  0.4427437111989150  0.9095548807964207  0.7607703454369528
  0.7713094987747411  0.4119653286910392  0.2659342479815123
  0.7916938694247762  0.3973155860698299  0.7123180115323109
  0.7901415424950713  0.9036702921874493  0.2153205213964355
  0.7732920970154140  0.9059598515589116  0.7581672610061645
  0.2709903957850130  0.3465274385546735  0.3291567075694530
  0.2792195354477371  0.3563766447386598  0.7955861606999477
  0.2803423912553740  0.8605472444504230  0.2939651419553400
  0.2717354884364127  0.8466720589171999  0.8301935465568775
  0.5995583775678739  0.3464170637306836  0.3323449291153011
  0.6111994879097082  0.3554906111732024  0.7965731086688876
  0.6114132011462061  0.8583824934948510  0.2927190982944268
  0.6062702757114380  0.8425710546064025  0.8255467601667306
  0.9395805915429420  0.3458307103385039  0.3326001843406274
  0.9445473927827024  0.3575844412122677  0.7943791727322633
  0.9449378758999174  0.8588303738516032  0.2937954998395611
  0.9383324933745030  0.8465593237304674  0.8305944677525119
  0.1597583430256506  0.1698562158061279  0.3500382252053882
  0.1390737977182042  0.2056354969722989  0.8642535517538406
  0.1411713869032312  0.7083852128837833  0.3589257609134009
  0.1593797143318838  0.6708162849620223  0.8412424354184012
  0.4872127055442732  0.1697258986205838  0.3507734080536977
  0.4727600079658743  0.2035034712062185  0.8683598287005410
  0.4738086079841679  0.7079490278107770  0.3581578260398572
  0.4922131777165291  0.6725514732831996  0.8428323429251705
  0.8222606872062386  0.1707606521542075  0.3484599541581375
  0.8084647605677446  0.2052251217971772  0.8649928577163877
  0.8082007113581682  0.7083369849126484  0.3576925264293607
  0.8218747790963050  0.6719614725966707  0.8475853543354859
  0.1626321351201838  0.3300088057179380  0.1620335402269077
  0.1847236725154886  0.2870351632549983  0.6445029034287657
  0.1862894851283983  0.7958678065604516  0.1395925146388706
  0.1700705941819365  0.8209362092123058  0.6569910087807713
  0.5020865737133491  0.3303656826725074  0.1609124153022350
  0.5185331225948673  0.2846726140941840  0.6442599524469372
  0.5171773221045939  0.7929237966578953  0.1387324323652877
  0.5004010379752373  0.8248229324120686  0.6593664231104626
  0.8328580495821711  0.3261523243745188  0.1651291366208198
  0.8539607176982003  0.2855066361219372  0.6439460245653734
  0.8523383938694025  0.7937034510495522  0.1368305844495623
  0.8393965446714233  0.8219018958513971  0.6576497272162669
  0.0505352838965152  0.1555146263604144  0.1791264400499344
  0.0460804039409055  0.1362866625184935  0.7138466137302899
  0.0507408442006394  0.6414357271809692  0.2046567982153888
  0.0541478913493663  0.6501018654737081  0.6744538065767713
  0.3863942878137721  0.1573642674030467  0.1741675160435463
  0.3797936663105190  0.1367734429452980  0.7139242176366238
  0.3781627977114468  0.6400928161039801  0.2054584566409972
  0.3904720276671014  0.6484290004348097  0.6688436916046925
  0.7180241673188945  0.1570639714669184  0.1785666846893079
  0.7154909657286410  0.1363000114369726  0.7162654197384342
  0.7142628330240441  0.6437633175829376  0.2020080409825198
  0.7234550890709244  0.6494693199482526  0.6703195492819987
  0.0540661398044691  0.0181710620058197  0.3084352819955072
  0.0341658210824463  0.0179811920243864  0.8712357403817705
  0.0266207653540178  0.5315698930186272  0.3577542357264463
  0.0548545736878765  0.5160042791588211  0.8082761625298431
  0.3895514118123131  0.0171724926255763  0.3057000925695519
  0.3660229432085700  0.0239697848362113  0.8700399199481694
  0.3723919409826095  0.5314916670132703  0.3575801078045373
  0.3891293123791399  0.5152481503209785  0.8091520066057996
  0.7196421377498794  0.0167339966078330  0.3090508227867446
  0.6982288289461849  0.0244403641506992  0.8702876605989118
  0.6988047247695874  0.5317057670201848  0.3609887200774935
  0.7192678295364203  0.5160547550014059  0.8093454210621545
  0.2537135832106330  0.2086275195922696  0.0245903710271662
  0.2773903909166577  0.1263569391217487  0.5271493824377274
  0.2768199604042465  0.6379699949423312  0.0176224699324408
  0.2591236979950651  0.7024217249505611  0.5187775735175819
  0.5828958516847891  0.2094172440893658  0.0252542645008020
  0.6091591366124902  0.1308163634451063  0.5247729833865762
  0.6074859614561916  0.6374814640953517  0.0186005472893598
  0.5932128967639727  0.6956369055257738  0.5163926931644198
  0.9177584194449082  0.2139101787464810  0.0229215286011808
  0.9458502246002993  0.1304931670499911  0.5236579879594174
  0.9469407256834614  0.6391368145888023  0.0177356562051543
  0.9203247978480462  0.7007356182417581  0.5179020487344843
  0.2654179437658186  0.4785197537960428  0.2131445101816496
  0.2947447643178478  0.4724040128239579  0.6486375973586149
  0.2910362295529296  0.9787349247988999  0.1394674759052776
  0.2642009362092352  0.9800223651410960  0.7127069307414402
  0.6032829034966127  0.4835591298287127  0.2054332550591624
  0.6236783225539213  0.4724961465758142  0.6475316243669269
  0.6242711998068629  0.9774562090006071  0.1395948205924782
  0.6020455540025083  0.9808294662972443  0.7087288987630060
  0.9301209445636474  0.4842667994672709  0.2052128273696567
  0.9492292464532710  0.4739171996965368  0.6504750205541754
  0.9576911874846559  0.9731520090125940  0.1426795819846944
  0.9337584758096682  0.9791848990362411  0.7120386223487500
  0.0763579184886822  0.2849123517495613  0.4851113438187724
  0.0503300480329116  0.3679793311716040  0.9714306165737341
  0.0506438014361095  0.8637230670442975  0.4720642467142468
  0.0694107799007853  0.8033782699641847  0.9812214517077962
  0.4033807128932523  0.2855250635209217  0.4851067227061350
  0.3825367477846484  0.3661939887651116  0.9748698555792714
  0.3859017286398014  0.8628121009777061  0.4731703473992752
  0.3996315755529096  0.7970980563918459  0.9809462503201303
  0.7389202551758771  0.2863387370837387  0.4869822863756710
  0.7174302360462761  0.3677307461891033  0.9719675291999152
  0.7167652653307428  0.8627333973131925  0.4734626093489496
  0.7393963898290323  0.7966796971317933  0.9778090973636679
 
             NaN             NaN             NaN
             NaN             NaN             NaN
             NaN             NaN             NaN
             NaN             NaN             NaN
             NaN             NaN             NaN
             NaN             NaN             NaN
             NaN             NaN             NaN
             NaN             NaN             NaN
             NaN             NaN             NaN
             NaN             NaN             NaN
             NaN             NaN             NaN
             NaN             NaN             NaN
             NaN             NaN             NaN
             NaN             NaN             NaN
             NaN             NaN             NaN
             NaN             NaN             NaN
             NaN             NaN             NaN
             NaN             NaN             NaN
             NaN             NaN             NaN
             NaN             NaN             NaN
             NaN             NaN             NaN
             NaN             NaN             NaN
             NaN             NaN             NaN
             NaN             NaN             NaN
             NaN             NaN             NaN
             NaN             NaN             NaN
             NaN             NaN             NaN
             NaN             NaN             NaN
             NaN             NaN             NaN
             NaN             NaN             NaN
             NaN             NaN             NaN
             NaN             NaN             NaN
             NaN             NaN             NaN
             NaN             NaN             NaN
             NaN             NaN             NaN
             NaN             NaN             NaN
             NaN             NaN             NaN
             NaN             NaN             NaN
             NaN             NaN             NaN
             NaN             NaN             NaN
             NaN             NaN             NaN
             NaN             NaN             NaN
             NaN             NaN             NaN
             NaN             NaN             NaN
             NaN             NaN             NaN
             NaN             NaN             NaN
             NaN             NaN             NaN
             NaN             NaN             NaN
             NaN             NaN             NaN
             NaN             NaN             NaN
             NaN             NaN             NaN
             NaN             NaN             NaN
             NaN             NaN             NaN
             NaN             NaN             NaN
             NaN             NaN             NaN
             NaN             NaN             NaN
             NaN             NaN             NaN
             NaN             NaN             NaN
             NaN             NaN             NaN
             NaN             NaN             NaN
             NaN             NaN             NaN
             NaN             NaN             NaN
             NaN             NaN             NaN
             NaN             NaN             NaN
             NaN             NaN             NaN
             NaN             NaN             NaN
             NaN             NaN             NaN
             NaN             NaN             NaN
             NaN             NaN             NaN
             NaN             NaN             NaN
             NaN             NaN             NaN
             NaN             NaN             NaN
             NaN             NaN             NaN
             NaN             NaN             NaN
             NaN             NaN             NaN
             NaN             NaN             NaN
             NaN             NaN             NaN
             NaN             NaN             NaN
             NaN             NaN             NaN
             NaN             NaN             NaN
             NaN             NaN             NaN
             NaN             NaN             NaN
             NaN             NaN             NaN
             NaN             NaN             NaN
             NaN             NaN             NaN
             NaN             NaN             NaN
             NaN             NaN             NaN
             NaN             NaN             NaN
             NaN             NaN             NaN
             NaN             NaN             NaN
             NaN             NaN             NaN
             NaN             NaN             NaN
             NaN             NaN             NaN
             NaN             NaN             NaN
             NaN             NaN             NaN
             NaN             NaN             NaN
             NaN             NaN             NaN
             NaN             NaN             NaN
             NaN             NaN             NaN
             NaN             NaN             NaN
             NaN             NaN             NaN
             NaN             NaN             NaN
             NaN             NaN             NaN
             NaN             NaN             NaN
             NaN             NaN             NaN
             NaN             NaN             NaN
             NaN             NaN             NaN
             NaN             NaN             NaN
             NaN             NaN             NaN
             NaN             NaN             NaN
             NaN             NaN             NaN
             NaN             NaN             NaN
             NaN             NaN             NaN
             NaN             NaN             NaN
             NaN             NaN             NaN
             NaN             NaN             NaN
             NaN             NaN             NaN
             NaN             NaN             NaN
             NaN             NaN             NaN
             NaN             NaN             NaN
             NaN             NaN             NaN
             NaN             NaN             NaN
             NaN             NaN             NaN
             NaN             NaN             NaN
             NaN             NaN             NaN
             NaN             NaN             NaN
             NaN             NaN             NaN
             NaN             NaN             NaN
             NaN             NaN             NaN
             NaN             NaN             NaN
             NaN             NaN             NaN
             NaN             NaN             NaN
             NaN             NaN             NaN
             NaN             NaN             NaN
             NaN             NaN             NaN
             NaN             NaN             NaN
             NaN             NaN             NaN
             NaN             NaN             NaN
             NaN             NaN             NaN
             NaN             NaN             NaN
             NaN             NaN             NaN
             NaN             NaN             NaN
             NaN             NaN             NaN
             NaN             NaN             NaN
             NaN             NaN             NaN
             NaN             NaN             NaN
             NaN             NaN             NaN
             NaN             NaN             NaN
             NaN             NaN             NaN
             NaN             NaN             NaN
             NaN             NaN             NaN
             NaN             NaN             NaN
             NaN             NaN             NaN
             NaN             NaN             NaN
             NaN             NaN             NaN
