Ca V  Cr P  O 
 1.0000000000000000
     9.8034191132000004    0.0000000000000000    0.0000000000000000
     0.0310846032000000    8.1394794092999998    0.0000000000000000
    -2.1279917691999999   -0.0524358375000000    6.8508461865000001
 Ca  V   Cr  P   O  
   1   2   2   8  28
Selective dynamics
Cartesian
  0.2546036921857662  7.3664028823269314  5.2443409102537073   T   T   T
 -0.5371900965571639  3.9591812785706235  4.9264824340240088   T   T   T
  4.4999187755725645  4.0615115734034468  5.0224006881025289   T   T   T
  3.2772620816310827  0.0229810134832306  1.8496536954420746   T   T   T
  8.1412872486498511  0.0111276094254524  1.8494109012002691   T   T   T
  0.8708840615763764  1.5774053193778861  3.3254832892216935   T   T   T
  5.7604119459906835  1.4866232673410349  3.4658291689285248   T   T   T
  0.9035534250417695  6.2121117853694576  0.7472221589640364   T   T   T
  5.8316739564018460  6.2705457527451633  0.7080301683810962   T   T   T
  1.8912631673380416  2.1894215289933379  6.0906180383922157   T   T   T
  6.7732292458037637  2.0681038229256319  6.1182838558158661   T   T   T
  2.0215379303595022  5.5292128775114779  3.3208048402254100   T   T   T
  6.8573761878593178  5.6008302078036891  3.3878637020646130   T   T   T
 -1.6104227417073953  2.4981729069380845  5.6785884708910004   T   T   T
  3.2987860641064422  2.6430959434138637  5.7527433948378919   T   T   T
 -1.1123479548581432  5.4494719146598385  6.2311020395409624   T   T   T
  3.7796099518057127  5.3205982177187163  6.3101054632799114   T   T   T
 -0.1747044981111324  0.4471998854690649  3.1972056600836991   T   T   T
  4.6936950231743966  0.4692716110530737  3.1169636556283051   T   T   T
  0.2526239659155372  2.9641144647853261  3.4311496441379985   T   T   T
  5.1717685936335647  2.9158917469888417  3.6378681587166604   T   T   T
  0.7585007269268421  5.4460898929119645  4.2387314482460345   T   T   T
  5.6576921415330617  5.4932371589722724  4.3378245707831393   T   T   T
  0.8857609631876481  3.3662047448986483  6.1040801335964945   T   T   T
  5.8438043649908398  3.3116081744616332  6.1732686223559901   T   T   T
  1.4007793741595365  1.2145244390114296  4.8506832057186315   T   T   T
  6.2358275364892597  1.0809752706370792  4.9676282012119319   T   T   T
  1.5452030800700078  5.1783173810122296  1.8137283578631811   T   T   T
  6.3275571955376693  5.2724832328378985  1.9082350124487895   T   T   T
  1.8312424425500786  7.4585042258411924  0.6187277872280127   T   T   T
  6.7698074833262796  7.4669312652480269  0.6499569126485563   T   T   T
  2.0577951638366052  1.5184872987526508  2.4010492738984968   T   T   T
  6.9753582181461375  1.4854441200652642  2.5563068299852763   T   T   T
  2.4778854746827528  6.9906984472118134  3.3171886089979323   T   T   T
  7.5275582351244257  6.9729927496405422  3.3853977672239717   T   T   T
  3.0556076173615501  4.5012785975128544  3.7079036579545321   T   T   T
  7.9035248768531181  4.5087014676014681  3.7307069244264146   T   T   T
  3.9234062072276981  1.2817818515649038  0.3983125827665796   T   T   T
  8.9385126747058710  1.3123892573974232  0.5353484591829211   T   T   T
  4.3747369515893624  6.6650346452878404  0.9501541709597260   T   T   T
  9.3097657463429897  6.5735188273084288  1.1692309551937574   T   T   T
