Ca Mn V  P  O 
1.0
        7.3370261192         0.0000000000         0.0000000000
        0.0020375141         8.5102727358         0.0000000000
        3.2741110557        -0.0118108146         9.5157768615
   Ca   Mn    V    P    O
    3    1    3    8   28
Direct
     0.737747669         0.407390863         0.883684993
     0.263133019         0.903698742         0.115214370
     0.265271157         0.905400872         0.618300021
     0.741981149         0.990091860         0.890463889
     0.270434916         0.492302597         0.110832766
     0.731966257         0.992593348         0.389725059
     0.267552644         0.492220789         0.609441400
     0.498741865         0.190285653         0.193882570
     0.892737091         0.762744725         0.109170802
     0.104121469         0.269268960         0.392899513
     0.498718202         0.690851033         0.308196515
     0.501917601         0.194388971         0.691925526
     0.895238638         0.768507302         0.606832325
     0.108669765         0.271087825         0.892094254
     0.497037828         0.692598701         0.806663573
     0.172740370         0.293968081         0.019142697
     0.080410950         0.671447277         0.083171189
     0.535107374         0.049106523         0.095140867
     0.518427968         0.348587185         0.117415056
     0.387341976         0.691872954         0.203527242
     0.080569364         0.420824826         0.315276206
     0.269814312         0.158694446         0.281636328
     0.728395164         0.654836476         0.224253476
     0.915781677         0.918127418         0.182398289
     0.614192367         0.188911945         0.296170384
     0.482005477         0.848366201         0.385188073
     0.458988726         0.548678458         0.405634165
     0.165812805         0.293632239         0.520856261
     0.079166263         0.671624422         0.578639209
     0.917896986         0.175600618         0.420027196
     0.830993116         0.793317199         0.480048925
     0.538224459         0.051533379         0.594601035
     0.516717315         0.350548476         0.612850010
     0.385379523         0.688704550         0.701951265
     0.084606729         0.423367083         0.815398097
     0.272630543         0.160268888         0.779695511
     0.727324009         0.662324488         0.720740438
     0.924305618         0.920233309         0.682440102
     0.617210269         0.196319833         0.793446243
     0.473383456         0.851192355         0.882685184
     0.462828338         0.551309884         0.905119061
     0.920773089         0.178625122         0.920713902
     0.827665627         0.780951142         0.982066631
