Ca V  P  O 
1.0
       13.6709928513         0.0000000000         0.0000000000
        0.0000021370        16.0489196777         0.0000000000
        0.0000009734        -0.0000574324         7.3103451727
   Ca    V    P    O
   15   16   16   80
Direct
     0.249994278         0.499998629         0.500004947
     0.499987990         0.249998003         0.999998689
     0.499987990         0.749997973         0.999998689
     0.999987960         0.249998003         0.999998689
     0.999987960         0.749997973         0.999998689
     0.250011683         0.249997720         0.000002262
     0.250011683         0.749997735         0.000002262
     0.750011683         0.249997720         0.000002262
     0.750011683         0.749997735         0.000002262
     0.500006258         0.999998808         0.500008404
     0.000006258         0.999998808         0.500008404
     0.000006258         0.499998808         0.500008404
     0.249994278         0.999998629         0.500004947
     0.749994278         0.999998629         0.500004947
     0.749994278         0.499998629         0.500004947
     0.124999076         0.355830789         0.356288463
     0.124999076         0.855830789         0.356288463
     0.624999046         0.355830789         0.356288463
     0.624999046         0.855830789         0.356288463
     0.124998376         0.394102395         0.856242239
     0.124998376         0.894102395         0.856242239
     0.624998391         0.394102395         0.856242239
     0.624998391         0.894102395         0.856242239
     0.375001222         0.105923750         0.143755719
     0.375001222         0.605923772         0.143755719
     0.875001192         0.105923750         0.143755719
     0.875001192         0.605923772         0.143755719
     0.375000834         0.144085452         0.643752992
     0.375000834         0.644085467         0.643752992
     0.875000834         0.144085452         0.643752992
     0.875000834         0.644085467         0.643752992
     0.124992989         0.059640586         0.114173405
     0.124992989         0.559640586         0.114173405
     0.624992967         0.059640586         0.114173405
     0.624992967         0.559640586         0.114173405
     0.375004977         0.309617102         0.385857821
     0.375004977         0.809617102         0.385857821
     0.875005007         0.309617102         0.385857821
     0.875005007         0.809617102         0.385857821
     0.124991253         0.190358639         0.614091218
     0.124991253         0.690358639         0.614091218
     0.624991238         0.190358639         0.614091218
     0.624991238         0.690358639         0.614091218
     0.375017107         0.440324217         0.885839403
     0.375017107         0.940324187         0.885839403
     0.875017107         0.440324217         0.885839403
     0.875017107         0.940324187         0.885839403
     0.374999404         0.489139438         0.066738062
     0.374999404         0.989139438         0.066738062
     0.874999404         0.489139438         0.066738062
     0.874999404         0.989139438         0.066738062
     0.125000224         0.239210963         0.433143884
     0.125000224         0.739210963         0.433143884
     0.625000238         0.239210963         0.433143884
     0.625000238         0.739210963         0.433143884
     0.374999285         0.260887921         0.566741347
     0.374999285         0.760887921         0.566741347
     0.874999285         0.260887921         0.566741347
     0.874999285         0.760887921         0.566741347
     0.125000939         0.010871578         0.933222473
     0.125000939         0.510871589         0.933222473
     0.625000954         0.010871578         0.933222473
     0.625000954         0.510871589         0.933222473
     0.125000313         0.334781289         0.097801983
     0.125000313         0.834781289         0.097801983
     0.625000298         0.334781289         0.097801983
     0.625000298         0.834781289         0.097801983
     0.374999821         0.084778681         0.402220845
     0.374999821         0.584778666         0.402220845
     0.874999821         0.084778681         0.402220845
     0.874999821         0.584778666         0.402220845
     0.125001058         0.415214896         0.597765923
     0.125001058         0.915214896         0.597765923
     0.625001073         0.415214896         0.597765923
     0.625001073         0.915214896         0.597765923
     0.374998927         0.165217295         0.902208865
     0.374998927         0.665217280         0.902208865
     0.874998927         0.165217295         0.902208865
     0.874998927         0.665217280         0.902208865
     0.374999851         0.246953323         0.219953939
     0.374999851         0.746953309         0.219953939
     0.874999881         0.246953323         0.219953939
     0.874999881         0.746953309         0.219953939
     0.125000268         0.496919215         0.280066431
     0.125000268         0.996919215         0.280066431
     0.625000238         0.496919215         0.280066431
     0.625000238         0.996919215         0.280066431
     0.374998391         0.003062675         0.719940245
     0.374998391         0.503062665         0.719940245
     0.874998391         0.003062675         0.719940245
     0.874998391         0.503062665         0.719940245
     0.125001118         0.253020227         0.780033708
     0.125001118         0.753020227         0.780033708
     0.625001132         0.253020227         0.780033708
     0.625001132         0.753020227         0.780033708
     0.032583151         0.115785673         0.129114553
     0.032583151         0.615785658         0.129114553
     0.532583177         0.115785673         0.129114553
     0.532583177         0.615785658         0.129114553
     0.217422828         0.115788303         0.129116625
     0.217422828         0.615788281         0.129116625
     0.717422843         0.115788303         0.129116625
     0.717422843         0.615788281         0.129116625
     0.282610059         0.365780413         0.370881647
     0.282610059         0.865780413         0.370881647
     0.782610059         0.365780413         0.370881647
     0.782610059         0.865780413         0.370881647
     0.467385828         0.365778685         0.370883763
     0.467385828         0.865778685         0.370883763
     0.967385828         0.365778685         0.370883763
     0.967385828         0.865778685         0.370883763
     0.032658506         0.134237558         0.629202306
     0.032658506         0.634237528         0.629202306
     0.532658517         0.134237558         0.629202306
     0.532658517         0.634237528         0.629202306
     0.217348933         0.134233057         0.629201531
     0.217348933         0.634233057         0.629201531
     0.717348933         0.134233057         0.629201531
     0.717348933         0.634233057         0.629201531
     0.282597810         0.384227365         0.870873988
     0.282597810         0.884227395         0.870873988
     0.782597780         0.384227365         0.870873988
     0.782597780         0.884227395         0.870873988
     0.467387646         0.384234875         0.870874405
     0.467387646         0.884234905         0.870874405
     0.967387676         0.384234875         0.870874405
     0.967387676         0.884234905         0.870874405
