Ca2 V6 Fe4 Cu2 O24
1.0
   6.7151990000000001    0.0000000000000000    0.0000000000000000
  -1.7784909999999989    8.0448439999999994    0.0000000000000000
  -2.3257099999999999   -3.5078000000000000    9.0327470000000005
Ca V Fe Cu O
2 6 4 2 24
direct
   0.0569890000000000    0.0113850000000000    0.0201680000000000 Ca
   0.6008900000000000    0.9571729999999991    0.9228409999999990 Ca
   0.2212450000000000    0.1632630000000000    0.7640690000000000 V
   0.4094400000000000    0.2284300000000000    0.3752900000000000 V
   0.8820450000000000    0.3923020000000000    0.1606169999999990 V
   0.1170770000000000    0.6030670000000000    0.8354819999999999 V
   0.5866859999999990    0.7706540000000000    0.6231869999999990 V
   0.7747219999999990    0.8375389999999990    0.2337020000000000 V
   0.9560320000000000    0.2960270000000000    0.4859679999999990 Fe
   0.6211909999999990    0.5527759999999990    0.8935639999999990 Fe
   0.3779400000000001    0.4448769999999990    0.1064020000000000 Fe
   0.0445800000000000    0.7041740000000000    0.5124560000000000 Fe
   0.7208390000000000    0.2148969999999990    0.7052210000000000 Cu
   0.2679800000000000    0.7800849999999990    0.2845910000000000 Cu
   0.8170430000000000    0.0562859999999990    0.3218430000000000 O
   0.2230810000000000    0.1988990000000000    0.9468460000000000 O
   0.9984019999999991    0.2160590000000000    0.6643080000000000 O
   0.3031060000000000    0.0060970000000000    0.2611290000000000 O
   0.4793309999999991    0.2783040000000000    0.7634670000000000 O
   0.6607179999999990    0.2711440000000000    0.5091410000000000 O
   0.8344849999999990    0.1742250000000000    0.0687050000000000 O
   0.8743019999999990    0.4927249999999990    0.8522050000000000 O
   0.2339520000000000    0.2858110000000000    0.4686559999999990 O
   0.9178189999999991    0.4378880000000000    0.3519870000000000 O
   0.3309590000000000    0.5297670000000000    0.9219379999999990 O
   0.4324780000000000    0.3482270000000000    0.2587190000000000 O
   0.5587900000000000    0.6626300000000001    0.7476130000000000 O
   0.6687870000000000    0.4670600000000000    0.0767419999999990 O
   0.0790160000000000    0.5582020000000000    0.6430810000000000 O
   0.7692300000000001    0.7184959999999990    0.5358649999999990 O
   0.1239310000000000    0.5101249999999991    0.1477180000000000 O
   0.1762850000000000    0.8214349999999990    0.9229919999999990 O
   0.3380039999999990    0.7258920000000000    0.4890120000000000 O
   0.5186590000000000    0.7228859999999990    0.2349989999999990 O
   0.6766059999999990    0.9939319999999990    0.7419990000000000 O
   0.9944639999999991    0.7791300000000001    0.3318919999999990 O
   0.7659509999999990    0.8063610000000000    0.0484900000000000 O
   0.1859430000000000    0.9438670000000000    0.6791969999999991 O
