Ca V  Fe Cu O 
 1.0000000000000000
     6.7151990000000001    0.0000000000000000    0.0000000000000000
    -1.7784909999999989    8.0448439999999994    0.0000000000000000
    -2.3257099999999999   -3.5078000000000000    9.0327470000000005
 Ca  V   Fe  Cu  O  
   2   6   4   2  24
Cartesian
  0.3209460736501311  0.0272450233666283  0.5753558260831404
 -0.3689931084638721  4.5638436794749335  8.1970326304610364
 -0.5286216367462834 -1.3343851700411551  6.8314704111600095
  1.4772055061214158  0.5680222219995781  3.4379955220670309
  4.8119502985338398  2.6851642036717100  1.4697141742825894
 -2.2124849352509788  1.8517350731133853  7.5299659527646989
  1.1596583516194272  3.9622386960090310  5.5900632936509602
  3.1552456899611827  5.8838492120127937  2.1467645673158984
  4.7949184937389422  0.6937575997037109  4.3668694759536262
  1.1120776631373528  1.2884378955845099  8.0345920429795825
  1.4786215123402349  3.2760385896531878  0.9573058024018196
 -2.1147612234372746  3.8550838780697045  4.6347330685155823
  2.8150112020039080 -0.8073292498180548  6.1134244582607087
 -0.2002648777701075  5.3060106865077090  2.8027712738203778
  4.6869839103294133 -0.6740914691642914  2.9222332852047006
 -0.8205142852315296 -1.7604943750536977  8.5354716925320311
  4.8405462351986941 -0.6136369788484769  5.9431055800370247
  1.3782936500975103 -0.8497148859002405  2.4250633681302025
  0.9841748026423208 -0.4261640045556073  6.8363798446826527
  2.8087384413178733  0.5060809044139548  4.5967541865046853
  5.0064811219995597  1.2069892504737800  0.6272115245469658
  3.0127767411412498  1.0365681444545431  7.7229263642483614
  0.0105092011643360  0.7180802123816371  4.3042289848847926
  4.5739827132623967  2.3225669526449892  3.1845183576033445
 -0.8660265480733056  0.9339220025055006  8.2783784368017130
  1.5437859744143643  1.7911770122506501  2.1884413171969457
  0.7543863549305799  2.7677821671035243  6.8230741508636665
  3.4630956881802950  3.5665024610964640  0.6977720878825034
 -1.9396886055510518  2.2127351251481331  5.8275534400185309
  2.6732319087155689  3.7962094011493366  4.8221524952127588
 -0.4467905559080024  3.5638660740853463  1.2321780948327956
 -2.2888099422699084  3.3214157111901108  8.4002882997089241
 -0.1237076184979621  4.0433632750368078  4.3811604584750059
  1.6511426080164213  4.9651693697897263  2.1544209485939461
  1.1358731079031019  5.3753944555506186  6.6210289990044302
  4.4812358989213310  5.0768118051086928  3.0195006781788041
  3.5611684847814224  6.3205287851835203  0.4440647518474710
 -1.8781901243676133  5.1864671469152519  6.1522667574846830
