Ca V  O                                 
   1.00000000000000     
     8.7598794718674977   -0.0074392053278673   -0.0005673234563931
     2.9188648165828024   14.2626484398372035    0.3578817153380298
     2.9379311437829667   -0.3647893748316900   13.9925721752401220
   Ca   V    O 
    11    48    96
Direct
  0.4270757166948526  0.5481583164380035  0.5078096196754047
  0.1745718256794490  0.0372919867186230  0.4524727698295868
  0.1192738349051972  0.0653951549204260  0.0155111978408565
  0.1753841900040365  0.5317643826279750  0.9539540919252286
  0.5331829720143122  0.9688520047681561  0.4326778714214453
  0.4933902457172808  0.0625879538686115  0.0146492543506972
  0.5315067328025599  0.4677890282101334  0.9359663857065543
  0.8320975229072769  0.0353997291074136  0.4561970812192363
  0.8645123666444453  0.9287053457922875  0.9791236574305627
  0.8630653291159327  0.5502489659312652  0.5066710612336197
  0.8301095755577658  0.5347024901958629  0.9540347579855414
  0.2181809576072674  0.0935415072443658  0.2430365752704019
  0.2096294585248688  0.0880114542595585  0.7872621153277765
  0.2062450105237480  0.5920463216904184  0.2844595294133596
  0.2250942096303759  0.5871604962534024  0.7408742554753831
  0.5571504734381534  0.0920776646519095  0.2434051162727933
  0.5397082671604407  0.0902712670021724  0.7835679806221594
  0.5338985871640676  0.5921489595445922  0.2771200347338922
  0.5558307731947085  0.5885151823458594  0.7443767221156389
  0.8898633661897376  0.0906462233951105  0.2439237320085017
  0.8866159114427721  0.0866624346881361  0.7870181071366311
  0.8628362940893338  0.5933578103113483  0.2767396644692141
  0.8896693556833802  0.5882853547386753  0.7417618164258863
  0.0475203972832992  0.2660423262007353  0.0962690728702461
  0.0681606591084449  0.2149812241726185  0.5992465987376657
  0.0633698006920815  0.7194342986523938  0.0988666963870915
  0.0496223903695530  0.7533844693152315  0.5909144674474951
  0.3763503492108574  0.2635164394046637  0.0952056873017025
  0.3955510748211746  0.2101412839623553  0.5962425513546706
  0.3947152402071678  0.7148852442884321  0.0932611726398460
  0.3938655883768169  0.7553457832119310  0.5894008147042483
  0.7191959090125225  0.2564929621646389  0.0950569930533680
  0.7243035189330750  0.2134242820415415  0.6018973456410965
  0.7163833841386176  0.7234933270597869  0.0941598917526120
  0.7154082335332348  0.7573636597545342  0.5905899814643510
  0.2860817714672937  0.2490382197322702  0.4104965842461660
  0.2650653948183104  0.2800788359486178  0.9085236083620613
  0.2621762713674224  0.7837710208119418  0.4061049519065555
  0.2833272751649205  0.7465728031189707  0.9096571820871348
  0.6115192925621513  0.2469004683459761  0.4103552295318670
  0.6171329448763081  0.2651164724089034  0.9064074022451503
  0.6094170876710683  0.7667688243253689  0.3993270332053618
  0.6069755435892416  0.7471255282870748  0.9087626978761746
  0.9446416409792987  0.2526329294894858  0.4102748032639150
  0.9433892917918671  0.2821206521038840  0.9086149569862777
  0.9460960725405958  0.7822644231900757  0.4052508686366612
  0.9560447428872486  0.7366901431596629  0.9031423341395867
  0.1137055105127716  0.4161231793816332  0.2607280398455584
  0.1266727544926740  0.4036389297496037  0.7184652350786053
  0.1255484820994543  0.9081723679014816  0.2152227876518669
  0.1207873374037189  0.9031178010616306  0.7506864648343868
  0.4473295796041839  0.4093361041107417  0.2577372341369766
  0.4600642684119337  0.4000622874285989  0.7208870594186648
  0.4505632506293531  0.9083342556894864  0.2176997260706383
  0.4438593348573530  0.9081633060586856  0.7572977629975309
  0.7719729050099540  0.4131957004666575  0.2587743255933332
  0.7933029469876620  0.3994005735416395  0.7198757237956952
  0.7957550771155258  0.9070917342198745  0.2196818526083534
  0.7738492089758036  0.9081967006378756  0.7543584319944516
  0.2730817398864528  0.3486568205665112  0.3274655981480090
  0.2795895536262510  0.3553982618652475  0.8008386035155004
  0.2820520113819063  0.8594677857714790  0.2978796596281119
  0.2764811489407127  0.8434755828430472  0.8226638126277318
  0.6112025523235297  0.3476172241602942  0.3275788729267642
  0.6130995952816465  0.3558167313098545  0.8056315703260554
  0.6128188214145295  0.8598817950588721  0.2978244373030863
  0.6122939271519161  0.8439791723361805  0.8224773092472105
  0.9417859569082633  0.3493344507097871  0.3270431182093021
  0.9483461663079752  0.3560405914818212  0.8001645156318878
  0.9474660282789025  0.8589949097145119  0.2973364224329400
  0.9457792671411133  0.8444215976742317  0.8255794738727122
  0.1563814981293379  0.1754642430651616  0.3521403924260860
  0.1463999241668073  0.1979273062738320  0.8620893165523459
  0.1486325996750416  0.7034049074255497  0.3555823104246117
  0.1643461528870876  0.6706000067617740  0.8486314959107997
  0.4910309411803599  0.1793739963425877  0.3459417742772357
  0.4781163850045196  0.1982541196685479  0.8643935915227564
  0.4799358685097068  0.7003478924724734  0.3544267992875583
  0.4928770982911925  0.6779433956399669  0.8438824795387065
  0.8265475749379021  0.1738299885589031  0.3530229161348767
  0.8183618636106553  0.1978982354531991  0.8610138783536099
  0.8191198624186165  0.7026523278787988  0.3561950845045237
  0.8210567972136036  0.6715622787620019  0.8505579783539768
  0.1733281609619842  0.3244805386011987  0.1613328240096581
  0.1868838622074647  0.2930536767789254  0.6464170828048471
  0.1849645347463412  0.7970864508100755  0.1430051618802904
  0.1805335903760053  0.8166844963057984  0.6532526069563581
  0.5074215396745237  0.3212380660849271  0.1574848822350725
  0.5228111683116172  0.2911064808169683  0.6485901520177788
  0.5162252913130408  0.7986596698836080  0.1425886736769909
  0.5076957370904719  0.8203804938963504  0.6564267424417911
  0.8368058683218638  0.3229486763754842  0.1597845002150051
  0.8531732511236756  0.2902869302656965  0.6473301303963480
  0.8519499173022863  0.7986122163000277  0.1396194767862270
  0.8440254766790612  0.8193399599472880  0.6561192075810980
  0.0543733538571723  0.1545636495153045  0.1771227805189637
  0.0509374937090883  0.1372337214183323  0.7068780582395697
  0.0490267922329421  0.6405593383940591  0.2037086119541314
  0.0575389219469301  0.6493722994323560  0.6787705353954263
  0.3904075545727068  0.1522075954333338  0.1772190604710899
  0.3877179920570337  0.1380862295539008  0.7069874813165400
  0.3803933386074081  0.6413136784245578  0.2012718214079617
  0.3938025865117334  0.6465436208089835  0.6728082125978908
  0.7239477924381935  0.1540757401930586  0.1817155899098503
  0.7221570512432050  0.1348223123572063  0.7111804241565659
  0.7189883823965750  0.6433010734921338  0.1988778434012389
  0.7276390103726944  0.6481622539068820  0.6739660450296940
  0.0555035769749620  0.0196065294154921  0.3140739855404345
  0.0410762860300511  0.0201296348409532  0.8658989513362327
  0.0323315178983188  0.5295372186208119  0.3525557090024625
  0.0553845373098932  0.5181516729399175  0.8154366574752084
  0.3873966647176519  0.0201340765538640  0.3134073220725720
  0.3728006130470799  0.0245921243566175  0.8609401964157184
  0.3751131344275019  0.5255202472054833  0.3532303528183872
  0.3898092271544181  0.5159418364459434  0.8157355579618984
  0.7240202162982049  0.0189400617799764  0.3147876112961097
  0.7079353959593588  0.0199240874841255  0.8631108365386878
  0.7012779324747189  0.5285890851668946  0.3544948441516073
  0.7219062165258973  0.5163441609018951  0.8154674316186397
  0.2599608776033111  0.1912851771905724  0.0232961042816544
  0.2789912162588734  0.1435755577631515  0.5234202158158890
  0.2744072273919481  0.6471325714296912  0.0219741374890696
  0.2646674306220178  0.6956247298160796  0.5184513787561360
  0.5926213751324928  0.1947395968608176  0.0250049124189566
  0.6092893476955633  0.1428407444550208  0.5247182891794150
  0.6077255223162631  0.6472245744556510  0.0209870720762003
  0.6015864444251934  0.6857405770271189  0.5164532761420974
  0.9290753878631756  0.1985321781100700  0.0228606641240647
  0.9457596254087538  0.1402007480140487  0.5252777164280038
  0.9449475946904655  0.6438662125327669  0.0181882407773862
  0.9295960584832800  0.6942916586607266  0.5178947871943700
  0.2752689085479824  0.4811712867561540  0.2004864315189746
  0.2959499761743326  0.4736628938318054  0.6541448860257277
  0.2882155285580352  0.9836276206362473  0.1463336401117388
  0.2718598892290072  0.9793099798966474  0.7012930040153866
  0.6082586489857708  0.4811669794103575  0.1970399519650471
  0.6239272766955910  0.4732433876798548  0.6563333303384797
  0.6235143193283724  0.9787819053888798  0.1470453878438442
  0.6068627907746811  0.9790000790748040  0.7009931612445751
  0.9405740882626982  0.4788686603633213  0.2019592556026871
  0.9510661727197456  0.4743326618392368  0.6554821788896260
  0.9598331017298916  0.9788347368192251  0.1432150904069266
  0.9418260173013896  0.9745768938147423  0.7052707730359239
  0.0713029297459132  0.2952691135864915  0.4841615121763453
  0.0580807179140450  0.3538775482819108  0.9785615502551122
  0.0570763804933338  0.8538284882912230  0.4763359731971857
  0.0696354938062872  0.8001676391670279  0.9805984239107773
  0.4075200507103635  0.2977975527204195  0.4865698232204331
  0.3904020539119051  0.3488029235597406  0.9764697409538152
  0.3984485315264180  0.8465888878192899  0.4728509168067221
  0.4045188155976731  0.8003137192521949  0.9815058547895510
  0.7420274190385003  0.2937233165104217  0.4856967695594689
  0.7265528809553424  0.3488156985397904  0.9758307188995597
  0.7258701806292112  0.8478790018625960  0.4729178598748685
  0.7426687277372090  0.8010649249755069  0.9776739811314049
 
  0.00000000E+00  0.00000000E+00  0.00000000E+00
  0.00000000E+00  0.00000000E+00  0.00000000E+00
  0.00000000E+00  0.00000000E+00  0.00000000E+00
  0.00000000E+00  0.00000000E+00  0.00000000E+00
  0.00000000E+00  0.00000000E+00  0.00000000E+00
  0.00000000E+00  0.00000000E+00  0.00000000E+00
  0.00000000E+00  0.00000000E+00  0.00000000E+00
  0.00000000E+00  0.00000000E+00  0.00000000E+00
  0.00000000E+00  0.00000000E+00  0.00000000E+00
  0.00000000E+00  0.00000000E+00  0.00000000E+00
  0.00000000E+00  0.00000000E+00  0.00000000E+00
  0.00000000E+00  0.00000000E+00  0.00000000E+00
  0.00000000E+00  0.00000000E+00  0.00000000E+00
  0.00000000E+00  0.00000000E+00  0.00000000E+00
  0.00000000E+00  0.00000000E+00  0.00000000E+00
  0.00000000E+00  0.00000000E+00  0.00000000E+00
  0.00000000E+00  0.00000000E+00  0.00000000E+00
  0.00000000E+00  0.00000000E+00  0.00000000E+00
  0.00000000E+00  0.00000000E+00  0.00000000E+00
  0.00000000E+00  0.00000000E+00  0.00000000E+00
  0.00000000E+00  0.00000000E+00  0.00000000E+00
  0.00000000E+00  0.00000000E+00  0.00000000E+00
  0.00000000E+00  0.00000000E+00  0.00000000E+00
  0.00000000E+00  0.00000000E+00  0.00000000E+00
  0.00000000E+00  0.00000000E+00  0.00000000E+00
  0.00000000E+00  0.00000000E+00  0.00000000E+00
  0.00000000E+00  0.00000000E+00  0.00000000E+00
  0.00000000E+00  0.00000000E+00  0.00000000E+00
  0.00000000E+00  0.00000000E+00  0.00000000E+00
  0.00000000E+00  0.00000000E+00  0.00000000E+00
  0.00000000E+00  0.00000000E+00  0.00000000E+00
  0.00000000E+00  0.00000000E+00  0.00000000E+00
  0.00000000E+00  0.00000000E+00  0.00000000E+00
  0.00000000E+00  0.00000000E+00  0.00000000E+00
  0.00000000E+00  0.00000000E+00  0.00000000E+00
  0.00000000E+00  0.00000000E+00  0.00000000E+00
  0.00000000E+00  0.00000000E+00  0.00000000E+00
  0.00000000E+00  0.00000000E+00  0.00000000E+00
  0.00000000E+00  0.00000000E+00  0.00000000E+00
  0.00000000E+00  0.00000000E+00  0.00000000E+00
  0.00000000E+00  0.00000000E+00  0.00000000E+00
  0.00000000E+00  0.00000000E+00  0.00000000E+00
  0.00000000E+00  0.00000000E+00  0.00000000E+00
  0.00000000E+00  0.00000000E+00  0.00000000E+00
  0.00000000E+00  0.00000000E+00  0.00000000E+00
  0.00000000E+00  0.00000000E+00  0.00000000E+00
  0.00000000E+00  0.00000000E+00  0.00000000E+00
  0.00000000E+00  0.00000000E+00  0.00000000E+00
  0.00000000E+00  0.00000000E+00  0.00000000E+00
  0.00000000E+00  0.00000000E+00  0.00000000E+00
  0.00000000E+00  0.00000000E+00  0.00000000E+00
  0.00000000E+00  0.00000000E+00  0.00000000E+00
  0.00000000E+00  0.00000000E+00  0.00000000E+00
  0.00000000E+00  0.00000000E+00  0.00000000E+00
  0.00000000E+00  0.00000000E+00  0.00000000E+00
  0.00000000E+00  0.00000000E+00  0.00000000E+00
  0.00000000E+00  0.00000000E+00  0.00000000E+00
  0.00000000E+00  0.00000000E+00  0.00000000E+00
  0.00000000E+00  0.00000000E+00  0.00000000E+00
  0.00000000E+00  0.00000000E+00  0.00000000E+00
  0.00000000E+00  0.00000000E+00  0.00000000E+00
  0.00000000E+00  0.00000000E+00  0.00000000E+00
  0.00000000E+00  0.00000000E+00  0.00000000E+00
  0.00000000E+00  0.00000000E+00  0.00000000E+00
  0.00000000E+00  0.00000000E+00  0.00000000E+00
  0.00000000E+00  0.00000000E+00  0.00000000E+00
  0.00000000E+00  0.00000000E+00  0.00000000E+00
  0.00000000E+00  0.00000000E+00  0.00000000E+00
  0.00000000E+00  0.00000000E+00  0.00000000E+00
  0.00000000E+00  0.00000000E+00  0.00000000E+00
  0.00000000E+00  0.00000000E+00  0.00000000E+00
  0.00000000E+00  0.00000000E+00  0.00000000E+00
  0.00000000E+00  0.00000000E+00  0.00000000E+00
  0.00000000E+00  0.00000000E+00  0.00000000E+00
  0.00000000E+00  0.00000000E+00  0.00000000E+00
  0.00000000E+00  0.00000000E+00  0.00000000E+00
  0.00000000E+00  0.00000000E+00  0.00000000E+00
  0.00000000E+00  0.00000000E+00  0.00000000E+00
  0.00000000E+00  0.00000000E+00  0.00000000E+00
  0.00000000E+00  0.00000000E+00  0.00000000E+00
  0.00000000E+00  0.00000000E+00  0.00000000E+00
  0.00000000E+00  0.00000000E+00  0.00000000E+00
  0.00000000E+00  0.00000000E+00  0.00000000E+00
  0.00000000E+00  0.00000000E+00  0.00000000E+00
  0.00000000E+00  0.00000000E+00  0.00000000E+00
  0.00000000E+00  0.00000000E+00  0.00000000E+00
  0.00000000E+00  0.00000000E+00  0.00000000E+00
  0.00000000E+00  0.00000000E+00  0.00000000E+00
  0.00000000E+00  0.00000000E+00  0.00000000E+00
  0.00000000E+00  0.00000000E+00  0.00000000E+00
  0.00000000E+00  0.00000000E+00  0.00000000E+00
  0.00000000E+00  0.00000000E+00  0.00000000E+00
  0.00000000E+00  0.00000000E+00  0.00000000E+00
  0.00000000E+00  0.00000000E+00  0.00000000E+00
  0.00000000E+00  0.00000000E+00  0.00000000E+00
  0.00000000E+00  0.00000000E+00  0.00000000E+00
  0.00000000E+00  0.00000000E+00  0.00000000E+00
  0.00000000E+00  0.00000000E+00  0.00000000E+00
  0.00000000E+00  0.00000000E+00  0.00000000E+00
  0.00000000E+00  0.00000000E+00  0.00000000E+00
  0.00000000E+00  0.00000000E+00  0.00000000E+00
  0.00000000E+00  0.00000000E+00  0.00000000E+00
  0.00000000E+00  0.00000000E+00  0.00000000E+00
  0.00000000E+00  0.00000000E+00  0.00000000E+00
  0.00000000E+00  0.00000000E+00  0.00000000E+00
  0.00000000E+00  0.00000000E+00  0.00000000E+00
  0.00000000E+00  0.00000000E+00  0.00000000E+00
  0.00000000E+00  0.00000000E+00  0.00000000E+00
  0.00000000E+00  0.00000000E+00  0.00000000E+00
  0.00000000E+00  0.00000000E+00  0.00000000E+00
  0.00000000E+00  0.00000000E+00  0.00000000E+00
  0.00000000E+00  0.00000000E+00  0.00000000E+00
  0.00000000E+00  0.00000000E+00  0.00000000E+00
  0.00000000E+00  0.00000000E+00  0.00000000E+00
  0.00000000E+00  0.00000000E+00  0.00000000E+00
  0.00000000E+00  0.00000000E+00  0.00000000E+00
  0.00000000E+00  0.00000000E+00  0.00000000E+00
  0.00000000E+00  0.00000000E+00  0.00000000E+00
  0.00000000E+00  0.00000000E+00  0.00000000E+00
  0.00000000E+00  0.00000000E+00  0.00000000E+00
  0.00000000E+00  0.00000000E+00  0.00000000E+00
  0.00000000E+00  0.00000000E+00  0.00000000E+00
  0.00000000E+00  0.00000000E+00  0.00000000E+00
  0.00000000E+00  0.00000000E+00  0.00000000E+00
  0.00000000E+00  0.00000000E+00  0.00000000E+00
  0.00000000E+00  0.00000000E+00  0.00000000E+00
  0.00000000E+00  0.00000000E+00  0.00000000E+00
  0.00000000E+00  0.00000000E+00  0.00000000E+00
  0.00000000E+00  0.00000000E+00  0.00000000E+00
  0.00000000E+00  0.00000000E+00  0.00000000E+00
  0.00000000E+00  0.00000000E+00  0.00000000E+00
  0.00000000E+00  0.00000000E+00  0.00000000E+00
  0.00000000E+00  0.00000000E+00  0.00000000E+00
  0.00000000E+00  0.00000000E+00  0.00000000E+00
  0.00000000E+00  0.00000000E+00  0.00000000E+00
  0.00000000E+00  0.00000000E+00  0.00000000E+00
  0.00000000E+00  0.00000000E+00  0.00000000E+00
  0.00000000E+00  0.00000000E+00  0.00000000E+00
  0.00000000E+00  0.00000000E+00  0.00000000E+00
  0.00000000E+00  0.00000000E+00  0.00000000E+00
  0.00000000E+00  0.00000000E+00  0.00000000E+00
  0.00000000E+00  0.00000000E+00  0.00000000E+00
  0.00000000E+00  0.00000000E+00  0.00000000E+00
  0.00000000E+00  0.00000000E+00  0.00000000E+00
  0.00000000E+00  0.00000000E+00  0.00000000E+00
  0.00000000E+00  0.00000000E+00  0.00000000E+00
  0.00000000E+00  0.00000000E+00  0.00000000E+00
  0.00000000E+00  0.00000000E+00  0.00000000E+00
  0.00000000E+00  0.00000000E+00  0.00000000E+00
  0.00000000E+00  0.00000000E+00  0.00000000E+00
  0.00000000E+00  0.00000000E+00  0.00000000E+00
  0.00000000E+00  0.00000000E+00  0.00000000E+00
  0.00000000E+00  0.00000000E+00  0.00000000E+00
  0.00000000E+00  0.00000000E+00  0.00000000E+00
  0.00000000E+00  0.00000000E+00  0.00000000E+00
