Ca Mn V  P  O 
1.0
        9.8830623627         0.0000000000         0.0000000000
       -4.7459291716         8.6580503486         0.0000000000
        1.3485740533         2.2692002105         6.9402554821
   Ca   Mn    V    P    O
    3    1    3    8   28
Direct
     0.049082506         0.453597367         0.264430493
     0.294986695         0.199115112         0.733997166
     0.796759427         0.702659667         0.738247871
     0.267735630         0.256283104         0.257353306
     0.758354068         0.751872599         0.268350393
     0.497616053         0.990943313         0.730701208
     0.999242365         0.490698546         0.731554866
     0.348889410         0.540025115         0.500495315
     0.845665038         0.039187074         0.498826474
     0.674251914         0.437248737         0.107237712
     0.169912711         0.937841535         0.104553290
     0.311311066         0.582056403         0.893891454
     0.810205281         0.079390585         0.893661737
     0.208061054         0.900889158         0.502789080
     0.712332785         0.403084546         0.501217246
     0.184551254         0.104004234         0.075103357
     0.004508161         0.198738530         0.384445757
     0.194811016         0.045770049         0.524641693
     0.292590141         0.470631063         0.081535719
     0.506090820         0.286025405         0.171819106
     0.340628088         0.389731377         0.463145614
     0.201190248         0.550031483         0.483543932
     0.696908534         0.047572311         0.482542038
     0.551717222         0.243134305         0.612701774
     0.048842240         0.739125550         0.613908529
     0.645664334         0.067497969         0.917092800
     0.145678803         0.567717433         0.917331040
     0.337691426         0.496872842         0.729838133
     0.761088252         0.415903121         0.271654665
     0.253303021         0.915040255         0.272387683
     0.680663049         0.599430859         0.085047916
     0.508152723         0.700505912         0.385243624
     0.701403558         0.550337791         0.517783284
     0.861578703         0.410483360         0.540757060
     0.359035820         0.909833968         0.538236976
     0.957523704         0.250011265         0.831831396
     0.458137304         0.752707481         0.830697656
     0.282450199         0.952374518         0.921558678
     0.787751019         0.460282981         0.919065237
     0.790693521         0.966374874         0.080108620
     0.998487115         0.791849256         0.168316498
     0.837073386         0.888088763         0.462559819
     0.835181057         0.994673669         0.728204608
