Ca V  Cr P  O                           
   1.00000000000000     
     9.8034191132000004    0.0000000000000000    0.0000000000000000
     0.0310846032000000    8.1394794092999998    0.0000000000000000
    -2.1279917691999999   -0.0524358375000000    6.8508461865000001
   Ca   V    Cr   P    O 
     1     2     2     8    28
Selective dynamics
Direct
  0.6118334948823616  0.9144216076638116  0.7346131945436838   T   T   T
  0.1102194913309447  0.5019369466782848  0.7293316886704062   T   T   T
  0.6032518435257899  0.4900222779553829  0.7248251187003873   T   T   T
  0.3858077437283640  0.0043143202390112  0.2650682175869505   T   T   T
  0.8908978222661759  0.0022273158766737  0.2635178293489346   T   T   T
  0.1905837751637378  0.1868973547406796  0.4992704127411045   T   T   T
  0.6950814990634058  0.1959813566764410  0.4904479109941633   T   T   T
  0.1174020355536314  0.7684971997417094  0.1067279164901151   T   T   T
  0.6152701535270069  0.7620428225016838  0.1143317170488132   T   T   T
  0.3786346115281347  0.2617183017015634  0.8886119659144143   T   T   T
  0.8823419845833200  0.2687101274479247  0.8883001352171149   T   T   T
  0.3059137051059366  0.6879288504009082  0.4985088441548982   T   T   T
  0.8076576621694684  0.6910972927043844  0.4908592508447001   T   T   T
  0.0097620000269316  0.3265408727714032  0.8256913621573148   T   T   T
  0.5105142311765789  0.3120980092130665  0.8246656608229515   T   T   T
  0.0886013129972127  0.6545325131904178  0.9271974368453684   T   T   T
  0.5750396264475697  0.6678263683394263  0.9169827603061407   T   T   T
  0.0707959730523342  0.0619025919493481  0.4506052108742651   T   T   T
  0.5743848138323031  0.0680381163253045  0.4575638669452147   T   T   T
  0.1375654353226352  0.3635833618855813  0.5235607916764380   T   T   T
  0.6410926574873912  0.3704275407556281  0.5099855718184045   T   T   T
  0.2121589911021857  0.6764546264698410  0.6352606166611565   T   T   T
  0.7085138643972186  0.6855024004041894  0.6253005761434594   T   T   T
  0.2856701429538404  0.4139066442722594  0.8972784666952904   T   T   T
  0.7812898372836443  0.4163471779552808  0.8920588041788093   T   T   T
  0.2879717752148565  0.1386995446226820  0.7198381971355232   T   T   T
  0.7870501642365824  0.1439462142276895  0.7153689652515709   T   T   T
  0.2100363875096747  0.6487768128625007  0.2817747810321407   T   T   T
  0.7137282410667041  0.6377003200251110  0.2715874570339807   T   T   T
  0.2109996540391705  0.9155140567797915  0.0949745998812048   T   T   T
  0.7046627909950942  0.9118474333181581  0.0821804069167342   T   T   T
  0.2869318643025878  0.1814755849572407  0.3670527039017202   T   T   T
  0.7858640574388858  0.1833898015927033  0.3545559017314730   T   T   T
  0.3745538043317609  0.8594508553450524  0.4996817727917744   T   T   T
  0.8556509373077716  0.8669293049217615  0.4759570463006497   T   T   T
  0.4260647021281869  0.5579534489558142  0.5499382148579812   T   T   T
  0.9274406181534829  0.5649117978918170  0.5510486012216234   T   T   T
  0.4227510493742201  0.1597381776458491  0.0720455372319790   T   T   T
  0.9189160780190164  0.1635470499210143  0.0673684992326784   T   T   T
  0.4884267202709296  0.8142517759436032  0.1796951946959169   T   T   T
  0.9800293201029291  0.8175203161289843  0.1508441844025512   T   T   T
 
  0.00000000E+00  0.00000000E+00  0.00000000E+00
  0.00000000E+00  0.00000000E+00  0.00000000E+00
  0.00000000E+00  0.00000000E+00  0.00000000E+00
  0.00000000E+00  0.00000000E+00  0.00000000E+00
  0.00000000E+00  0.00000000E+00  0.00000000E+00
  0.00000000E+00  0.00000000E+00  0.00000000E+00
  0.00000000E+00  0.00000000E+00  0.00000000E+00
  0.00000000E+00  0.00000000E+00  0.00000000E+00
  0.00000000E+00  0.00000000E+00  0.00000000E+00
  0.00000000E+00  0.00000000E+00  0.00000000E+00
  0.00000000E+00  0.00000000E+00  0.00000000E+00
  0.00000000E+00  0.00000000E+00  0.00000000E+00
  0.00000000E+00  0.00000000E+00  0.00000000E+00
  0.00000000E+00  0.00000000E+00  0.00000000E+00
  0.00000000E+00  0.00000000E+00  0.00000000E+00
  0.00000000E+00  0.00000000E+00  0.00000000E+00
  0.00000000E+00  0.00000000E+00  0.00000000E+00
  0.00000000E+00  0.00000000E+00  0.00000000E+00
  0.00000000E+00  0.00000000E+00  0.00000000E+00
  0.00000000E+00  0.00000000E+00  0.00000000E+00
  0.00000000E+00  0.00000000E+00  0.00000000E+00
  0.00000000E+00  0.00000000E+00  0.00000000E+00
  0.00000000E+00  0.00000000E+00  0.00000000E+00
  0.00000000E+00  0.00000000E+00  0.00000000E+00
  0.00000000E+00  0.00000000E+00  0.00000000E+00
  0.00000000E+00  0.00000000E+00  0.00000000E+00
  0.00000000E+00  0.00000000E+00  0.00000000E+00
  0.00000000E+00  0.00000000E+00  0.00000000E+00
  0.00000000E+00  0.00000000E+00  0.00000000E+00
  0.00000000E+00  0.00000000E+00  0.00000000E+00
  0.00000000E+00  0.00000000E+00  0.00000000E+00
  0.00000000E+00  0.00000000E+00  0.00000000E+00
  0.00000000E+00  0.00000000E+00  0.00000000E+00
  0.00000000E+00  0.00000000E+00  0.00000000E+00
  0.00000000E+00  0.00000000E+00  0.00000000E+00
  0.00000000E+00  0.00000000E+00  0.00000000E+00
  0.00000000E+00  0.00000000E+00  0.00000000E+00
  0.00000000E+00  0.00000000E+00  0.00000000E+00
  0.00000000E+00  0.00000000E+00  0.00000000E+00
  0.00000000E+00  0.00000000E+00  0.00000000E+00
  0.00000000E+00  0.00000000E+00  0.00000000E+00
