Ca Mn P  O 
1.0
       10.2745342255         0.0000000000         0.0000000000
        8.0540475681         6.3795305873         0.0000000000
       -0.1592249828        -0.0554229131        10.9021340809
   Ca   Mn    P    O
    5    6    8   32
Direct
     0.379796147         0.620204568         0.000002189
     0.947836816         0.255942851         0.237215236
     0.744057119         0.052162431         0.762783408
     0.255997837         0.947952449         0.737220109
     0.052046239         0.744003117         0.262781978
     0.626038730         0.695088267         0.502255082
     0.695269108         0.625724971         0.002278114
     0.500087082         0.999919176         0.249974579
     0.304907858         0.373964369         0.497744232
     0.374273658         0.304731816         0.997722149
     0.000083327         0.499913067         0.750025570
     0.409133762         0.743807495         0.247771129
     0.743880332         0.409075469         0.747821331
     0.839882493         0.775521994         0.010476667
     0.160169750         0.224417135         0.489391744
     0.775638402         0.839817941         0.510588765
     0.256179750         0.590841830         0.752198696
     0.224464536         0.160127267         0.989527822
     0.590939105         0.256090760         0.252200186
     0.586389661         0.592526615         0.651475370
     0.232775792         0.250178427         0.880357385
     0.349785686         0.936408341         0.951148510
     0.792047262         0.229789719         0.702411592
     0.767385423         0.749614835         0.619689941
     0.673541069         0.833805978         0.406257570
     0.592682421         0.586122990         0.151523069
     0.063588887         0.650215566         0.048850104
     0.229728267         0.792037725         0.202538043
     0.936293542         0.349992633         0.450981110
     0.360796779         0.499187022         0.624482751
     0.499263644         0.360766977         0.124404170
     0.004835844         0.291665047         0.036157768
     0.407478511         0.413607180         0.348521143
     0.207957894         0.770296752         0.797468364
     0.500822902         0.639194012         0.375533670
     0.250376046         0.232609749         0.380324185
     0.166194126         0.326450318         0.593736887
     0.749821484         0.767224848         0.119640902
     0.833774507         0.673386872         0.906237185
     0.995075107         0.708625555         0.463984132
     0.679808319         0.047297474         0.251098335
     0.650004685         0.063706569         0.549020410
     0.047513030         0.679476798         0.751038134
     0.770207644         0.207955614         0.297586948
     0.326614231         0.166223869         0.093763374
     0.639243782         0.500728130         0.875580609
     0.320516437         0.952508569         0.248963252
     0.952720821         0.320183933         0.748900175
     0.413881928         0.407313913         0.848481357
     0.708328724         0.995174289         0.963840127
     0.291394830         0.004886627         0.536024868
