Mn4 V4 P16 O56
1.0
   8.1505880000000008    0.0000000000000000    0.0000000000000000
  -0.0787100000000000    9.9751820000000002    0.0000000000000000
  -0.4074939999999990   -4.4635179999999997   12.9075310000000005
Mn V P O
4 4 16 56
direct
   0.9924919999999990    0.6707480000000000    0.0617440000000000 Mn
   0.9933710000000000    0.4214859999999990    0.3135830000000000 Mn
   0.0071460000000000    0.9127480000000000    0.8082500000000000 Mn
   0.9937210000000000    0.1721659999999990    0.5629700000000001 Mn
   0.5052500000000001    0.8384900000000001    0.4411589999999990 V
   0.5049450000000000    0.0897360000000000    0.1933480000000000 V
   0.4954220000000000    0.5825520000000000    0.6903500000000000 V
   0.5056910000000000    0.3403540000000000    0.9416070000000000 V
   0.2194289999999990    0.9000929999999990    0.0095950000000000 P
   0.7126509999999990    0.8460660000000000    0.2389019999999990 P
   0.8238580000000000    0.3882900000000000    0.0909400000000000 P
   0.2179009999999990    0.6498619999999991    0.2585770000000000 P
   0.3211750000000000    0.3568639999999990    0.1584269999999990 P
   0.8223990000000000    0.8873840000000000    0.5898519999999990 P
   0.7114000000000000    0.5955600000000001    0.4904110000000000 P
   0.3182260000000000    0.8583980000000000    0.6579610000000000 P
   0.8236589999999990    0.1383980000000000    0.3408910000000000 P
   0.2176550000000000    0.4008700000000000    0.5094670000000000 P
   0.3206350000000000    0.1070570000000000    0.4090180000000000 P
   0.8248350000000000    0.6407619999999991    0.8407370000000000 P
   0.7129759999999991    0.3469460000000000    0.7391120000000000 P
   0.3217919999999990    0.6065210000000000    0.9081250000000000 P
   0.2187549999999990    0.1498180000000000    0.7590330000000000 P
   0.7106490000000000    0.0982680000000000    0.9910509999999991 P
   0.0667540000000000    0.8587400000000001    0.0565720000000000 O
   0.5602490000000000    0.9031389999999990    0.1960170000000000 O
   0.8501510000000000    0.9733579999999999    0.2752850000000000 O
   0.7979060000000000    0.7241390000000000    0.1655579999999990 O
   0.1737409999999990    0.6927130000000000    0.1635879999999990 O
   0.9619639999999990    0.4623690000000000    0.0534189999999990 O
   0.6527490000000000    0.4249830000000000    0.0579190000000000 O
   0.3287080000000000    0.3497560000000000    0.0436750000000000 O
   0.6638060000000000    0.8162229999999990    0.3384500000000000 O
   0.3128430000000000    0.7708360000000000    0.3407270000000000 O
   0.8505969999999990    0.2220859999999990    0.0249040000000000 O
   0.3472270000000000    0.5221439999999991    0.2264320000000000 O
   0.0665740000000000    0.6083240000000000    0.3068220000000000 O
   0.8273410000000000    0.4054169999999990    0.2054990000000000 O
   0.9615429999999990    0.9637620000000000    0.5557179999999990 O
   0.6515630000000000    0.9259759999999990    0.5578139999999990 O
   0.1557049999999990    0.3069460000000000    0.1828739999999990 O
   0.4651769999999991    0.2806820000000000    0.1902269999999990 O
   0.3296910000000000    0.8496119999999990    0.5430579999999990 O
   0.5605340000000000    0.6531250000000000    0.4462270000000000 O
   0.6658189999999991    0.0663170000000000    0.0897510000000000 O
   0.8494520000000000    0.7229909999999991    0.5257670000000000 O
   0.3140239999999990    0.0206370000000000    0.0920500000000000 O
   0.7968810000000000    0.4737820000000000    0.4170910000000000 O
   0.8225680000000000    0.9047949999999990    0.7055990000000000 O
   0.1731579999999990    0.4436469999999990    0.4141700000000000 O
   0.9616300000000001    0.2132389999999990    0.3037000000000000 O
   0.1521500000000000    0.8130419999999990    0.6804270000000000 O
   0.6523310000000000    0.1759750000000000    0.3083550000000000 O
   0.4634979999999990    0.7866050000000000    0.6944089999999991 O
   0.3281119999999990    0.0998660000000000    0.2939580000000000 O
   0.6588600000000000    0.5680360000000000    0.5902450000000000 O
   0.3196930000000000    0.5204480000000000    0.5863619999999991 O
   0.7876639999999990    0.9743010000000000    0.9119240000000000 O
   0.3466209999999990    0.2715110000000000    0.4760629999999990 O
   0.1792190000000000    0.9456779999999990    0.9154270000000000 O
   0.0669869999999990    0.3557670000000000    0.5553169999999999 O
   0.8268489999999999    0.1557579999999990    0.4556240000000000 O
   0.9622809999999991    0.7203619999999999    0.8090079999999999 O
   0.6549640000000000    0.6811800000000000    0.8057200000000001 O
   0.1553169999999990    0.0559859999999990    0.4328019999999990 O
   0.4647670000000000    0.0303190000000000    0.4403249999999990 O
   0.3376300000000000    0.5993769999999990    0.7942270000000000 O
   0.5590740000000000    0.3982500000000000    0.6942140000000000 O
   0.8478890000000000    0.4756110000000000    0.7754160000000000 O
   0.3476860000000000    0.7719790000000000    0.9761430000000000 O
   0.7996670000000000    0.2242579999999990    0.6671710000000000 O
   0.8248740000000000    0.6544130000000000    0.9551900000000001 O
   0.1738880000000000    0.1923810000000000    0.6641560000000000 O
   0.1561820000000000    0.5570619999999999    0.9320569999999990 O
   0.4651849999999990    0.5315380000000000    0.9421259999999990 O
   0.6627729999999999    0.3161029999999990    0.8386610000000000 O
   0.3107660000000000    0.2717720000000000    0.8418380000000000 O
   0.3511260000000000    0.0246280000000000    0.7266200000000000 O
   0.0682200000000000    0.1032350000000000    0.8059160000000000 O
   0.5584519999999999    0.1517040000000000    0.9456340000000000 O
