Mn V  P  O 
 1.0000000000000000
     8.1505880000000008    0.0000000000000000    0.0000000000000000
    -0.0787100000000000    9.9751820000000002    0.0000000000000000
    -0.4074939999999990   -4.4635179999999997   12.9075310000000005
 Mn  V   P   O  
   4   4  16  56
Cartesian
  8.0373953693396505  6.4087009113095510  0.8021584476715510
  7.9519030850517476  2.7947108293052141  4.0120913914104452
 -0.4288438253839676  5.5377931411751717 10.4662648105284006
  7.8695312030797986 -0.8044802507768181  7.2456167475264905
  3.7845441439460972  6.3411330462631881  5.7263322050137218
  3.9515102259464578 -0.0129916294601426  2.4816104767511407
  3.7076945880630388  2.7401078256191118  8.9452564438500701
  3.6459297404356863 -0.8523378062946820 12.1412232225695256
  1.7679127525932887  8.8554387224005957  0.0984647323920914
  5.7199980767597260  7.4230311354763634  3.1613415942862835
  6.5990275983677193  3.5534214646171658  1.2137720821396745
  1.6860117212579013  5.2520977106394433  3.3168719020317989
  2.4325220448597840  2.8023970164173067  1.9761114207044859
  6.3673890789887500  6.3139321418955028  7.6598792388141872
  5.6501373084813791  3.8121627696240510  6.3930385599081951
  2.2118105609833245  5.5682991260974344  8.4589768708745652
  6.5174887538174771 -0.0572485248032133  4.4369123991485573
  1.5944461579703630  1.6574511287749316  6.5337966925791493
  2.3480132389963884 -0.8058433243544969  5.2154596767558727
  6.2584280644264654  2.7157563704754244 10.9181802131181982
  5.5560422319295499  0.2161024148308501  9.6115716182342510
  2.0885367704755553  1.9441078144164787 11.6734334795259063
  1.5170461533040600 -1.9548723451216563  9.7738312626979287
  5.4755590026635126 -3.4037901110600872 12.8363059692769124
  0.5496753794604459  8.2395084229234126  0.7849925200000724
  4.5198870114885716  8.1907342363128581  2.4910945293869879
  6.7567721144946562  8.5565002322765586  3.6299837563698873
  6.4639034492913154  6.5287367724028984  2.2306423774221456
  1.3462610089410498  6.1270681689259758  2.1250109907228745
  7.6725844648286232  4.5082858278556026  0.7300143161356982
  5.1795523399114769  3.9668724869279202  0.7069133146172831
  2.6791994520160745  3.1605492621452171  0.4928832753970669
  5.1863178762204907  6.7130941511616982  4.4139669551272052
  2.5404643022639166  6.0460581247305436  4.3285263626009494
  6.9204295830740241  2.1890581455149443  0.4149697762348123
  2.7452407770266545  4.1219672408550423  2.8407690043890752
  0.4650950354104396  4.6238074488277716  3.9835706040045062
  6.5352817390518814  3.2587258421047931  2.6999152628399612
  7.4334507810519606  7.2784109976212319  7.1759161305934418
  4.9433881773774333  6.7326647939194144  7.1550473405044102
  1.0401244253067110  2.3381880044960233  2.2594622260856365
  3.5408581480498142  1.8213919215420540  2.4485429201747984
  2.4310203674698951  5.9539458628617510  6.9537933028803458
  4.4395990836911290  4.5960169126001933  5.7303921778078148
  5.3508097246387019  0.3443509191532936  1.1887971926174281
  6.6840755617600651  4.9642102840718882  6.8423903953802965
  2.7036836823616701 -0.3132513072739744  1.1044823823788532
  6.3816973453747261  2.9533073707800699  5.4196332267078766
  6.3057857767743339  6.0200314358653317  9.1458444888815151
  1.2508802854033796  2.4845914141932455  5.3001490709929380
  7.5830974078446056  0.8965594665950336  3.9367660483067142
  0.8077725326777102  5.1251688205532444  8.7226385053293267
  5.0941964045422026  0.3530262611535344  3.9287364009833388
  3.3263604002779279  4.6235320339744952  8.9051528692895836
  2.5898926143795302 -0.4418162580292437  3.7190946741906403
  5.1476815483429474  3.0914832464937012  7.6335418150865832
  2.4130196876617300  2.4829469490061049  7.5137213339875775
  6.1453575459775189  5.6802245317285731 11.9110294624341666
  2.6537972268109842  0.5121196641239865  6.0700446809869897
  1.0231438981722831  5.2573131786701035 11.8083486106214917
  0.3617286281480596  1.0117429734684389  7.1776660567100006
  6.4474934991570017 -0.3541618874035072  5.9206509564460736
  7.3582036265669970  3.6502465594203586 10.4230607964344983
  4.8489126857501219  3.1328659528413279 10.4671856093932494
  0.9560238758442614 -1.2790871400181434  5.4836938312130243
  3.4631494472029898 -1.7807575363576924  5.6644778359584249
  2.2957300604006852  2.3036230978712151 10.2013108028897967
  4.3469656843833624  0.9325180978242255  8.9554148700000962
  6.5824288389516212  1.3344255778523344 10.1326349951396981
  2.4129296422239452  3.2545034567064115 12.5539728174618386
  6.3255025154877131 -0.6907130709481050  8.7139874502480055
  6.2384820239404828  2.4225798355306924 12.4151416966375816
  1.1661433869817728 -1.0733161175030501  8.5915636850017254
  0.7083333313129729  1.4665467330148010 12.0087302865232068
  3.2056635731514489  0.9592531056593117 12.1453844275110043
  5.0257212847478350 -0.5250454689408123 10.8794220385956102
  2.3695691559071643 -1.1569501999944265 10.7908182861327617
  2.5904081578071425 -3.0614383534733856  9.2924502363080883
  0.3115006911419444 -2.6012328105152718 10.4536911480767696
  4.2715329015036998 -2.6431001607707394 12.1764157791364624
