Ca Cr P  O                              
   1.00000000000000     
     8.7485284804999992    0.0000000000000000    0.0000000000000000
     0.0000065873000000    9.8939285278000000    0.0000000000000000
    -0.0000058994000000    2.4026902022000001    6.9821501365999996
  Ca_sv/a4736583  Cr_pv/c9a7df34  P/df60c54a93ef  O/818f92134a0a
               3               4               8              28
Selective dynamics
Direct
  0.3596473762335464  0.6271859213726998  0.7715910221748956   T   T   T
  0.8558394761217869  0.3652065093397994  0.2335631193352441   T   T   T
  0.8559942555355207  0.8824537270923827  0.2293137291855842   T   T   T
  0.7388970144360840  0.1110697560247544  0.7633937300275093   T   T   T
  0.7560682963430096  0.6054689623683629  0.7697185161327837   T   T   T
  0.2594126028990047  0.3915969863328783  0.2284727412602052   T   T   T
  0.2645909941799758  0.8993872712088731  0.2259547417257863   T   T   T
  0.0636846645886848  0.1877823191726762  0.9993052311124089   T   T   T
  0.0579324490802264  0.6889727642367518  0.0033195386771041   T   T   T
  0.5645347660444813  0.3106440083858857  0.9896756564154501   T   T   T
  0.5572586115315588  0.8070482324524590  0.0090619773646239   T   T   T
  0.9737745090160672  0.3811285882727873  0.6102629686850989   T   T   T
  0.9689401470947203  0.8854504268713583  0.6137259752746331   T   T   T
  0.4820436878256658  0.1186716913502721  0.3908231507343913   T   T   T
  0.4773636297349597  0.6166606837068116  0.3920465971228282   T   T   T
  0.0854391951427971  0.2820623948514296  0.7747721356374981   T   T   T
  0.0854105839810231  0.7814194130432526  0.7761715175907185   T   T   T
  0.5977870451542557  0.2163757118055045  0.2138729144066502   T   T   T
  0.6016988180937730  0.7155538080502524  0.2349314079594151   T   T   T
  0.0746832739932373  0.2919514283095950  0.1177608227640476   T   T   T
  0.0686396008060086  0.7881257269238588  0.1252524664414452   T   T   T
  0.5813258818901872  0.2172030232023658  0.8642161202419061   T   T   T
  0.5768081778872016  0.7102150767495701  0.8832953434309161   T   T   T
  0.3456443991802303  0.2136716751726553  0.3961089926015404   T   T   T
  0.3401455722623794  0.7105527380717334  0.4155114135205338   T   T   T
  0.8333144235525012  0.2914234932545980  0.5834260732952643   T   T   T
  0.8332323922475169  0.7913805828013381  0.5852033839633251   T   T   T
  0.5903877184382509  0.0815758726871039  0.5614219875143576   T   T   T
  0.5642914472497935  0.5743175313475248  0.5832168863045410   T   T   T
  0.0629756555577430  0.4199831130688096  0.4205707574149002   T   T   T
  0.0600131338024568  0.9281299167538180  0.4261104726075047   T   T   T
  0.4307150339465053  0.4968445603278440  0.3183473487095796   T   T   T
  0.4350716950448899  0.9865266491409130  0.3387214290717182   T   T   T
  0.9163403652303046  0.0049340773721909  0.6850077416290077   T   T   T
  0.9266911218707747  0.5100614401859929  0.6671697497520412   T   T   T
  0.4087381731193886  0.3855867300572342  0.9781281043774186   T   T   T
  0.3924340099180696  0.8537904829772955  0.0108017030011496   T   T   T
  0.9008933777049108  0.1218423019207862  0.0182952278580260   T   T   T
  0.9002585318890652  0.6173161151078190  0.0205939707520670   T   T   T
  0.6984908756776207  0.4196002655894517  0.9652874364392048   T   T   T
  0.6826680636881335  0.9222873400181513  0.9719373982680253   T   T   T
  0.1926710890226389  0.0802457614358758  0.0416207014966048   T   T   T
  0.1920892369830298  0.5831423595842864  0.0322746037220298   T   T   T
 
  0.00000000E+00  0.00000000E+00  0.00000000E+00
  0.00000000E+00  0.00000000E+00  0.00000000E+00
  0.00000000E+00  0.00000000E+00  0.00000000E+00
  0.00000000E+00  0.00000000E+00  0.00000000E+00
  0.00000000E+00  0.00000000E+00  0.00000000E+00
  0.00000000E+00  0.00000000E+00  0.00000000E+00
  0.00000000E+00  0.00000000E+00  0.00000000E+00
  0.00000000E+00  0.00000000E+00  0.00000000E+00
  0.00000000E+00  0.00000000E+00  0.00000000E+00
  0.00000000E+00  0.00000000E+00  0.00000000E+00
  0.00000000E+00  0.00000000E+00  0.00000000E+00
  0.00000000E+00  0.00000000E+00  0.00000000E+00
  0.00000000E+00  0.00000000E+00  0.00000000E+00
  0.00000000E+00  0.00000000E+00  0.00000000E+00
  0.00000000E+00  0.00000000E+00  0.00000000E+00
  0.00000000E+00  0.00000000E+00  0.00000000E+00
  0.00000000E+00  0.00000000E+00  0.00000000E+00
  0.00000000E+00  0.00000000E+00  0.00000000E+00
  0.00000000E+00  0.00000000E+00  0.00000000E+00
  0.00000000E+00  0.00000000E+00  0.00000000E+00
  0.00000000E+00  0.00000000E+00  0.00000000E+00
  0.00000000E+00  0.00000000E+00  0.00000000E+00
  0.00000000E+00  0.00000000E+00  0.00000000E+00
  0.00000000E+00  0.00000000E+00  0.00000000E+00
  0.00000000E+00  0.00000000E+00  0.00000000E+00
  0.00000000E+00  0.00000000E+00  0.00000000E+00
  0.00000000E+00  0.00000000E+00  0.00000000E+00
  0.00000000E+00  0.00000000E+00  0.00000000E+00
  0.00000000E+00  0.00000000E+00  0.00000000E+00
  0.00000000E+00  0.00000000E+00  0.00000000E+00
  0.00000000E+00  0.00000000E+00  0.00000000E+00
  0.00000000E+00  0.00000000E+00  0.00000000E+00
  0.00000000E+00  0.00000000E+00  0.00000000E+00
  0.00000000E+00  0.00000000E+00  0.00000000E+00
  0.00000000E+00  0.00000000E+00  0.00000000E+00
  0.00000000E+00  0.00000000E+00  0.00000000E+00
  0.00000000E+00  0.00000000E+00  0.00000000E+00
  0.00000000E+00  0.00000000E+00  0.00000000E+00
  0.00000000E+00  0.00000000E+00  0.00000000E+00
  0.00000000E+00  0.00000000E+00  0.00000000E+00
  0.00000000E+00  0.00000000E+00  0.00000000E+00
  0.00000000E+00  0.00000000E+00  0.00000000E+00
  0.00000000E+00  0.00000000E+00  0.00000000E+00
