Ca V  Fe P  O                           
   1.00000000000000     
    14.8499546051000006    0.0000000000000000    0.0000000000000000
    -0.0125117168000000    8.2040796242000003    0.0000000000000000
     3.6964733550000002   -0.0852234029000000    9.1101353430999996
Ca V Fe P O               
3               4               4              16              56
Selective dynamics
Direct
  0.7318350391966307  0.9197200526003497  0.2724244167623857   T   T   T
  0.2421508425223044  0.9172588189932299  0.2542595458965601   T   T   T
  0.9865184863971375  0.9206275146672641  0.7663609097191721   T   T   T
  0.4862352662526302  0.5093526084591475  0.7595724525647799   T   T   T
  0.9817029108714362  0.4978883775696476  0.7637266382766152   T   T   T
  0.2341257317004596  0.4972246614413710  0.2640282698275182   T   T   T
  0.7340746808977445  0.4972949874061838  0.2642969026427617   T   T   T
  0.0084984820969649  0.0143004788768132  0.2436295557224691   T   T   T
  0.5058798126296903  0.0186336154515317  0.2454200359263932   T   T   T
  0.2654134581577243  0.0113609428176855  0.7499471696490705   T   T   T
  0.7541707708744755  0.0166350456761922  0.7435814184033191   T   T   T
  0.2195402370513904  0.2047460249642267  0.0586180108696555   T   T   T
  0.7199498819915083  0.2020820532302075  0.0585546188779727   T   T   T
  0.4704742643897806  0.1960504653769078  0.5642437345568090   T   T   T
  0.9678506921653168  0.2015926202478354  0.5597485677348216   T   T   T
  0.0857594738044889  0.7656718864725393  0.9457779969538982   T   T   T
  0.5858535949739643  0.7725947692404752  0.9407791205054822   T   T   T
  0.3363973176516221  0.7680997364378551  0.4471833592232259   T   T   T
  0.8379455631426669  0.7673370245824311  0.4450071191874532   T   T   T
  0.4127828655806763  0.2804384818556271  0.0637052731980715   T   T   T
  0.9125075935463719  0.2745751857419831  0.0648773084927977   T   T   T
  0.1613458456673437  0.2733828039808205  0.5693614279034085   T   T   T
  0.6622252703835189  0.2748606934579743  0.5647977513658672   T   T   T
  0.2747033102758034  0.6954462145926139  0.9480946285776883   T   T   T
  0.7786321221429998  0.6951664145772884  0.9510049526739991   T   T   T
  0.0301274170002992  0.6937653869215167  0.4474855394014171   T   T   T
  0.5291946940059348  0.6911290950987623  0.4480311166113249   T   T   T
  0.2116773224440669  0.3178670158810903  0.4064137842119873   T   T   T
  0.7149746552003819  0.3225925451013016  0.4015403052472954   T   T   T
  0.4612358510390795  0.3349568981049210  0.9050348606132453   T   T   T
  0.9601679296862365  0.3145152629314109  0.9007863561141300   T   T   T
  0.2703207084682567  0.6702357449044053  0.3862749185760760   T   T   T
  0.7700174030873450  0.6677829272150481  0.3894024061941952   T   T   T
  0.0162411187994436  0.6699748573215228  0.8902964310605245   T   T   T
  0.5271572029219886  0.6597165955375843  0.8807441040706924   T   T   T
  0.1535880410338847  0.0752038085179147  0.1604723390893107   T   T   T
  0.6526233349162662  0.0720661161168839  0.1578004712925292   T   T   T
  0.4018429457219088  0.0700624287645159  0.6622103036187770   T   T   T
  0.9013031999714982  0.0721040481988933  0.6607182347021241   T   T   T
  0.1955857799126274  0.3764939079570748  0.1248536884711364   T   T   T
  0.6967568922740075  0.3742794723107472  0.1235108877173809   T   T   T
  0.4479112085912927  0.3700328779132582  0.6298391376749528   T   T   T
  0.9450632512313852  0.3750577197480821  0.6210441971983287   T   T   T
  0.2558589019111691  0.6845175102492599  0.1157657811113801   T   T   T
  0.7606274701426670  0.6897500435828199  0.1179295657896825   T   T   T
  0.5096749548844040  0.6788219787642704  0.6124035837809756   T   T   T
  0.0066250497563781  0.6904344509867136  0.6156019729249800   T   T   T
  0.3643903229840157  0.4264714095729061  0.1669003809133977   T   T   T
  0.8681745872797402  0.4244303398311921  0.1612537885913153   T   T   T
  0.1141591624581667  0.4240686471573855  0.6649896455495345   T   T   T
  0.6181393916071498  0.4223886133405971  0.6637633177518510   T   T   T
  0.3233245304539966  0.1557570976074333  0.0747128429524660   T   T   T
  0.8220245973846421  0.1494673016662167  0.0795816889110895   T   T   T
  0.0706863873459270  0.1505938560772353  0.5787003136069225   T   T   T
  0.5772276747073102  0.1510827893983882  0.5669225360402841   T   T   T
  0.1746431597623083  0.6439849172268676  0.9282629001477694   T   T   T
  0.6775258124999846  0.6583893122644210  0.9360282407304407   T   T   T
  0.4288179259075882  0.6536419571940513  0.4253443065449939   T   T   T
  0.9318830750417404  0.6547280329486997  0.4205030543556467   T   T   T
  0.1213846652989835  0.9130028382969707  0.8411326618709116   T   T   T
  0.6299403278217094  0.9170269484240011  0.8392768114249062   T   T   T
  0.3699286817424531  0.9182776272653791  0.3444932455802174   T   T   T
  0.8702837601748775  0.9162280986878106  0.3408541899191241   T   T   T
  0.2294704742450956  0.1938995047452575  0.9008909228206776   T   T   T
  0.7340717418220767  0.1904777747151667  0.8990000821915011   T   T   T
  0.4803127993569284  0.1860117158456002  0.4046187027080356   T   T   T
  0.9807906547629907  0.1855458234592330  0.4006991461396635   T   T   T
  0.2940459369982687  0.8725871771512979  0.9022494932907823   T   T   T
  0.8161005828004422  0.8641725173030316  0.8899603381648904   T   T   T
  0.0669332628858546  0.8630472506512995  0.3863646223525669   T   T   T
  0.5637397236629335  0.8604309123127317  0.3846172999930790   T   T   T
  0.3499743990816094  0.5723628086530343  0.8582153640055138   T   T   T
  0.8478783323505832  0.5594276087477367  0.8646437501385512   T   T   T
  0.0999774450516747  0.5583655810434228  0.3656499820875863   T   T   T
  0.6000925344667147  0.5591475310853528  0.3575856352456275   T   T   T
  0.2233116074491135  0.1667529671728126  0.6227936322465848   T   T   T
  0.7301360303160971  0.1703844031220754  0.6104908773917821   T   T   T
  0.4769488908873410  0.1783808516347016  0.1168869382651537   T   T   T
  0.9779993182594663  0.1695495313754565  0.1135507452951398   T   T   T
  0.2861497574325055  0.8164462071217871  0.6066084230464921   T   T   T
  0.7921048426694115  0.8167346276441881  0.6046669296088666   T   T   T
  0.0379467057693368  0.8189984669061309  0.1054205402064255   T   T   T
  0.5305437118957909  0.8267589935039616  0.0987619349255705   T   T   T
 
  0.00000000E+00  0.00000000E+00  0.00000000E+00
  0.00000000E+00  0.00000000E+00  0.00000000E+00
  0.00000000E+00  0.00000000E+00  0.00000000E+00
  0.00000000E+00  0.00000000E+00  0.00000000E+00
  0.00000000E+00  0.00000000E+00  0.00000000E+00
  0.00000000E+00  0.00000000E+00  0.00000000E+00
  0.00000000E+00  0.00000000E+00  0.00000000E+00
  0.00000000E+00  0.00000000E+00  0.00000000E+00
  0.00000000E+00  0.00000000E+00  0.00000000E+00
  0.00000000E+00  0.00000000E+00  0.00000000E+00
  0.00000000E+00  0.00000000E+00  0.00000000E+00
  0.00000000E+00  0.00000000E+00  0.00000000E+00
  0.00000000E+00  0.00000000E+00  0.00000000E+00
  0.00000000E+00  0.00000000E+00  0.00000000E+00
  0.00000000E+00  0.00000000E+00  0.00000000E+00
  0.00000000E+00  0.00000000E+00  0.00000000E+00
  0.00000000E+00  0.00000000E+00  0.00000000E+00
  0.00000000E+00  0.00000000E+00  0.00000000E+00
  0.00000000E+00  0.00000000E+00  0.00000000E+00
  0.00000000E+00  0.00000000E+00  0.00000000E+00
  0.00000000E+00  0.00000000E+00  0.00000000E+00
  0.00000000E+00  0.00000000E+00  0.00000000E+00
  0.00000000E+00  0.00000000E+00  0.00000000E+00
  0.00000000E+00  0.00000000E+00  0.00000000E+00
  0.00000000E+00  0.00000000E+00  0.00000000E+00
  0.00000000E+00  0.00000000E+00  0.00000000E+00
  0.00000000E+00  0.00000000E+00  0.00000000E+00
  0.00000000E+00  0.00000000E+00  0.00000000E+00
  0.00000000E+00  0.00000000E+00  0.00000000E+00
  0.00000000E+00  0.00000000E+00  0.00000000E+00
  0.00000000E+00  0.00000000E+00  0.00000000E+00
  0.00000000E+00  0.00000000E+00  0.00000000E+00
  0.00000000E+00  0.00000000E+00  0.00000000E+00
  0.00000000E+00  0.00000000E+00  0.00000000E+00
  0.00000000E+00  0.00000000E+00  0.00000000E+00
  0.00000000E+00  0.00000000E+00  0.00000000E+00
  0.00000000E+00  0.00000000E+00  0.00000000E+00
  0.00000000E+00  0.00000000E+00  0.00000000E+00
  0.00000000E+00  0.00000000E+00  0.00000000E+00
  0.00000000E+00  0.00000000E+00  0.00000000E+00
  0.00000000E+00  0.00000000E+00  0.00000000E+00
  0.00000000E+00  0.00000000E+00  0.00000000E+00
  0.00000000E+00  0.00000000E+00  0.00000000E+00
  0.00000000E+00  0.00000000E+00  0.00000000E+00
  0.00000000E+00  0.00000000E+00  0.00000000E+00
  0.00000000E+00  0.00000000E+00  0.00000000E+00
  0.00000000E+00  0.00000000E+00  0.00000000E+00
  0.00000000E+00  0.00000000E+00  0.00000000E+00
  0.00000000E+00  0.00000000E+00  0.00000000E+00
  0.00000000E+00  0.00000000E+00  0.00000000E+00
  0.00000000E+00  0.00000000E+00  0.00000000E+00
  0.00000000E+00  0.00000000E+00  0.00000000E+00
  0.00000000E+00  0.00000000E+00  0.00000000E+00
  0.00000000E+00  0.00000000E+00  0.00000000E+00
  0.00000000E+00  0.00000000E+00  0.00000000E+00
  0.00000000E+00  0.00000000E+00  0.00000000E+00
  0.00000000E+00  0.00000000E+00  0.00000000E+00
  0.00000000E+00  0.00000000E+00  0.00000000E+00
  0.00000000E+00  0.00000000E+00  0.00000000E+00
  0.00000000E+00  0.00000000E+00  0.00000000E+00
  0.00000000E+00  0.00000000E+00  0.00000000E+00
  0.00000000E+00  0.00000000E+00  0.00000000E+00
  0.00000000E+00  0.00000000E+00  0.00000000E+00
  0.00000000E+00  0.00000000E+00  0.00000000E+00
  0.00000000E+00  0.00000000E+00  0.00000000E+00
  0.00000000E+00  0.00000000E+00  0.00000000E+00
  0.00000000E+00  0.00000000E+00  0.00000000E+00
  0.00000000E+00  0.00000000E+00  0.00000000E+00
  0.00000000E+00  0.00000000E+00  0.00000000E+00
  0.00000000E+00  0.00000000E+00  0.00000000E+00
  0.00000000E+00  0.00000000E+00  0.00000000E+00
  0.00000000E+00  0.00000000E+00  0.00000000E+00
  0.00000000E+00  0.00000000E+00  0.00000000E+00
  0.00000000E+00  0.00000000E+00  0.00000000E+00
  0.00000000E+00  0.00000000E+00  0.00000000E+00
  0.00000000E+00  0.00000000E+00  0.00000000E+00
  0.00000000E+00  0.00000000E+00  0.00000000E+00
  0.00000000E+00  0.00000000E+00  0.00000000E+00
  0.00000000E+00  0.00000000E+00  0.00000000E+00
  0.00000000E+00  0.00000000E+00  0.00000000E+00
  0.00000000E+00  0.00000000E+00  0.00000000E+00
  0.00000000E+00  0.00000000E+00  0.00000000E+00
  0.00000000E+00  0.00000000E+00  0.00000000E+00
