V2 Fe2 P8 O28
1.0
   2.7080910000000000    0.0487610000000000    6.7127720000000002
   0.0487960000000000    8.1383820000000000    0.0058519999999990
  -7.0832750000000004   -0.0258420000000000    6.5677649999999996
V Fe P O
2 2 8 28
direct
   0.9651940000000000    0.5019089999999991    0.7647849999999990 V
   0.4652000000000000    0.5019340000000000    0.2647430000000000 V
   0.0236639999999990    0.0133560000000000    0.2481560000000000 Fe
   0.5237100000000000    0.0133520000000000    0.7481160000000000 Fe
   0.4512819999999990    0.1906650000000000    0.0685090000000000 P
   0.9513090000000000    0.1906729999999990    0.5684400000000001 P
   0.1665549999999990    0.7816540000000000    0.9342440000000000 P
   0.6665690000000000    0.7816580000000000    0.4341950000000000 P
   0.8411689999999999    0.2867639999999990    0.0701410000000000 P
   0.3411990000000000    0.2867400000000000    0.5700780000000000 P
   0.5443330000000000    0.6872619999999990    0.9464700000000000 P
   0.0443509999999990    0.6872500000000000    0.4464249999999990 P
   0.4491330000000000    0.3377340000000000    0.4073710000000000 O
   0.9490989999999990    0.3377529999999990    0.9074139999999991 O
   0.5197440000000000    0.6863730000000000    0.3816319999999990 O
   0.0197310000000000    0.6863640000000000    0.8816450000000000 O
   0.3271070000000000    0.0604619999999990    0.1736639999999990 O
   0.8271219999999990    0.0604710000000000    0.6736289999999990 O
   0.3900360000000000    0.3656319999999990    0.1327740000000000 O
   0.8900669999999991    0.3656270000000000    0.6327610000000000 O
   0.4960580000000000    0.6856010000000000    0.1162600000000000 O
   0.9960500000000001    0.6855850000000000    0.6162310000000000 O
   0.7417700000000000    0.4387459999999990    0.1640260000000000 O
   0.2417820000000000    0.4387089999999990    0.6639820000000000 O
   0.6724960000000000    0.1585240000000000    0.0705809999999990 O
   0.1725170000000000    0.1585089999999990    0.5705209999999999 O
   0.3432620000000000    0.6502810000000000    0.9179670000000000 O
   0.8432800000000000    0.6502880000000000    0.4179100000000001 O
   0.2477400000000000    0.9244400000000000    0.8282889999999991 O
   0.7477180000000000    0.9244580000000000    0.3282720000000000 O
   0.4602650000000000    0.1795050000000000    0.9105280000000000 O
   0.9602529999999990    0.1795390000000000    0.4105020000000000 O
   0.6188969999999990    0.8556100000000001    0.8821160000000000 O
   0.1189050000000000    0.8556020000000000    0.3821029999999990 O
   0.6842770000000000    0.5472750000000000    0.8668610000000000 O
   0.1842690000000000    0.5472680000000000    0.3668269999999990 O
   0.4804480000000000    0.1899330000000000    0.6232770000000000 O
   0.9804349999999999    0.1899730000000000    0.1233150000000000 O
   0.5766629999999990    0.8329259999999991    0.5953710000000000 O
   0.0766309999999990    0.8329110000000000    0.0953900000000000 O
