V  Fe P  O 
 1.0000000000000000
     2.7080910000000000    0.0487610000000000    6.7127720000000002
     0.0487960000000000    8.1383820000000000    0.0058519999999990
    -7.0832750000000004   -0.0258420000000000    6.5677649999999996
 V   Fe  P   O  
   2   2   8  28
Cartesian
 -2.7376908093329111  4.1940743941915519 11.5073574954954498
 -0.5500834798854628  4.1825909702154513  4.8671220900438694
 -1.6793579917582200  0.0992256485301929  1.8200326453025735
 -3.8669596879026602  0.1107121889752482  8.4603168267235471
  0.7422086886128797  1.5640250423464588  3.4564496570654311
 -1.4454238010640377  1.5754557914199439 10.0967418262038322
 -6.1083363311231613  6.3239941394396171  7.2745034916918634
 -1.2126805679457411  6.3612749708958853  7.3470428443371150
  1.7909210724727709  2.3300021878407571  6.0633412771513511
 -3.1047750064895161  2.2927245826388538  5.9908630561479894
 -5.1908240238933709  5.6481333485460263  9.8883792280650926
 -3.0032193544395347  5.6366447853112653  3.2481055432426320
 -1.7038092873612256  2.8015832608318467  5.6159958239920043
 -3.8913986627681885  2.8130243440037299 12.2562489411836673
 -1.2012419880909631  5.4482543057823820  6.0798816209692692
 -6.0969344364198497  5.4109709756097342  6.0073466687609995
 -0.3381916936655751  0.5392837600501006  3.2268483333554938
 -2.5258256308100213  0.5507297235259290  9.8671600160893806
  0.1127298149158912  3.0069274754105617  3.5768573228372960
 -2.0748628552158328  3.0183768480617372 10.2170962684927940
  0.6124966984731102  5.5140929151796323  4.1878998312106264
 -1.5750903398013425  5.5255340086712179 10.8281617577944296
  0.8006110284203922  3.5480027003752759  6.0261610551107889
 -4.0950855215961379  3.5107234755114654  5.9536442003045567
  1.2872255584602748  1.2916768738040629  4.9602744587349470
 -3.6084516857551145  1.2543833293703175  4.8877896908123892
 -5.5771687871052453  5.2458952794661160  8.3919052394602005
 -0.6815260791938296  5.2831393388241974  8.4644241038873940
 -5.1169730304393450  7.4605396348397948  7.1403898713697798
 -0.2212881918431329  7.4978090166083389  7.2129025446460080
 -5.1673757826421998  1.5500601894785655  9.0803906116751136
 -0.2717186778609784  1.5872949043937046  9.1528929006382409
 -4.6568936134258658  7.0516119821575325  9.9116143723445944
 -2.4692865864956319  7.0401335860595644  3.2713211829880571
 -4.1591005994048107  4.5834375582851976 10.3156300688485238
 -1.9714898803985739  4.5719744439123629  3.6753476577418556
 -3.1142082538063196  1.5596846815225629  7.2931675282117343
  1.7814758727991824  1.5969440775137189  7.3656519991469773
 -2.6168419846977771  6.7607156141493618  7.7189960798975674
 -0.4292279028709255  6.7492775599696486  1.0787371997012860
