Ca V  F 
1.0
       20.9121131897         0.0000000000         0.0000000000
       12.5312080715        12.7673919882         0.0000000000
        8.3809051940        -3.6843375081        12.2242379204
   Ca    V    F
   15   48  160
Direct
     0.125270084         0.624727547         0.624729931
     0.500272393         0.999730051         0.999727607
     0.500272393         0.999730051         0.499727607
     0.500272393         0.499730051         0.999727607
     0.000272393         0.999730051         0.999727607
     0.000272393         0.999730051         0.499727607
     0.000272393         0.499730051         0.999727607
     0.000272393         0.499730051         0.499727607
     0.125270084         0.124727570         0.124729954
     0.125270084         0.124727570         0.624729931
     0.125270084         0.624727547         0.124729954
     0.625270069         0.124727570         0.124729954
     0.625270069         0.124727570         0.624729931
     0.625270069         0.624727547         0.124729954
     0.625270069         0.624727547         0.624729931
     0.252795517         0.247208521         0.247204274
     0.252795517         0.247208521         0.747204304
     0.252795517         0.747208536         0.247204274
     0.252795517         0.747208536         0.747204304
     0.752795517         0.247208521         0.247204274
     0.752795517         0.247208521         0.747204304
     0.752795517         0.747208536         0.247204274
     0.752795517         0.747208536         0.747204304
     0.377791792         0.372204661         0.372208416
     0.377791792         0.372204661         0.872208416
     0.377791792         0.872204661         0.372208416
     0.377791792         0.872204661         0.872208416
     0.877791762         0.372204661         0.372208416
     0.877791762         0.372204661         0.872208416
     0.877791762         0.872204661         0.372208416
     0.877791762         0.872204661         0.872208416
     0.129968882         0.123649038         0.369908184
     0.129968882         0.123649038         0.869908214
     0.129968882         0.623649061         0.369908184
     0.129968882         0.623649061         0.869908214
     0.629968882         0.123649038         0.369908184
     0.629968882         0.123649038         0.869908214
     0.629968882         0.623649061         0.369908184
     0.629968882         0.623649061         0.869908214
     0.376465261         0.369900435         0.123657286
     0.376465261         0.369900435         0.623657286
     0.376465261         0.869900465         0.123657286
     0.376465261         0.869900465         0.623657286
     0.876465261         0.369900435         0.123657286
     0.876465261         0.369900435         0.623657286
     0.876465261         0.869900465         0.123657286
     0.876465261         0.869900465         0.623657286
     0.255099177         0.248533845         0.495023787
     0.255099177         0.248533845         0.995023787
     0.255099177         0.748533845         0.495023787
     0.255099177         0.748533845         0.995023787
     0.755099177         0.248533845         0.495023787
     0.755099177         0.248533845         0.995023787
     0.755099177         0.748533845         0.495023787
     0.755099177         0.748533845         0.995023787
     0.001350423         0.495030522         0.248526797
     0.001350423         0.495030522         0.748526812
     0.001350423         0.995030522         0.248526797
     0.001350423         0.995030522         0.748526812
     0.501350403         0.495030522         0.248526797
     0.501350403         0.495030522         0.748526812
     0.501350403         0.995030522         0.248526797
     0.501350403         0.995030522         0.748526812
     0.072159678         0.061858244         0.427040517
     0.072159678         0.061858244         0.927040517
     0.072159678         0.561858237         0.427040517
     0.072159678         0.561858237         0.927040517
     0.572159648         0.061858244         0.427040517
     0.572159648         0.061858244         0.927040517
     0.572159648         0.561858237         0.427040517
     0.572159648         0.561858237         0.927040517
     0.438945800         0.427044123         0.061854035
     0.438945800         0.427044123         0.561854005
     0.438945800         0.927044153         0.061854035
     0.438945800         0.927044153         0.561854005
     0.938945770         0.427044123         0.061854035
     0.938945770         0.427044123         0.561854005
     0.938945770         0.927044153         0.061854035
     0.938945770         0.927044153         0.561854005
     0.197956234         0.186054662         0.052843641
     0.197956234         0.186054662         0.552843630
     0.197956234         0.686054647         0.052843641
     0.197956234         0.686054647         0.552843630
     0.697956204         0.186054662         0.052843641
     0.697956204         0.186054662         0.552843630
     0.697956204         0.686054647         0.052843641
     0.697956204         0.686054647         0.552843630
     0.063142143         0.052840605         0.186058074
     0.063142143         0.052840605         0.686058044
     0.063142143         0.552840590         0.186058074
     0.063142143         0.552840590         0.686058044
     0.563142121         0.052840605         0.186058074
     0.563142121         0.052840605         0.686058044
     0.563142121         0.552840590         0.186058074
     0.563142121         0.552840590         0.686058044
     0.405442864         0.096421152         0.396772236
     0.405442864         0.096421152         0.896772265
     0.405442864         0.596421123         0.396772236
     0.405442864         0.596421123         0.896772265
     0.905442834         0.096421152         0.396772236
     0.905442834         0.096421152         0.896772265
     0.905442834         0.596421123         0.396772236
     0.905442834         0.596421123         0.896772265
     0.101363890         0.396771401         0.096421055
     0.101363890         0.396771401         0.596421063
     0.101363890         0.896771431         0.096421055
     0.101363890         0.896771431         0.596421063
     0.601363897         0.396771401         0.096421055
     0.601363897         0.396771401         0.596421063
     0.601363897         0.896771431         0.096421055
     0.601363897         0.896771431         0.596421063
     0.228228718         0.023636036         0.219556168
     0.228228718         0.023636036         0.719556153
     0.228228718         0.523636043         0.219556168
     0.228228718         0.523636043         0.719556153
     0.728228688         0.023636036         0.219556168
     0.728228688         0.023636036         0.719556153
     0.728228688         0.523636043         0.219556168
     0.728228688         0.523636043         0.719556153
     0.028578846         0.219557151         0.023636179
     0.028578846         0.219557151         0.523636162
     0.028578846         0.719557166         0.023636179
     0.028578846         0.719557166         0.523636162
     0.528578818         0.219557151         0.023636179
     0.528578818         0.219557151         0.523636162
     0.528578818         0.719557166         0.023636179
     0.528578818         0.719557166         0.523636162
     0.430465996         0.316982269         0.221464470
     0.430465996         0.316982269         0.721464455
     0.430465996         0.816982269         0.221464470
     0.430465996         0.816982269         0.721464455
     0.930465996         0.316982269         0.221464470
     0.930465996         0.316982269         0.721464455
     0.930465996         0.816982269         0.221464470
     0.930465996         0.816982269         0.721464455
     0.031087460         0.221465304         0.316981733
     0.031087460         0.221465304         0.816981733
     0.031087460         0.721465290         0.316981733
     0.031087460         0.721465290         0.816981733
     0.531087458         0.221465304         0.316981733
     0.531087458         0.221465304         0.816981733
     0.531087458         0.721465290         0.316981733
     0.531087458         0.721465290         0.816981733
     0.403534740         0.093912460         0.194534525
     0.403534740         0.093912460         0.694534540
     0.403534740         0.593912482         0.194534525
     0.403534740         0.593912482         0.694534540
     0.903534770         0.093912460         0.194534525
     0.903534770         0.093912460         0.694534540
     0.903534770         0.593912482         0.194534525
     0.903534770         0.593912482         0.694534540
     0.308017701         0.194534048         0.093912721
     0.308017701         0.194534048         0.593912721
     0.308017701         0.694534063         0.093912721
     0.308017701         0.694534063         0.593912721
     0.808017731         0.194534048         0.093912721
     0.808017731         0.194534048         0.593912721
     0.808017731         0.694534063         0.093912721
     0.808017731         0.694534063         0.593912721
     0.314346850         0.309450269         0.185585365
     0.314346850         0.309450269         0.685585380
     0.314346850         0.809450269         0.185585365
     0.314346850         0.809450269         0.685585380
     0.814346850         0.309450269         0.185585365
     0.814346850         0.309450269         0.685585380
     0.814346850         0.809450269         0.185585365
     0.814346850         0.809450269         0.685585380
     0.190618858         0.185586825         0.309448987
     0.190618858         0.185586825         0.809448957
     0.190618858         0.685586810         0.309448987
     0.190618858         0.685586810         0.809448957
     0.690618873         0.185586825         0.309448987
     0.690618873         0.185586825         0.809448957
     0.690618873         0.685586810         0.309448987
     0.690618873         0.685586810         0.809448957
     0.439413309         0.434381247         0.310654461
     0.439413309         0.434381247         0.810654461
     0.439413309         0.934381247         0.310654461
     0.439413309         0.934381247         0.810654461
     0.939413309         0.434381247         0.310654461
     0.939413309         0.434381247         0.810654461
     0.939413309         0.934381247         0.310654461
     0.939413309         0.934381247         0.810654461
     0.315549850         0.310653299         0.434382349
     0.315549850         0.310653299         0.934382319
     0.315549850         0.810653329         0.434382349
     0.315549850         0.810653329         0.934382319
     0.815549850         0.310653299         0.434382349
     0.815549850         0.310653299         0.934382319
     0.815549850         0.810653329         0.434382349
     0.815549850         0.810653329         0.934382319
     0.227856025         0.024794502         0.422734976
     0.227856025         0.024794502         0.922734976
     0.227856025         0.524794519         0.422734976
     0.227856025         0.524794519         0.922734976
     0.727856040         0.024794502         0.422734976
     0.727856040         0.024794502         0.922734976
     0.727856040         0.524794519         0.422734976
     0.727856040         0.524794519         0.922734976
     0.324615091         0.422735363         0.024794364
     0.324615091         0.422735363         0.524794340
     0.324615091         0.922735333         0.024794364
     0.324615091         0.922735333         0.524794340
     0.824615121         0.422735363         0.024794364
     0.824615121         0.422735363         0.524794340
     0.824615121         0.922735333         0.024794364
     0.824615121         0.922735333         0.524794340
     0.202264518         0.300384969         0.397144794
     0.202264518         0.300384969         0.897144794
     0.202264518         0.800384998         0.397144794
     0.202264518         0.800384998         0.897144794
     0.702264547         0.300384969         0.397144794
     0.702264547         0.300384969         0.897144794
     0.702264547         0.800384998         0.397144794
     0.702264547         0.800384998         0.897144794
     0.100205436         0.397143960         0.300385565
     0.100205436         0.397143960         0.800385594
     0.100205436         0.897143960         0.300385565
     0.100205436         0.897143960         0.800385594
     0.600205421         0.397143960         0.300385565
     0.600205421         0.397143960         0.800385594
     0.600205421         0.897143960         0.300385565
     0.600205421         0.897143960         0.800385594
