Ca Mn Fe O 
 1.0000000000000000
     4.2260960000000001    4.2299470000000001    0.0000000000000000
    -4.2260960000000001    4.2299470000000001    0.0000000000000000
     0.0000000000000000    4.1744909999999997   13.0431670000000004
 Ca  Mn  Fe  O  
   4  10   4  24
Cartesian
 -1.1218613994878313  5.1814823895933095 11.9029327923260784
  0.9871654505628221  7.3236674499969308  9.8173112660991180
  1.1218613994878346  3.0942368895933061  5.3813492923260773
 -0.9871654505628276  5.2364219499969318  3.2957277660991169
 -0.0746092627956139  4.1590296534592097  0.0514507262979873
 -2.0875389485913720  8.4645522823165980 10.8463626788305785
  0.0157901288289573 10.5715835209715046 10.8861806643155532
  0.0095108370862765  4.1347033264538773  8.6339854667702376
 -2.0719831367668258  6.3398196959910305  8.6232547855215795
  0.0746092627956134  6.2462751534592034  6.5730342262979828
 -0.0157901288289615  8.4843380209715047  4.3645971643155521
  2.0875389485913711  6.3773067823165999  4.3247791788305783
  2.0719831367668293  4.2525741959910377  2.1016712855215749
 -0.0095108370862734  2.0474578264538810  2.1124019667702396
  2.1276336393612714  2.0864368154123318  0.0927564576578091
 -1.0194290027711448  9.5376053432484014  7.6021943947373147
 -2.1276336393612723  4.1736823154123268  6.6143399576578128
  1.0194290027711408  7.4503598432484006  1.0806108947373141
 -0.0895681130611305  6.4876691512272719 -0.0744529813649006
 -2.0226127444212563  4.2765664215794832  0.0552091929183754
  2.2053163184787321  6.1578560106995779 11.1515051279479938
 -0.1732994213356853  8.4772984626147423 11.1933272742278351
  0.2419820906970104  4.2259503280262223 10.5509339797930437
 -2.1624562670530376  6.5201985680298620 10.5797536488822157
 -1.9283645116745565  8.2729788866887510  8.6265553658867073
 -0.0912226502954011 10.6465428531789872  8.7924116414932492
  0.0676374148824846  6.0334614276697787  8.4421440983473683
  2.0662352275141789  8.6689854197478358  8.5828937023990477
 -0.1779006839402190  4.0656206121053113  6.7367012228593692
 -1.8702191365993017  6.1701054555908676  6.6777670345253508
  0.0895681130611327  8.5749146512272727  6.4471305186351051
  2.0226127444212554  6.3638119215794822  6.5767926929183700
 -2.2053163184787379  4.0706105106995825  4.6299216279479918
  0.1732994213356840  6.3900529626147389  4.6717437742278349
  2.1624562670530385  4.4329530680298648  4.0581701488822137
 -0.2419820906970125  2.1387048280262264  4.0293504797930471
  1.9283645116745554  6.1857333866887565  2.1049718658867116
  0.0912226502953999  8.5592973531789891  2.2708281414932507
 -0.0676374148824784  3.9462159276697810  1.9205605983473715
 -2.0662352275141727  6.5817399197478430  2.0613102023990448
  1.8702191365993035  4.0828599555908722  0.1561835345253487
  0.1779006839402201  1.9783751121053212  0.2151177228593690
