Ca4 Mn10 Fe4 O24
1.0
   4.2260960000000001    4.2299470000000001    0.0000000000000000
  -4.2260960000000001    4.2299470000000001    0.0000000000000000
   0.0000000000000000    4.1744909999999997   13.0431670000000004
Ca Mn Fe O
4 10 4 24
direct
   0.0368320000000000    0.2933640000000000    0.9147689999999991 Ca
   0.6286130000000000    0.3623610000000000    0.7540779999999990 Ca
   0.2933640000000000    0.0368320000000000    0.4147690000000000 Ca
   0.3623610000000000    0.6286130000000000    0.2540779999999990 Ca
   0.4928220000000000    0.4996520000000000    0.0036700000000000 Mn
   0.3348669999999990    0.8343780000000000    0.8323579999999990 Mn
   0.8332670000000000    0.8344420000000000    0.8336530000000000 Mn
   0.1674060000000000    0.1689310000000000    0.6615559999999990 Mn
   0.1706960000000000    0.6619940000000000    0.6639889999999991 Mn
   0.4996520000000000    0.4928220000000000    0.5036700000000001 Mn
   0.8344420000000000    0.8332670000000000    0.3336530000000000 Mn
   0.8343780000000000    0.3348669999999990    0.3323580000000000 Mn
   0.6619940000000000    0.1706960000000000    0.1639890000000000 Mn
   0.1689310000000000    0.1674060000000000    0.1615560000000000 Mn
   0.4990200000000000    0.0073380000000000    0.0012870000000000 Fe
   0.7064770000000000    0.9664729999999990    0.5835739999999990 Fe
   0.0073380000000000    0.4990200000000000    0.5012869999999990 Fe
   0.9664729999999990    0.7064770000000000    0.0835740000000000 Fe
   0.7472930000000000    0.7701900000000000    0.0036019999999990 O
   0.2714729999999990    0.7433980000000000    0.0012660000000000 O
   0.5755030000000000    0.0470180000000000    0.8464860000000000 O
   0.5781200000000001    0.6077600000000001    0.8476939999999999 O
   0.0952060000000000    0.0638600000000000    0.8141860000000000 O
   0.0919620000000000    0.6228890000000000    0.8166530000000000 O
   0.3900849999999990    0.9172239999999990    0.6613049999999990 O
   0.9243169999999991    0.9408679999999990    0.6662080000000000 O
   0.4066470000000000    0.3863780000000000    0.6552930000000000 O
   0.9568559999999990    0.4137980000000000    0.6617540000000000 O
   0.2246790000000000    0.2464049999999990    0.5138230000000000 O
   0.2578050000000000    0.7102510000000000    0.5122120000000000 O
   0.7701900000000000    0.7472930000000000    0.5036020000000000 O
   0.7433980000000000    0.2714729999999990    0.5012660000000000 O
   0.0470180000000000    0.5755030000000000    0.3464859999999990 O
   0.6077600000000001    0.5781200000000001    0.3476940000000000 O
   0.6228890000000000    0.0919620000000000    0.3166529999999990 O
   0.0638600000000000    0.0952060000000000    0.3141859999999990 O
   0.9172239999999990    0.3900849999999990    0.1613050000000000 O
   0.9408679999999990    0.9243169999999991    0.1662080000000000 O
   0.3863780000000000    0.4066470000000000    0.1552930000000000 O
   0.4137980000000000    0.9568559999999990    0.1617539999999990 O
   0.7102510000000000    0.2578050000000000    0.0122119999999990 O
   0.2464049999999990    0.2246790000000000    0.0138230000000000 O
