Ca Mn V  P  O 
1.0
        8.5123615265         0.0000000000         0.0000000000
        0.0000000000         7.3532528877         0.0000000000
       -0.0000040207         3.3075421743         9.5060625923
   Ca   Mn    V    P    O
    3    2    2    8   28
Direct
     0.906437039         0.736665428         0.132437572
     0.404767185         0.263893157         0.368050218
     0.406439275         0.263331145         0.867563009
     0.490196586         0.742555261         0.140160590
     0.990190566         0.257444173         0.859839022
     0.491964161         0.729523599         0.639097035
     0.991960347         0.270480633         0.360900462
     0.189425260         0.500639796         0.556638658
     0.763538182         0.103944890         0.641537905
     0.263626367         0.896096826         0.358454764
     0.689438283         0.499388367         0.443340033
     0.195392862         0.495990723         0.058137629
     0.771738112         0.107106388         0.144110620
     0.271732569         0.892941594         0.855889261
     0.695421934         0.503954530         0.941915333
     0.295170963         0.828163266         0.729103804
     0.672575891         0.916675389         0.664873064
     0.047739509         0.461288899         0.654456079
     0.347831130         0.483371228         0.632894456
     0.690078378         0.611602306         0.547253430
     0.418080658         0.915493309         0.433984488
     0.154588073         0.729966760         0.471066236
     0.654594302         0.270033121         0.528933406
     0.918174088         0.084501192         0.565967679
     0.190076247         0.388372868         0.452724248
     0.847783506         0.516626239         0.367130965
     0.547771811         0.538703740         0.345567048
     0.282940537         0.837248027         0.229100510
     0.676219404         0.921894908         0.173034832
     0.172600716         0.083269812         0.335133433
     0.795172811         0.171827301         0.270890504
     0.052100752         0.462703884         0.155368730
     0.351717919         0.475975692         0.137172937
     0.694338918         0.617038846         0.044748154
     0.423896253         0.921085656         0.930635095
     0.164724573         0.726594746         0.970334947
     0.664722323         0.273423761         0.029656194
     0.923901558         0.078909904         0.069364704
     0.194343314         0.382976145         0.955258012
     0.851741672         0.524031520         0.862807691
     0.552054703         0.537309945         0.844599485
     0.176231176         0.078074589         0.826970279
     0.782956302         0.162778988         0.770946562
