Ca Ti O 
 1.0000000000000000
    14.6439819335999992    0.0000000000000000    0.0000000000000000
    13.3873346942999998    5.9351054458999997    0.0000000000000000
     6.3008069636000004    1.3340776753000001    7.1998947533999997
 Ca  Ti  O  
   3  16  32
Selective dynamics
Cartesian
 20.5823244054800654  4.9499579004557956  6.7544331847860430   T   T   T
 14.0106273954217144  2.9638400062893409  6.3599677301880204   T   T   T
 28.0955429772403562  5.9485330386173860  6.2788178022648813   T   T   T
  7.9178807747104880  1.6589142771556225  3.1763779072500515   T   T   T
 14.6074694226028008  4.6503986054596940  3.1895770256557761   T   T   T
 15.2389810671794201  1.6677432717056824  3.1477248437367433   T   T   T
 21.9303911444381896  4.6324807814191953  3.1286266496015833   T   T   T
 17.0019450144562150  3.5870764547212639  5.6554658712389019   T   T   T
 23.6353367111209849  6.5697201810479129  5.6692057371238418   T   T   T
 24.1795914600117499  3.5397317896587670  5.6855613111676417   T   T   T
 31.0944285851282807  6.5689349623425528  5.6426849972365760   T   T   T
  3.3038931300746870  0.6865820923756945  1.0854938078838197   T   T   T
 10.0569031777451325  3.6682375998174099  1.1145852655210007   T   T   T
 10.6894194737305757  0.7197033372995342  1.1051935611426185   T   T   T
 17.4626331271596342  3.6757016907082156  1.1123662795414002   T   T   T
 12.3305151669664355  2.6083368992898186  3.5969232231594450   T   T   T
 19.0841501062681935  5.6156462869636297  3.4959223370281505   T   T   T
 19.7656081365248149  2.5942686053340958  3.5971970248924663   T   T   T
 26.2928291969844317  5.5630229658688526  3.6103411780442158   T   T   T
  4.4725917036271827  0.9385168784586047  2.6553114579947539   T   T   T
 11.1740829458268820  3.9169761359512307  2.6780213602745060   T   T   T
 11.8008468736668419  0.9401918429953640  2.6806269388145019   T   T   T
 18.5083920964779090  3.8984425847088557  2.6776662443574080   T   T   T
  9.1703743819006949  1.9351393233656746  1.6686201509199967   T   T   T
 15.8510898361314041  4.8743658711610802  1.7365230631672242   T   T   T
 16.5305059659339193  1.9421753192965241  1.8023358720913025   T   T   T
 23.1787610549204572  4.9028219752300828  1.6625522734407865   T   T   T
 11.0052333545444352  2.3291408335801678  5.0745218899204882   T   T   T
 17.7465160417712582  5.2889406980467362  5.0426533098178066   T   T   T
 18.3391290719749662  2.3308606081206689  5.0304662045247532   T   T   T
 25.0165961188691384  5.2764347685396835  5.0860424099969048   T   T   T
 15.6707177167926730  3.3146449765326107  4.2515517204527775   T   T   T
 22.4709761382670656  6.2888698893168371  4.1340103191699527   T   T   T
 23.1027827141079172  3.3283456035545202  4.1107050782189587   T   T   T
 29.6958532051673743  6.2825963966685521  4.2853194839716382   T   T   T
 13.8998040536820646  2.9503831494477626  2.3670884318085972   T   T   T
 20.6226462717278380  5.8919850511464942  2.3059532604137103   T   T   T
 21.2412926953137635  2.9451521752015664  2.3338173199842722   T   T   T
 27.9035575798849180  5.9020273295788721  2.4809066668443847   T   T   T
  8.8224250620155296  1.8188268136693861  6.5082339057110614   T   T   T
 15.4346462174693269  4.7895641952369630  6.5266591787904860   T   T   T
 16.0512111326526927  1.8729345749771196  6.5290445813787965   T   T   T
 22.7888492071817765  4.8064004810488736  6.5161356427398509   T   T   T
  6.3644364688779937  1.2994207569395972  4.4361151513072965   T   T   T
 13.0438715454264500  4.2878394250584524  4.6528309378111761   T   T   T
 13.6546893461907679  1.3596612772196375  4.6531526421505083   T   T   T
 20.3720267833984039  4.3172413259418310  4.5110108504522151   T   T   T
 11.4257964785594837  2.4262063956197037  0.2583256163041564   T   T   T
 18.0711965202902682  5.3476689903176258  0.3105893274630502   T   T   T
 18.6736441697024773  2.3927157566023407  0.3026685960610242   T   T   T
 25.3739244758023403  5.3615654618811011  0.2619556401686524   T   T   T
