Ca Mn C  O 
1.0
        9.9660243988         0.0000000000         0.0000000000
        2.3041255220        12.9771716240         0.0000000000
       -0.0008554189         0.0001921137         8.0401582240
   Ca   Mn    C    O
    7    8   16   48
Direct
     0.516408563         0.410692751         0.559050262
     0.106125772         0.339590907         0.059352618
     0.358734280         0.839181304         0.058487564
     0.858734250         0.839181304         0.058487564
     0.016408563         0.410692751         0.559050262
     0.268681914         0.910713911         0.559269190
     0.768681884         0.910713911         0.559269190
     0.330900788         0.539563537         0.033218145
     0.830900788         0.539563537         0.033218145
     0.043544590         0.710564971         0.532975376
     0.543544590         0.710564971         0.532975376
     0.082462244         0.039705463         0.032980442
     0.582462251         0.039705463         0.032980442
     0.293256700         0.210282221         0.533043683
     0.793256700         0.210282221         0.533043683
     0.343224257         0.054493453         0.263321429
     0.843224287         0.054493453         0.263321429
     0.091898732         0.555301011         0.263990223
     0.591898739         0.555301011         0.263990223
     0.532131732         0.195160925         0.763411224
     0.032131732         0.195160925         0.763411224
     0.282719642         0.694891214         0.763981342
     0.782719612         0.694891214         0.763981342
     0.357673585         0.324351907         0.236038342
     0.857673585         0.324351907         0.236038342
     0.110006601         0.824487746         0.236231193
     0.610006571         0.824487746         0.236231193
     0.265048414         0.425331712         0.736184359
     0.765048385         0.425331712         0.736184359
     0.017213732         0.925948024         0.735908151
     0.517213702         0.925948024         0.735908151
     0.958511531         0.082469992         0.241113782
     0.458511531         0.082469992         0.241113782
     0.207210928         0.583298266         0.241791844
     0.707210898         0.583298266         0.241791844
     0.416862369         0.166969180         0.741804540
     0.916862369         0.166969180         0.741804540
     0.167454824         0.666987896         0.740985751
     0.667454839         0.666987896         0.740985751
     0.283188105         0.013678529         0.142132401
     0.783188105         0.013678529         0.142132401
     0.031688735         0.514666677         0.142800719
     0.531688750         0.514666677         0.142800719
     0.091962062         0.235592812         0.641682088
     0.591962039         0.235592812         0.641682088
     0.343259901         0.735911608         0.643603265
     0.843259931         0.735911608         0.643603265
     0.285736293         0.064576522         0.410999447
     0.785736322         0.064576522         0.410999447
     0.034392893         0.565226555         0.411679000
     0.534392893         0.565226555         0.411679000
     0.090231076         0.185330808         0.910767794
     0.590231061         0.185330808         0.910767794
     0.339643866         0.684808969         0.912022829
     0.839643836         0.684808969         0.912022829
     0.470299333         0.322226703         0.313355178
     0.970299363         0.322226703         0.313355178
     0.222648323         0.822529137         0.313425422
     0.722648323         0.822529137         0.313425422
     0.152438149         0.427341431         0.813462973
     0.652438164         0.427341431         0.813462973
     0.404519796         0.927812159         0.812847137
     0.904519796         0.927812159         0.812847137
     0.258007169         0.282617569         0.292038262
     0.758007169         0.282617569         0.292038262
     0.509864092         0.783516765         0.292935729
     0.009864092         0.783516765         0.292935729
     0.364876866         0.466890574         0.792234659
     0.864876866         0.466890574         0.792234659
     0.117059693         0.967425823         0.792386472
     0.617059708         0.967425823         0.792386472
     0.340475321         0.367543250         0.088324748
     0.840475321         0.367543250         0.088324748
     0.592886925         0.866828620         0.087834217
     0.092886925         0.866828620         0.087834217
     0.282095909         0.382485121         0.588135064
     0.782095909         0.382485121         0.588135064
     0.034654230         0.883004069         0.588149130
     0.534654260         0.883004069         0.588149130
