Ca V  F 
1.0
        9.9288482666         0.0000000000         0.0000000000
        0.0000031543        11.8443756104         0.0000000000
        0.0000000000        -0.0172384595         7.2077492566
   Ca    V    F
    7    8   40
Direct
     0.117967531         0.802532911         0.374609917
     0.436055094         0.451680094         0.167126805
     0.436055094         0.951680064         0.167126805
     0.617969811         0.197465912         0.625390947
     0.617969811         0.697465897         0.625390947
     0.936051786         0.048319764         0.832868695
     0.936051786         0.548319757         0.832868695
     0.375412524         0.451226503         0.624862850
     0.375412524         0.951226473         0.624862850
     0.764997482         0.301609337         0.106873915
     0.764997482         0.801609337         0.106873915
     0.264991790         0.198386937         0.893123984
     0.264991790         0.698386908         0.893123984
     0.875401497         0.048770610         0.375155658
     0.875401497         0.548770607         0.375155658
     0.272189945         0.441633373         0.391816497
     0.272189945         0.941633344         0.391816497
     0.471681803         0.454652786         0.855771005
     0.471681803         0.954652786         0.855771005
     0.742034853         0.440713823         0.280975193
     0.742034853         0.940713823         0.280975193
     0.501595497         0.344366997         0.509975314
     0.501595497         0.844367027         0.509975314
     0.982617557         0.431423157         0.516814351
     0.982617557         0.931423187         0.516814351
     0.793714106         0.406282783         0.906573474
     0.793714106         0.906282783         0.906573474
     0.266739696         0.316874772         0.092638433
     0.266739696         0.816874743         0.092638433
     0.249550909         0.315127492         0.683795571
     0.249550909         0.815127492         0.683795571
     0.952466846         0.304195821         0.170758948
     0.952466846         0.804195821         0.170758948
     0.574476004         0.303942084         0.118831456
     0.574476004         0.803942084         0.118831456
     0.074479938         0.196057692         0.881171107
     0.074479938         0.696057677         0.881171107
     0.452470392         0.195804268         0.829240501
     0.452470392         0.695804238         0.829240501
     0.749551713         0.184873492         0.316202730
     0.749551713         0.684873462         0.316202730
     0.766739547         0.183128655         0.907364786
     0.766739547         0.683128655         0.907364786
     0.293715179         0.093716860         0.093427092
     0.293715179         0.593716860         0.093427092
     0.482617438         0.068577535         0.483184546
     0.482617438         0.568577528         0.483184546
     0.001598358         0.155635133         0.490025729
     0.001598358         0.655635118         0.490025729
     0.242033839         0.059288606         0.719024599
     0.242033839         0.559288621         0.719024599
     0.971685946         0.045346595         0.144219905
     0.971685946         0.545346618         0.144219905
     0.772193134         0.058366071         0.608175814
     0.772193134         0.558366060         0.608175814
