Ca Mn V  P  O 
1.0
        9.9008922577         0.0000000000         0.0000000000
       -4.7712380624         8.6570731641         0.0000000000
       -1.2332559870        -2.0756746541         6.9443319919
   Ca   Mn    V    P    O
    3    2    2    8   28
Direct
     0.163552120         0.067584522         0.736660004
     0.676312804         0.086519636         0.264463574
     0.183087587         0.584787726         0.263736993
     0.397401273         0.385018557         0.260235608
     0.365173966         0.854217231         0.742061734
     0.864126086         0.357360661         0.730705261
     0.892409444         0.885677636         0.267836064
     0.093780816         0.285924286         0.499382138
     0.760074794         0.029586095         0.897852659
     0.257784039         0.522895336         0.891155064
     0.460391998         0.155946136         0.506112576
     0.599322259         0.792116523         0.497178793
     0.726377904         0.490925640         0.103062503
     0.220646277         0.991321266         0.108173937
     0.961434424         0.651121855         0.497058481
     0.066550672         0.116339810         0.460720539
     0.357760280         0.052344900         0.618683577
     0.607642412         0.027727958         0.924390912
     0.106661007         0.526922226         0.912752688
     0.196661532         0.352617025         0.728680491
     0.388396025         0.052875977         0.275533080
     0.220175028         0.142289177         0.078786917
     0.195874184         0.390140831         0.387438416
     0.461521775         0.313398093         0.525262058
     0.130586237         0.679522276         0.535994351
     0.628654957         0.180881828         0.540465832
     0.875182271         0.172127917         0.839119196
     0.376603216         0.658298671         0.826117456
     0.240463078         0.913897693         0.924452603
     0.747063696         0.422477782         0.914809048
     0.329297692         0.504814386         0.080321752
     0.835032046         0.006975266         0.080781899
     0.081479505         0.876879990         0.172460362
     0.587813795         0.370991707         0.162633300
     0.573456883         0.623709500         0.462212354
     0.443679005         0.794004321         0.474887878
     0.937294424         0.286288679         0.484506518
     0.857342660         0.547650576         0.609583795
     0.701850057         0.864649057         0.727810085
     0.893457890         0.548379481         0.267689139
     0.724455178         0.644014657         0.084413044
     0.704292119         0.894923747         0.384168595
     0.957717419         0.806257486         0.513862252
