V  Fe P  O 
 1.0000000000000000
     4.8994960000000001   -0.0283250000000000    0.1399640000000000
    -0.0595840000000000    8.1735640000000007   -0.0308020000000000
    -2.0981589999999999    0.0079790000000000    6.6235510000000000
 V   Fe  P   O  
   1   1   4  14
Cartesian
 -0.5934083875919657  4.1205859521441726  4.7996827178190813
  3.1289273271366440  8.2033732543552969  1.8177809480067786
  0.7127193655281703  1.5153176962710275  3.3626111203382578
  0.8365117965699489  6.2738691190670917  0.6814107696054487
  1.7087595960319784  2.2105097143516441  5.9799012433705112
  1.8694909674008056  5.6315222797832876  3.2979529070983018
  3.0796837507131802  2.7552901976217057  5.5277625364345075
 -1.2336936835596348  5.3385865872631619  6.0582619355778125
 -0.3724839570946381  0.5096180705054255  3.0874224714494178
  0.1192864285972867  2.9689390208830124  3.4949881209233586
  0.6435940814376893  5.4225861268630879  4.2391931794951629
  0.6854629914045054  3.3906449125188334  6.0177745327779162
  1.1988092790252614  1.1818588463654454  4.8765715579721229
  1.3856076678070461  5.2319032037510738  1.8279662117765825
  1.8195094808002084  7.4164492172895224  0.5305032516466555
  1.9105212080981779  1.5132651213081427  2.4510968411027911
  2.3242104578226446  7.0637726520384003  3.3117575793398228
  2.9716799145754762  4.6214662270860938  3.6696490381906797
  3.9270232735555299  1.4383874700271297  0.6344344258793182
  4.3217673562096772  6.6414653118444633  1.1547451001934514
