Ca V  F 
1.0
       10.9373550415         0.0000000000         0.0000000000
       -0.0000587949         7.1216506956         0.0000000000
        0.0002182744        -0.0000653212        11.9650602319
   Ca    V    F
    7    8   40
Direct
     0.709813893         0.392450005         0.203486383
     0.040071908         0.607550085         0.703506410
     0.540071905         0.607550085         0.703506410
     0.290189594         0.892394662         0.296538115
     0.209813908         0.392450005         0.203486383
     0.459911495         0.107560955         0.796503484
     0.959911466         0.107560955         0.796503484
     0.168702379         0.118965127         0.579501331
     0.668702364         0.118965127         0.579501331
     0.418731928         0.381208569         0.420471489
     0.918731928         0.381208569         0.420471489
     0.081158206         0.881032109         0.079530306
     0.581158221         0.881032109         0.079530306
     0.331312567         0.618991435         0.920453429
     0.831312537         0.618991435         0.920453429
     0.299073428         0.090677299         0.686222494
     0.799073458         0.090677299         0.686222494
     0.075810261         0.923085093         0.666019440
     0.575810254         0.923085093         0.666019440
     0.088150844         0.290840477         0.687155247
     0.588150859         0.290840477         0.687155247
     0.269360006         0.331751615         0.512886107
     0.769360006         0.331751615         0.512886107
     0.227047876         0.937978566         0.471257806
     0.727047861         0.937978566         0.471257806
     0.476995856         0.562065303         0.528693318
     0.976995826         0.562065303         0.528693318
     0.019444840         0.168203011         0.487094641
     0.519444823         0.168203011         0.487094641
     0.338172644         0.209144413         0.312805325
     0.838172674         0.209144413         0.312805325
     0.325748324         0.576905072         0.334032267
     0.825748324         0.576905072         0.334032267
     0.048979230         0.409258217         0.313783377
     0.548979223         0.409258217         0.313783377
     0.451050073         0.909280956         0.186198622
     0.951050043         0.909280956         0.186198622
     0.174264967         0.077057578         0.165995538
     0.674264967         0.077057578         0.165995538
     0.161843270         0.709102631         0.187169835
     0.661843300         0.709102631         0.187169835
     0.480563015         0.668279886         0.012915137
     0.980563045         0.668279886         0.012915137
     0.022980820         0.062130857         0.971304595
     0.522980809         0.062130857         0.971304595
     0.273013949         0.437816352         0.028742539
     0.773013949         0.437816352         0.028742539
     0.230617270         0.831747890         0.987094223
     0.730617285         0.831747890         0.987094223
     0.411837608         0.790799379         0.812871277
     0.911837578         0.790799379         0.812871277
     0.424197286         0.423042983         0.833978295
     0.924197316         0.423042983         0.833978295
     0.200956434         0.590679467         0.813789129
     0.700956464         0.590679467         0.813789129
