Ca Co C  O 
1.0
       11.6224088669         0.0000000000         0.0000000000
       -0.6051261505        16.1436615395         0.0000000000
       -0.1193949419         0.2516773123        11.7228995366
   Ca   Co    C    O
   15   16   32   96
Direct
     0.453898787         0.715207517         0.563298643
     0.248388216         0.176769868         0.032054003
     0.248388216         0.676769853         0.032054003
     0.748388231         0.176769868         0.032054003
     0.748388231         0.676769853         0.032054003
     0.453898787         0.215207502         0.563298643
     0.953898787         0.215207502         0.563298643
     0.953898787         0.715207517         0.563298643
     0.217091456         0.445846945         0.192129746
     0.217091456         0.945846915         0.192129746
     0.717091441         0.445846945         0.192129746
     0.717091441         0.945846915         0.192129746
     0.514423490         0.951424003         0.684996963
     0.014423490         0.451423973         0.684996963
     0.014423490         0.951424003         0.684996963
     0.472333640         0.496409148         0.978506148
     0.472333640         0.996409178         0.978506148
     0.972333670         0.496409148         0.978506148
     0.972333670         0.996409178         0.978506148
     0.212227479         0.253402442         0.769522190
     0.212227479         0.753402472         0.769522190
     0.712227464         0.253402442         0.769522190
     0.712227464         0.753402472         0.769522190
     0.234150708         0.000653570         0.484315664
     0.234150708         0.500653565         0.484315664
     0.734150708         0.000653570         0.484315664
     0.734150708         0.500653565         0.484315664
     0.478015661         0.244989961         0.260944992
     0.478015661         0.744989991         0.260944992
     0.978015661         0.244989961         0.260944992
     0.978015661         0.744989991         0.260944992
     0.331379890         0.120246157         0.306717306
     0.331379890         0.620246172         0.306717306
     0.831379890         0.120246157         0.306717306
     0.831379890         0.620246172         0.306717306
     0.041076317         0.127298892         0.814179778
     0.041076317         0.627298892         0.814179778
     0.541076303         0.127298892         0.814179778
     0.541076303         0.627298892         0.814179778
     0.090429410         0.351873636         0.440454870
     0.090429410         0.851873636         0.440454870
     0.590429425         0.351873636         0.440454870
     0.590429425         0.851873636         0.440454870
     0.306768715         0.373596251         0.937199831
     0.306768715         0.873596251         0.937199831
     0.806768715         0.373596251         0.937199831
     0.806768715         0.873596251         0.937199831
     0.526978314         0.123043425         0.078833319
     0.526978314         0.623043418         0.078833319
     0.026978314         0.123043425         0.078833319
     0.026978314         0.623043418         0.078833319
     0.187824607         0.128160462         0.588248551
     0.187824607         0.628160477         0.588248551
     0.687824607         0.128160462         0.588248551
     0.687824607         0.628160477         0.588248551
     0.448971659         0.389493942         0.179678768
     0.448971659         0.889493942         0.179678768
     0.948971629         0.389493942         0.179678768
     0.948971629         0.889493942         0.179678768
     0.280099094         0.377859890         0.665344179
     0.280099094         0.877859890         0.665344179
     0.780099094         0.377859890         0.665344179
     0.780099094         0.877859890         0.665344179
     0.280029356         0.049195383         0.333896130
     0.280029356         0.549195409         0.333896130
     0.780029356         0.049195383         0.333896130
     0.780029356         0.549195409         0.333896130
     0.036668532         0.046130795         0.830218554
     0.036668532         0.546130776         0.830218554
     0.536668539         0.046130795         0.830218554
     0.536668539         0.546130776         0.830218554
     0.071935773         0.278933764         0.397463739
     0.071935773         0.778933764         0.397463739
     0.571935773         0.278933764         0.397463739
     0.571935773         0.778933764         0.397463739
     0.286346763         0.293985486         0.919839561
     0.286346763         0.793985486         0.919839561
     0.786346793         0.293985486         0.919839561
     0.786346793         0.793985486         0.919839561
     0.101290733         0.064211316         0.070067644
     0.101290733         0.564211309         0.070067644
     0.601290703         0.064211316         0.070067644
     0.601290703         0.564211309         0.070067644
     0.293847859         0.117218390         0.567252517
     0.293847859         0.617218375         0.567252517
     0.793847859         0.117218390         0.567252517
     0.793847859         0.617218375         0.567252517
     0.051271480         0.362883449         0.175426826
     0.051271480         0.862883449         0.175426826
     0.551271498         0.362883449         0.175426826
     0.551271498         0.862883449         0.175426826
     0.340314835         0.311725914         0.671361029
     0.340314835         0.811725914         0.671361029
     0.840314865         0.311725914         0.671361029
     0.840314865         0.811725914         0.671361029
     0.429154068         0.112457260         0.026152536
     0.429154068         0.612457275         0.026152536
     0.929154038         0.112457260         0.026152536
     0.929154038         0.612457275         0.026152536
     0.113495499         0.065411672         0.570046842
     0.113495499         0.565411687         0.570046842
     0.613495469         0.065411672         0.570046842
     0.613495469         0.565411687         0.570046842
     0.368347883         0.342293501         0.227667689
     0.368347883         0.842293501         0.227667689
     0.868347883         0.342293501         0.227667689
     0.868347883         0.842293501         0.227667689
     0.182645991         0.375443816         0.718110025
     0.182645991         0.875443816         0.718110025
     0.682645977         0.375443816         0.718110025
     0.682645977         0.875443816         0.718110025
     0.306033820         0.156532720         0.212031081
     0.306033820         0.656532705         0.212031081
     0.806033850         0.156532720         0.212031081
     0.806033850         0.656532705         0.212031081
     0.465139955         0.164473265         0.758531332
     0.465139955         0.664473295         0.758531332
     0.965139985         0.164473265         0.758531332
     0.965139985         0.664473295         0.758531332
     0.536017299         0.367643416         0.531899035
     0.536017299         0.867643416         0.531899035
     0.036017299         0.367643416         0.531899035
     0.036017299         0.867643416         0.531899035
     0.240902171         0.414934784         0.996867955
     0.240902171         0.914934754         0.996867955
     0.740902185         0.414934784         0.996867955
     0.740902185         0.914934754         0.996867955
     0.411143988         0.154931784         0.370214939
     0.411143988         0.654931784         0.370214939
     0.911144018         0.154931784         0.370214939
     0.911144018         0.654931784         0.370214939
     0.132264629         0.167004660         0.859291077
     0.132264629         0.667004645         0.859291077
     0.632264614         0.167004660         0.859291077
     0.632264614         0.667004645         0.859291077
     0.163153827         0.406316608         0.394577354
     0.163153827         0.906316638         0.394577354
     0.663153827         0.406316608         0.394577354
     0.663153827         0.906316638         0.394577354
     0.401278555         0.407547146         0.890517831
     0.401278555         0.907547116         0.890517831
     0.901278555         0.407547146         0.890517831
     0.901278555         0.907547116         0.890517831
     0.557194114         0.189830393         0.130864441
     0.557194114         0.689830422         0.130864441
     0.057194114         0.189830393         0.130864441
     0.057194114         0.689830422         0.130864441
     0.150517985         0.198285624         0.620481908
     0.150517985         0.698285639         0.620481908
     0.650518000         0.198285624         0.620481908
     0.650518000         0.698285639         0.620481908
     0.420186818         0.461002588         0.138241470
     0.420186818         0.961002588         0.138241470
     0.920186818         0.461002588         0.138241470
     0.920186818         0.961002588         0.138241470
     0.320368141         0.444036663         0.612553537
     0.320368141         0.944036663         0.612553537
     0.820368171         0.444036663         0.612553537
     0.820368171         0.944036663         0.612553537
