Ca V  S  O  F 
 1.0000000000000000
     7.1655740000000003    0.0000000000000000    0.0000000000000000
     0.4158380000000000    7.8686100000000003    0.0000000000000000
     0.1948119999999990    0.2373289999999990   10.2569320000000008
 Ca  V   S   O   F  
   4   4   4  16  12
Cartesian
  1.2205360260068563  1.1908556760599820  2.8437035789695111
  5.3424493627047962  6.6582742283511518  2.7800026671721878
  6.3738470404403911  2.9109371920577596  7.9808221784689044
  6.3338036772026252  6.7786741166565641  7.2400490995643443
  0.4777128507383991  4.2293968854973576  4.9633287499236651
  7.6913699447056150  7.8643402981046817 10.2635665281330208
  3.9984097168991237  4.3829421361705236  5.1297430296260877
  4.0556612102516416  7.8495619858770107 10.1692304654050467
  1.8452344747378597  2.4487546434554153 -0.2244813080631039
  2.1713445715421851  6.9278034370130781  5.4790799613329195
  5.5907898742626632  1.6063709909042789  4.9430619415006563
  5.7084332321915427  4.9785229367701485  0.2790624934433381
  0.8556260481491677  1.5038737401395146  0.5408283190565533
  1.2921151111115556  6.0376231699104430  4.6148360934405295
  1.3290324498651513  3.2157716295899292  8.8663293129247940
  1.4053289816540244  7.3733791427763578  6.6441754382815157
  2.3405259813287160  3.4038543333965667  0.7258011192402000
  2.6155558250284727  8.0572931924762923  4.6410796328105128
  3.1591084636156945  1.7780054929376530  9.5246518004981020
  3.3855395880772430  6.1515294082572831  5.9185883608961953
  4.5701370879003393  2.5303070213700298  4.3881596462530377
  4.4617096638568219  5.8039216941382374  0.5758964064685540
  5.0566817635806336  0.7445763117614780  6.0054433197083581
  5.5481829950056394  4.0037508421501755  9.8078192206898613
  6.1208630306441707  0.7758200701833911  3.8224618342474996
  6.3426939342151698  4.7564482589871631  1.5729154702797818
  6.7214357368604247  2.4145182986664140  5.5608867845596128
  6.7956430513921982  6.0636988957527436  9.6257185933835743
  6.7040140511646937  0.7176674916236190  8.5292154141133789
  7.2838984686627937  4.7300457520668369  6.8353335988249713
  2.2528063728188354  3.5297547519024439  5.4954711975687101
  2.2225115684110173  7.1122936291740135  9.8068098198495068
  3.0829484573576815  0.0922010848088506  1.8662387778545804
  3.7407986890850262  5.1085202226969209  3.3829663302075095
  4.6774112696466785  3.9543391742214893  6.8949001837653894
  4.5500751407830258  7.3139675460468165  8.4066267174693099
  5.2651097553137962  0.3833592859421607  0.5529404506022170
  5.8757704351543545  5.2553784952378333  4.7091737046721445
  0.7360129277358187  3.3359630930592998  3.3213516143934760
  7.6158698194790748  7.2271180520871221  1.9008738087569121
