Ca4 V4 S4 O16 F12
1.0
   7.1655740000000003    0.0000000000000000    0.0000000000000000
   0.4158380000000000    7.8686100000000003    0.0000000000000000
   0.1948119999999990    0.2373289999999990   10.2569320000000008
Ca V S O F
4 4 4 16 12
direct
   0.1943540000000000    0.1112549999999990    0.2727150000000000 Ca
   0.7079100000000000    0.8851819999999990    0.2578180000000000 Ca
   0.8664139999999990    0.4145680000000000    0.7963620000000000 Ca
   0.8657370000000000    0.8998269999999990    0.7181730000000000 Ca
   0.0017130000000000    0.4947010000000000    0.4900739999999990 V
   0.9920939999999990    0.9958629999999991    0.9980739999999991 V
   0.5012550000000000    0.4999519999999991    0.4999320000000000 V
   0.4915730000000000    0.9986900000000001    0.9911350000000000 V
   0.2207480000000000    0.3268470000000000    0.0078140000000000 S
   0.2208719999999990    0.8299360000000000    0.5093240000000000 S
   0.7644850000000000    0.1597370000000000    0.5003440000000000 S
   0.7689549999999991    0.6641670000000000    0.0094469999999990 S
   0.0987850000000000    0.1930700000000000    0.0812229999999990 O
   0.0927630000000000    0.7122430000000000    0.4372419999999990 O
   0.1131770000000000    0.4055610000000000    0.9027729999999990 O
   0.1161820000000000    0.9028250000000000    0.6181090000000000 O
   0.2989040000000000    0.4307120000000000    0.1030079999999990 O
   0.2881090000000000    0.9513649999999991    0.4117750000000000 O
   0.3822490000000000    0.2150400000000000    0.9439230000000000 O
   0.3852150000000000    0.7199000000000000    0.5601060000000000 O
   0.6005619999999990    0.2733910000000000    0.4505100000000000 O
   0.6142420000000000    0.7843869999999999    0.0679500000000000 O
   0.7008570000000000    0.0458310000000000    0.6035410000000000 O
   0.6967449999999999    0.5582659999999990    0.9103580000000000 O
   0.8481069999999991    0.0726310000000000    0.3873180000000000 O
   0.8663980000000000    0.5823720000000000    0.1165509999999990 O
   0.9015230000000000    0.2770630000000000    0.5612830000000000 O
   0.9024960000000000    0.7871939999999999    0.9320809999999990 O
   0.9919990000000000    0.0865519999999990    0.8336180000000000 F
   0.9917560000000000    0.5573020000000000    0.6631420000000000 F
   0.2589470000000000    0.4008279999999990    0.5127039999999990 F
   0.2465719999999990    0.8989050000000000    0.9870110000000000 F
   0.4569320000000000    0.0441289999999990    0.1691100000000000 F
   0.4849060000000000    0.5726559999999991    0.3340160000000000 F
   0.5622910000000000    0.4519430000000000    0.6670530000000000 F
   0.5526700000000000    0.9219600000000001    0.8331029999999990 F
   0.7364940000000000    0.1004950000000000    0.0044410000000000 F
   0.7527309999999990    0.6010890000000000    0.4786269999999990 F
   0.0109340000000000    0.4032770000000000    0.3329479999999990 F
   0.9572079999999999    0.9189109999999990    0.1667450000000000 F
