Ca Mn V  P  O 
 1.0000000000000000
     7.3615770339999997    0.0000000000000000    0.0000000000000000
     0.1764880905000000    8.2527450794000003    0.0000000000000000
     0.4044067635000000    0.4538283880000000   18.2490875539999990
 Ca  Mn  V   P   O  
   3   4   4  16  56
Selective dynamics
Cartesian
  5.2238549151857008  8.0498134817165088  9.6292964124711844   T   T   T
  1.2198565174838489  7.6005427577388325  2.2533944317525609   T   T   T
  6.8236367057998146  3.8131259828808091 15.9697818860139158   T   T   T
  4.5752897913385366  0.1037777909974753  2.3719603186265399   T   T   T
  2.6906785838810805  0.1411949202092730  6.8668438144085240   T   T   T
  1.0577608748333778  0.3994638961876354 11.5133391910556746   T   T   T
  6.7619590574870125  8.5049889947212343 16.0118901664284081   T   T   T
  1.2569776281608804  4.0726510272218803  2.2544763378716342   T   T   T
  6.9243306376177438  4.3285235528372459  6.7542492299365025   T   T   T
  5.1323033243662985  4.4336533237436697 11.3842959130718668   T   T   T
  3.3881690472950745  4.5826381397116247 15.9166328652698823   T   T   T
  6.4315180965020486  6.1865748270421781  0.5201292596195876   T   T   T
  3.5498361843550148  5.6260782351650036  0.5424272554051063   T   T   T
  6.6837451905903551  2.3376137517930959  4.0756512444661919   T   T   T
  2.1868390411393057  1.6691837403972904  4.1128834563056724   T   T   T
  4.7710065387106795  6.4688381492352578  5.1416909476219317   T   T   T
  1.9047254492185017  5.8089210554789004  5.0115315672941669   T   T   T
  4.9854277495813379  2.5379793063904690  8.6131565128389944   T   T   T
  7.4886878177161735  5.8541470244248384  9.5944653439163226   T   T   T
  0.5362450650199446  1.8228777980572559  8.6288638134692377   T   T   T
  2.9353715671362610  6.5406438816801149  9.6999365630400742   T   T   T
  6.0306722147678862  1.9341881003407859 13.1391670638760942   T   T   T
  3.1956230337233724  2.6495319292714883 13.1753045636387558   T   T   T
  5.7591786061834123  6.1426123990155057 14.0820975981645518   T   T   T
  1.2863993353831285  6.7399109613151653 14.2338328720721634   T   T   T
  4.3709051493845630  1.9167208950730381 17.7148998258174863   T   T   T
  1.5133499130930612  2.6022673996570425 17.7730158340575137   T   T   T
  5.1152635859824525  5.3182342562195100  0.8538417833725723   T   T   T
  6.3657671770051811  7.5280872865029185  1.3068781464117809   T   T   T
  4.3064831755008681  1.4682365567130906  0.9523590376191641   T   T   T
  3.2189938627176105  6.9940067103310737  1.1276393235806372   T   T   T
  2.8351502139127476  4.4853082532526214  1.3083080347381968   T   T   T
  7.0651179302243774  3.5393148935216674  3.1370021306359250   T   T   T
  1.0007679338204762  2.4447131465532075  1.0236026098969588   T   T   T
  0.2657538202855562  5.4161719798124031  1.1077865191505070   T   T   T
  5.5054265902206510  1.5630514531653821  3.5888590742221629   T   T   T
  5.0599644633559118  6.9112977791353956  3.6993453778098973   T   T   T
  2.7658778532139436  0.5579497313302930  3.2083359328317305   T   T   T
  2.3515787032475757  3.0671150002846490  3.5344074089394479   T   T   T
  1.5105479188592570  5.6639334370368468  3.4970805722730014   T   T   T
  6.6457891046713256  2.7949276282937632  5.5244727269562768   T   T   T
  5.8891648933199630  5.5659757222196609  5.6469304902094484   T   T   T
  0.5879798802347491  1.2900137123635564  3.9283174961742393   T   T   T
  3.4798414639749464  5.4775971679318767  5.1092977286920940   T   T   T
  4.4937212636188777  7.6444716755345601  6.0915956085934848   T   T   T
  2.5913295638533684  1.6160686757119394  5.5672029711123550   T   T   T
  1.6711341962508857  7.2296296305779535  5.4471034734885739   T   T   T
  1.2166765795095953  4.7301366143095924  5.8487978722437983   T   T   T
  7.1128252974982678  5.7639981879606550  8.1124287933955728   T   T   T
  5.2744696496488750  3.6813030904270225  7.6595134797874271   T   T   T
  6.2881304326977432  1.4980727137657315  8.6330610704923973   T   T   T
  3.9162276149345860  1.5141873745291399  8.2820897337491797   T   T   T
  3.2192839185738076  6.9853890754481638  8.2601721406838955   T   T   T
  1.0786480673042735  0.6847312325098052  7.7688796590289559   T   T   T
  7.2758561863102447  7.2804084184122120 10.0953563715366972   T   T   T
  0.6443997880022486  3.2155736903304626  8.0200696519799468   T   T   T
  6.8047068194038252  4.7963121359436371 10.4462676881938368   T   T   T
  4.8447344953223830  2.9741024385382802 10.0850432529479814   T   T   T
  4.2008947052834165  5.8000345342901207 10.1621049678589106   T   T   T
  1.7144081989892421  5.5437036962687651  9.7810074752581286   T   T   T
  2.7925303965261423  7.7993512337133710 10.5820459430006490   T   T   T
  0.9696823924441751  1.7646498692541757 10.0927116248173920   T   T   T
  6.6200869534510591  0.8512581190088183 12.2280727609544666   T   T   T
  6.2145136355240638  3.3639919146671189 12.5941782732837773   T   T   T
  5.4128009721322021  5.9831001973425817 12.6010501177877590   T   T   T
  3.5801786710293255  3.8775564515601997 12.2640372678676055   T   T   T
  4.4487102573567352  1.6219057724929629 13.0622394613954089   T   T   T
  7.3443027093156541  5.7160311048008996 14.3135583123176069   T   T   T
  2.0036579260064959  1.8956662811457934 12.6908745815081776   T   T   T
  6.4773275133428312  1.9341271068303145 14.6083670832629817   T   T   T
  1.4314057072047106  7.1440304513293595 12.7712825110736645   T   T   T
  5.5926078297813264  7.5420892711470220 14.6023837360786342   T   T   T
  5.1305757682885913  5.0312918829277207 14.9643456637719936   T   T   T
  3.0908477166344217  3.1128744317847690 14.6268867426375806   T   T   T
  2.4116930041524918  5.8750773988385347 14.7375429939063416   T   T   T
  7.6493341495339271  1.8906857752337911 17.2042233984087609   T   T   T
  6.9375052149333341  6.7907846667044369 17.2628035444913159   T   T   T
  1.0009285983483738  7.9400567556874293 15.1563245902010877   T   T   T
  4.9872068424156861  0.7573297801914736 16.9380533992218254   T   T   T
  4.6515663684919426  3.2872504610474209 17.0538371667417721   T   T   T
  3.7250108573972942  5.9633304043262054 17.2918481156909714   T   T   T
  1.7159925721446503  3.8936045828381793 16.9197683469310682   T   T   T
  2.7732517774811485  1.6273212260014258 17.5680908666303353   T   T   T
