Ca V  Fe P  O 
1.0
       10.0476636887         0.0000000000         0.0000000000
       -2.3828906746         6.9246612155         0.0000000000
        0.0037912331         0.0089964684        25.2408466533
   Ca    V   Fe    P    O
   11    6    6   24   84
Direct
     0.889645040         0.256275803         0.526668727
     0.117555767         0.741788507         0.365993649
     0.617555737         0.741788507         0.365993649
     0.114308201         0.738410830         0.030631045
     0.614308178         0.738410830         0.030631045
     0.113392465         0.735684931         0.693102300
     0.613392472         0.735684931         0.693102300
     0.382367730         0.262516588         0.864711702
     0.882367730         0.262516588         0.864711702
     0.381292790         0.265409559         0.198897272
     0.881292820         0.265409559         0.198897272
     0.109943494         0.728492737         0.833854973
     0.609943509         0.728492737         0.833854973
     0.108757220         0.733851850         0.169832617
     0.608757198         0.733851850         0.169832617
     0.389914006         0.263035744         0.668331623
     0.889914036         0.263035744         0.668331623
     0.113716781         0.736828625         0.505115390
     0.613716781         0.736828625         0.505115390
     0.389436334         0.267747432         0.338795811
     0.889436364         0.267747432         0.338795811
     0.388824672         0.263701946         0.003574668
     0.888824701         0.263701946         0.003574668
     0.191898897         0.498500317         0.935408473
     0.691898882         0.498500317         0.935408473
     0.194038302         0.485517055         0.602081776
     0.694038272         0.485517055         0.602081776
     0.191076785         0.500547767         0.270372897
     0.691076756         0.500547767         0.270372897
     0.106248908         0.103489332         0.742833614
     0.606248915         0.103489332         0.742833614
     0.109256655         0.113829643         0.412812710
     0.609256625         0.113829643         0.412812710
     0.108358704         0.110760510         0.077761248
     0.608358681         0.110760510         0.077761248
     0.392516494         0.892008841         0.909112275
     0.892516494         0.892008841         0.909112275
     0.394584656         0.884623170         0.578986704
     0.894584656         0.884623170         0.578986704
     0.391208142         0.895537794         0.244636014
     0.891208172         0.895537794         0.244636014
     0.305329919         0.498735517         0.767628074
     0.805329919         0.498735517         0.767628074
     0.310332447         0.510594606         0.437366486
     0.810332417         0.510594606         0.437366486
     0.306127548         0.507180691         0.102987103
     0.806127548         0.507180691         0.102987103
     0.019119646         0.826725543         0.900942862
     0.519119620         0.826725543         0.900942862
     0.018831689         0.832310855         0.236581445
     0.518831670         0.832310855         0.236581445
     0.023615472         0.821326554         0.574181020
     0.523615479         0.821326554         0.574181020
     0.079851523         0.924468696         0.109501123
     0.579851508         0.924468696         0.109501123
     0.078632541         0.915055931         0.773358762
     0.578632534         0.915055931         0.773358762
     0.083841398         0.927191079         0.444174230
     0.583841383         0.927191079         0.444174230
     0.091605671         0.462282926         0.982604027
     0.591605663         0.462282926         0.982604027
     0.092367366         0.463385612         0.318053395
     0.592367351         0.463385612         0.318053395
     0.096409112         0.448588818         0.650149465
     0.596409082         0.448588818         0.650149465
     0.113988288         0.485479802         0.217120320
     0.613988280         0.485479802         0.217120320
     0.116500475         0.481917858         0.881797373
     0.616500497         0.481917858         0.881797373
     0.116399303         0.467791557         0.549280643
     0.616399288         0.467791557         0.549280643
     0.202468678         0.613345027         0.766583562
     0.702468693         0.613345027         0.766583562
     0.205558807         0.621762097         0.437642574
     0.705558777         0.621762097         0.437642574
     0.200204745         0.617368639         0.103328004
     0.700204730         0.617368639         0.103328004
     0.314275801         0.915373623         0.858010650
     0.814275801         0.915373623         0.858010650
     0.322562993         0.909134030         0.526581407
     0.822562993         0.909134030         0.526581407
     0.313333273         0.917983532         0.193308920
     0.813333273         0.917983532         0.193308920
     0.279988855         0.728412747         0.946637511
     0.779988885         0.728412747         0.946637511
     0.278364182         0.716370046         0.613991201
     0.778364182         0.716370046         0.613991201
     0.278923899         0.730763495         0.281850636
     0.778923869         0.730763495         0.281850636
     0.218386263         0.269392997         0.779606283
     0.718386292         0.269392997         0.779606283
     0.222222298         0.276297748         0.114117205
     0.722222328         0.276297748         0.114117205
     0.225102454         0.279134363         0.448701322
     0.725102425         0.279134363         0.448701322
     0.183483288         0.082173698         0.691331148
     0.683483303         0.082173698         0.691331148
     0.183210462         0.090984121         0.360656828
     0.683210492         0.090984121         0.360656828
     0.184514508         0.084680140         0.026336061
     0.684514523         0.084680140         0.026336061
     0.293892384         0.382900089         0.935893178
     0.793892384         0.382900089         0.935893178
     0.299362928         0.374617785         0.601557612
     0.799362898         0.374617785         0.601557612
     0.293466926         0.385924906         0.269923598
     0.793466926         0.385924906         0.269923598
     0.383259982         0.513376892         0.714658856
     0.883260012         0.513376892         0.714658856
     0.386361748         0.528925061         0.384022385
     0.886361718         0.528925061         0.384022385
     0.382868230         0.527723134         0.049789786
     0.882868230         0.527723134         0.049789786
     0.403630227         0.537334979         0.815361083
     0.903630257         0.537334979         0.815361083
     0.408590019         0.545766056         0.485173225
     0.908590019         0.545766056         0.485173225
     0.403738260         0.544310153         0.150953904
     0.903738260         0.544310153         0.150953904
     0.422391146         0.080377162         0.940143347
     0.922391176         0.080377162         0.940143347
     0.419682264         0.083699442         0.275580347
     0.919682264         0.083699442         0.275580347
     0.418434829         0.069736123         0.610566497
     0.918434858         0.069736123         0.610566497
     0.477548480         0.165301457         0.735554278
     0.977548480         0.165301457         0.735554278
     0.481384784         0.179164454         0.407231987
     0.981384754         0.179164454         0.407231987
     0.481493503         0.176071972         0.070087679
     0.981493473         0.176071972         0.070087679
