Ca V  O                                 
   1.00000000000000     
    11.0808181762999993    0.0000000000000000    0.0000000000000000
    -1.8468029563999999    7.7866447772000003    0.0000000000000000
     0.0000000000000000   -3.0461372258999999    9.8078967616000003
   Ca   V    O 
     5    18    45
Direct
  0.6775229882878618  0.9991813118871873  0.3682892879600995
  0.0656369937228461  0.0433626435548504  0.3601762111691121
  0.1453134579517234  0.8582758455395045  0.6691640596487394
  0.4731793249259204  0.9198148331728261  0.6408592719096396
  0.7957530804756586  0.8424918501982570  0.6753490315925902
  0.0402801250035036  0.2513864011521367  0.1056241431239189
  0.3755138975068872  0.2446494888755905  0.1128978182341932
  0.7090745599298560  0.2552761271022039  0.1152700905034900
  0.3016000399713146  0.7832377253742010  0.9026023479390158
  0.6247121790961288  0.7959130036294523  0.9090398005603714
  0.9629491606857019  0.7866341829927793  0.9100750590158805
  0.1146551924531294  0.6701360385891745  0.0908835392025080
  0.4460921826614010  0.6736050797968868  0.1066561941024083
  0.7828363784540131  0.6791442622730473  0.0949539252262153
  0.2276589518627987  0.3437859091465443  0.9017160102768687
  0.5605754071104047  0.3603366966678542  0.9060955896727144
  0.8881005663600638  0.3382925452541862  0.8934540122244844
  0.0930849493829546  0.5560366807084277  0.3927029084221128
  0.4283973519994531  0.5251135447699513  0.3940388644095055
  0.7537912799105148  0.5510181223146066  0.3933111839687069
  0.2405733507470824  0.4320564330957785  0.5963668576948010
  0.5721168660488252  0.3916372587096058  0.5829565906088504
  0.9048980101312962  0.4282060591589016  0.5862515237474806
  0.0017929460887051  0.0110892753214630  0.0136151282684171
  0.3377185150355550  0.0081674465562177  0.0007613561766758
  0.6646198299134493  0.0167732167921205  0.0118245523794092
  0.2744266306805829  0.6393279849137888  0.0458507915553256
  0.6081756056949450  0.6408853778296250  0.0454575927807246
  0.9408260213479218  0.6385770481846116  0.0381437446233469
  0.0622350009505881  0.3742605643279355  0.9494467701539413
  0.3997799185585211  0.3875509240249227  0.9558099852654590
  0.7329689389174314  0.3912512220553285  0.9539782183786004
  0.2123942899787481  0.2720938515927469  0.0719470590422650
  0.5476611294698146  0.2805575140725985  0.0837007387858421
  0.8778460777063714  0.2733253351312749  0.0687594054117813
  0.1263594773265081  0.7409452407303585  0.9194314120673784
  0.4568066625907720  0.7431246763899348  0.9372382900812810
  0.7857244794482875  0.7552751814760023  0.9203359394060974
  0.1485494529390614  0.8720879123765711  0.2009429731911847
  0.4935367390019434  0.8685263045777223  0.2234920391085908
  0.8188669391295805  0.8759821904691709  0.2169582366295144
  0.2014949861500053  0.1430778489576994  0.7912166910052451
  0.5280085963787269  0.1502077932742011  0.8143490418345207
  0.8498555824860774  0.1357550086142778  0.7848584578359880
  0.0882858076574522  0.5321811484136476  0.2070143553246400
  0.4172888018732482  0.5182904802402443  0.2116360987312434
  0.7569778986330888  0.5295857154656216  0.2109657893694712
  0.2494670670280663  0.4804131293078105  0.7808214147702884
  0.5774359333799967  0.4668690364636808  0.7707398921980334
  0.9115275298521440  0.4667362204937211  0.7703242748783417
  0.0400138694625531  0.2575208384952505  0.2745578339218215
  0.3660150710057636  0.2288366944499460  0.2698665820920836
  0.7165996626603039  0.2353392236151887  0.2734632526432536
  0.3114273154899275  0.7864664955236670  0.7315195955100954
  0.6077687232184087  0.8114240835913973  0.7464947882374495
  0.9643705369553242  0.7919716360231743  0.7401859789657286
  0.0840000551741591  0.5082902189303125  0.5747717232885567
  0.4140121594446901  0.4493929606837904  0.5631329524963258
  0.7489536901492555  0.5020740316524330  0.5783974189535653
  0.2555165909443514  0.5121032433750955  0.4291060479243059
  0.5828986999632876  0.4593080226299932  0.4125867132680044
  0.9168371366384411  0.5252778112272587  0.4268625080247984
  0.1288056447585776  0.7850808302424268  0.4425070705526705
  0.4955971368196348  0.7464954758321725  0.4417101909843575
  0.7642819494114713  0.7771531687059577  0.4490645000787344
  0.1854170841980860  0.2112425967214003  0.5467419281810220
  0.5594325994353794  0.1685117321561926  0.5394325801642980
  0.8678205202689789  0.2065792461429192  0.5154761102697936
 
             NaN             NaN             NaN
             NaN             NaN             NaN
             NaN             NaN             NaN
             NaN             NaN             NaN
             NaN             NaN             NaN
             NaN             NaN             NaN
             NaN             NaN             NaN
             NaN             NaN             NaN
             NaN             NaN             NaN
             NaN             NaN             NaN
             NaN             NaN             NaN
             NaN             NaN             NaN
             NaN             NaN             NaN
             NaN             NaN             NaN
             NaN             NaN             NaN
             NaN             NaN             NaN
             NaN             NaN             NaN
             NaN             NaN             NaN
             NaN             NaN             NaN
             NaN             NaN             NaN
             NaN             NaN             NaN
             NaN             NaN             NaN
             NaN             NaN             NaN
             NaN             NaN             NaN
             NaN             NaN             NaN
             NaN             NaN             NaN
             NaN             NaN             NaN
             NaN             NaN             NaN
             NaN             NaN             NaN
             NaN             NaN             NaN
             NaN             NaN             NaN
             NaN             NaN             NaN
             NaN             NaN             NaN
             NaN             NaN             NaN
             NaN             NaN             NaN
             NaN             NaN             NaN
             NaN             NaN             NaN
             NaN             NaN             NaN
             NaN             NaN             NaN
             NaN             NaN             NaN
             NaN             NaN             NaN
             NaN             NaN             NaN
             NaN             NaN             NaN
             NaN             NaN             NaN
             NaN             NaN             NaN
             NaN             NaN             NaN
             NaN             NaN             NaN
             NaN             NaN             NaN
             NaN             NaN             NaN
             NaN             NaN             NaN
             NaN             NaN             NaN
             NaN             NaN             NaN
             NaN             NaN             NaN
             NaN             NaN             NaN
             NaN             NaN             NaN
             NaN             NaN             NaN
             NaN             NaN             NaN
             NaN             NaN             NaN
             NaN             NaN             NaN
             NaN             NaN             NaN
             NaN             NaN             NaN
             NaN             NaN             NaN
             NaN             NaN             NaN
             NaN             NaN             NaN
             NaN             NaN             NaN
             NaN             NaN             NaN
             NaN             NaN             NaN
             NaN             NaN             NaN
