Ca V  O                                 
   1.00000000000000     
    11.0808181762999993    0.0000000000000000    0.0000000000000000
    -1.8468029563999999    7.7866447772000003    0.0000000000000000
     0.0000000000000000   -3.0461372258999999    9.8078967616000003
   Ca   V    O 
     5    18    45
Direct
  0.6775229614222287 -0.0008199385842280  0.3682810362928747
  0.0656619252269532  0.0434047282943561  0.3601705685986736
  0.1453199101747077  0.8582719610332383  0.6691662701770938
  0.4731775935266344  0.9198182467309908  0.6408677445983870
  0.7957572612637142  0.8425081406805213  0.6753490541233825
  0.0402788603424955  0.2513788498916527  0.1056024535595294
  0.3755151497942190  0.2446341649351862  0.1128912634897007
  0.7090833696613112  0.2552458321587669  0.1152399351207310
  0.3016047462889838  0.7832682789584190  0.9026262070914570
  0.6247174545452933  0.7959259517112037  0.9090249199359954
  0.9629324372403154  0.7866090554092457  0.9100872105406469
  0.1146362943526644  0.6700954527261472  0.0908671265776989
  0.4460961521973722  0.6736460678649520  0.1066844490694424
  0.7828344700617283  0.6791751263616640  0.0949702812779171
  0.2276627742409123  0.3437634335085807  0.9016970239279073
  0.5605823652319293  0.3602699109495798  0.9060606531407851
  0.8880859676975733  0.3382663061228304  0.8934581854029204
  0.0930914075629094  0.5560482553174227  0.3927048982940445
  0.4284075001094383  0.5251380201751749  0.3940364257008277
  0.7537999077548266  0.5510154032262670  0.3933203869070195
  0.2405870761011298  0.4320890958046604  0.5963723920315216
  0.5721176411458680  0.3916224239670317  0.5829644757997604
  0.9048851215761862  0.4281994138734831  0.5862569995367358
  0.0017896406984812  0.0110814589164857  0.0136198361656697
  0.3377208952112556  0.0081585729441402  1.0007587650208871
  0.6646339179193208  0.0167758963889631  0.0118289387783220
  0.2744301434908816  0.6393348542604236  0.0458650725511979
  0.6081668036523940  0.6408942740084955  0.0454636796983547
  0.9408052333264301  0.6385433569548528  0.0381539144400077
  0.0622398738468358  0.3742527975289180  0.9494538013264178
  0.3997756099736025  0.3875424416177813  0.9558124261915437
  0.7329668499711735  0.3912468329029768  0.9539700819899979
  0.2123909414936584  0.2720617091520793  0.0719267002122334
  0.5476770981294536  0.2805614947899771  0.0836901496306580
  0.8778407410852195  0.2733078196642349  0.0687430458787038
  0.1263689556602580  0.7409517700358352  0.9194291663814544
  0.4567976448355758  0.7431157249003070  0.9372360507137999
  0.7857222856917787  0.7552899479802643  0.9203457674881383
  0.1485478823230463  0.8720626886328843  0.2009434121476721
  0.4935335646478635  0.8685430012828860  0.2234926112771015
  0.8188655890329364  0.8760030940257446  0.2169576126490519
  0.2014871413693354  0.1430623850129861  0.7912076171551544
  0.5280149908139574  0.1502410393547196  0.8143551414445563
  0.8498605704733618  0.1357434456695416  0.7848608664755651
  0.0882789931622882  0.5321939355087579  0.2070182274087638
  0.4172896388128973  0.5183107337431255  0.2116420748466056
  0.7569807430979957  0.5295873409710093  0.2109706983790411
  0.2494497680712785  0.4804148284709693  0.7808315777002248
  0.5774393420271944  0.4668623964031853  0.7707414229504811
  0.9115305959171970  0.4667342084844041  0.7703281907415334
  0.0400012836086645  0.2575481459182513  0.2745297004584336
  0.3660250280536791  0.2288321031613842  0.2698637604667924
  0.7165990951796092  0.2353189632010927  0.2734815376265421
  0.3114334947741634  0.7864653882497230  0.7315149271633311
  0.6077727864669269  0.8114251003273938  0.7465015507911694
  0.9643715994945382  0.7919714887242784  0.7401659802908580
  0.0839948260192913  0.5083163128384450  0.5747803597430430
  0.4140019111874970  0.4493775534264735  0.5631199896140500
  0.7489577154389652  0.5020785599400340  0.5784019517464153
  0.2555178657364061  0.5121062156364458  0.4290877676738404
  0.5829000723731931  0.4593141216575977  0.4125870260754346
  0.9168294799194020  0.5252818855485778  0.4268557017669378
  0.1288168389846812  0.7850727918825373  0.4425139372509593
  0.4955973518144397  0.7464792462025166  0.4417133005739893
  0.7642833370372610  0.7771665413776115  0.4490791346926838
  0.1854285035519013  0.2112733679716205  0.5467793740765384
  0.5594256931920701  0.1685156168984366  0.5394333908850159
  0.8678209344178290  0.2065823683303052  0.5154761442899438
 
             NaN             NaN             NaN
             NaN             NaN             NaN
             NaN             NaN             NaN
             NaN             NaN             NaN
             NaN             NaN             NaN
             NaN             NaN             NaN
             NaN             NaN             NaN
             NaN             NaN             NaN
             NaN             NaN             NaN
             NaN             NaN             NaN
             NaN             NaN             NaN
             NaN             NaN             NaN
             NaN             NaN             NaN
             NaN             NaN             NaN
             NaN             NaN             NaN
             NaN             NaN             NaN
             NaN             NaN             NaN
             NaN             NaN             NaN
             NaN             NaN             NaN
             NaN             NaN             NaN
             NaN             NaN             NaN
             NaN             NaN             NaN
             NaN             NaN             NaN
             NaN             NaN             NaN
             NaN             NaN             NaN
             NaN             NaN             NaN
             NaN             NaN             NaN
             NaN             NaN             NaN
             NaN             NaN             NaN
             NaN             NaN             NaN
             NaN             NaN             NaN
             NaN             NaN             NaN
             NaN             NaN             NaN
             NaN             NaN             NaN
             NaN             NaN             NaN
             NaN             NaN             NaN
             NaN             NaN             NaN
             NaN             NaN             NaN
             NaN             NaN             NaN
             NaN             NaN             NaN
             NaN             NaN             NaN
             NaN             NaN             NaN
             NaN             NaN             NaN
             NaN             NaN             NaN
             NaN             NaN             NaN
             NaN             NaN             NaN
             NaN             NaN             NaN
             NaN             NaN             NaN
             NaN             NaN             NaN
             NaN             NaN             NaN
             NaN             NaN             NaN
             NaN             NaN             NaN
             NaN             NaN             NaN
             NaN             NaN             NaN
             NaN             NaN             NaN
             NaN             NaN             NaN
             NaN             NaN             NaN
             NaN             NaN             NaN
             NaN             NaN             NaN
             NaN             NaN             NaN
             NaN             NaN             NaN
             NaN             NaN             NaN
             NaN             NaN             NaN
             NaN             NaN             NaN
             NaN             NaN             NaN
             NaN             NaN             NaN
             NaN             NaN             NaN
             NaN             NaN             NaN
