Ca V  Cr P  O                           
   1.00000000000000     
     9.8034191132000004    0.0000000000000000    0.0000000000000000
     0.0310846032000000    8.1394794092999998    0.0000000000000000
    -2.1279917691999999   -0.0524358375000000    6.8508461865000001
   Ca   V    Cr   P    O 
     1     2     2     8    28
Selective dynamics
Direct
  0.1112856614808990  0.9151308972490071  0.7348550713184352   T   T   T
  0.1034403027722206  0.4901786925881879  0.7249051145851837   T   T   T
  0.6101579346562716  0.5016640119508509  0.7295675764310019   T   T   T
  0.3907980396251745  0.0021071141322935  0.2635086988911439   T   T   T
  0.8857224565160564  0.0042983922979900  0.2647565790602187   T   T   T
  0.1950093744734076  0.1960774271606667  0.4901209544005880   T   T   T
  0.6906425200170219  0.1870377256896987  0.4989579454252961   T   T   T
  0.1151651909513873  0.7620932337529851  0.1144700732796977   T   T   T
  0.6173699567050832  0.7681530860472350  0.1069023619163545   T   T   T
  0.3823648363308152  0.2686005495341206  0.8881644180066530   T   T   T
  0.8789657161993816  0.2615944693634589  0.8884061189381569   T   T   T
  0.3075710382673904  0.6914034134078193  0.4913045009033681   T   T   T
  0.8058391866572663  0.6881151491584205  0.4987719516038212   T   T   T
  0.0108994198636054  0.3118049807286027  0.8245319381964507   T   T   T
  0.5101762121781519  0.3260545409433462  0.8260857531796049   T   T   T
  0.0752287880485980  0.6678043003846952  0.9173032531607959   T   T   T
  0.5888668363839997  0.6539855080910684  0.9275938696660475   T   T   T
  0.0743426807950627  0.0681126005976012  0.4571210564417072   T   T   T
  0.5709977154879695  0.0618210546497053  0.4502255514891687   T   T   T
  0.1410528252460423  0.3704843572465890  0.5097177914958948   T   T   T
  0.6373108391554183  0.3634980597937414  0.5236076640562999   T   T   T
  0.2082564286535700  0.6860767301138679  0.6255735316007787   T   T   T
  0.7119739562877285  0.6765212011500381  0.6353111298413054   T   T   T
  0.2816320239290491  0.4165690453916042  0.8917301630058532   T   T   T
  0.7861223437237612  0.4138041377695529  0.8970717992671737   T   T   T
  0.2869892169559662  0.1440660743620299  0.7151277709472623   T   T   T
  0.7882801869101783  0.1386973956547735  0.7193661784095156   T   T   T
  0.2135954837738723  0.6379062777154871  0.2720682484838690   T   T   T
  0.7100941201212905  0.6485575169541846  0.2819995896529335   T   T   T
  0.2045329693674134  0.9120896642884944  0.0825913673970220   T   T   T
  0.7107417632050002  0.9153710226795155  0.0950622275031350   T   T   T
  0.2860611316706922  0.1835929676498580  0.3545158285778314   T   T   T
  0.7868490230002720  0.1818829002498958  0.3665233664921672   T   T   T
  0.3559778520280403  0.8670129138512053  0.4763773983124295   T   T   T
  0.8745188117334308  0.8596392244680686  0.4996131068151826   T   T   T
  0.4270630789324059  0.5648913585883193  0.5516996646413759   T   T   T
  0.9261581930546541  0.5581389306876616  0.5504137298426954   T   T   T
  0.4185511148843730  0.1633020475419968  0.0671096538480995   T   T   T
  0.9229837250929620  0.1591755235936176  0.0715461064062808   T   T   T
  0.4798394771968972  0.8170683933249236  0.1507668905685193   T   T   T
  0.9879344326672381  0.8142256021967995  0.1791313969406829   T   T   T
 
  0.00000000E+00  0.00000000E+00  0.00000000E+00
  0.00000000E+00  0.00000000E+00  0.00000000E+00
  0.00000000E+00  0.00000000E+00  0.00000000E+00
  0.00000000E+00  0.00000000E+00  0.00000000E+00
  0.00000000E+00  0.00000000E+00  0.00000000E+00
  0.00000000E+00  0.00000000E+00  0.00000000E+00
  0.00000000E+00  0.00000000E+00  0.00000000E+00
  0.00000000E+00  0.00000000E+00  0.00000000E+00
  0.00000000E+00  0.00000000E+00  0.00000000E+00
  0.00000000E+00  0.00000000E+00  0.00000000E+00
  0.00000000E+00  0.00000000E+00  0.00000000E+00
  0.00000000E+00  0.00000000E+00  0.00000000E+00
  0.00000000E+00  0.00000000E+00  0.00000000E+00
  0.00000000E+00  0.00000000E+00  0.00000000E+00
  0.00000000E+00  0.00000000E+00  0.00000000E+00
  0.00000000E+00  0.00000000E+00  0.00000000E+00
  0.00000000E+00  0.00000000E+00  0.00000000E+00
  0.00000000E+00  0.00000000E+00  0.00000000E+00
  0.00000000E+00  0.00000000E+00  0.00000000E+00
  0.00000000E+00  0.00000000E+00  0.00000000E+00
  0.00000000E+00  0.00000000E+00  0.00000000E+00
  0.00000000E+00  0.00000000E+00  0.00000000E+00
  0.00000000E+00  0.00000000E+00  0.00000000E+00
  0.00000000E+00  0.00000000E+00  0.00000000E+00
  0.00000000E+00  0.00000000E+00  0.00000000E+00
  0.00000000E+00  0.00000000E+00  0.00000000E+00
  0.00000000E+00  0.00000000E+00  0.00000000E+00
  0.00000000E+00  0.00000000E+00  0.00000000E+00
  0.00000000E+00  0.00000000E+00  0.00000000E+00
  0.00000000E+00  0.00000000E+00  0.00000000E+00
  0.00000000E+00  0.00000000E+00  0.00000000E+00
  0.00000000E+00  0.00000000E+00  0.00000000E+00
  0.00000000E+00  0.00000000E+00  0.00000000E+00
  0.00000000E+00  0.00000000E+00  0.00000000E+00
  0.00000000E+00  0.00000000E+00  0.00000000E+00
  0.00000000E+00  0.00000000E+00  0.00000000E+00
  0.00000000E+00  0.00000000E+00  0.00000000E+00
  0.00000000E+00  0.00000000E+00  0.00000000E+00
  0.00000000E+00  0.00000000E+00  0.00000000E+00
  0.00000000E+00  0.00000000E+00  0.00000000E+00
  0.00000000E+00  0.00000000E+00  0.00000000E+00
