V18 O44
1.0
   3.6530440000000000    0.0000000000000000    0.0000000000000000
   0.0000000000000000   10.3457639999999991    0.0000000000000000
   0.0000000000000000    4.4086660000000002   21.3774200000000008
V O
18 44
direct
   0.2500000000000000    0.1191840000000000    0.9733010000000000 V
   0.7500000000000000    0.7242489999999990    0.9091520000000000 V
   0.2500000000000000    0.4649100000000000    0.9388080000000000 V
   0.2500000000000000    0.9582510000000000    0.7154640000000000 V
   0.7500000000000000    0.7005810000000000    0.7457320000000000 V
   0.2500000000000000    0.3048720000000000    0.6856150000000000 V
   0.7500000000000000    0.5417550000000000    0.6322430000000000 V
   0.2500000000000000    0.1480070000000000    0.5703429999999990 V
   0.7500000000000000    0.8920549999999990    0.5930300000000001 V
   0.2500000000000000    0.1079450000000000    0.4069700000000001 V
   0.7500000000000000    0.8519930000000000    0.4296569999999990 V
   0.2500000000000000    0.4582449999999990    0.3677570000000000 V
   0.7500000000000000    0.6951280000000000    0.3143849999999990 V
   0.2500000000000000    0.2994190000000000    0.2542680000000000 V
   0.7500000000000000    0.0417490000000000    0.2845360000000000 V
   0.7500000000000000    0.5350900000000001    0.0611919999999990 V
   0.2500000000000000    0.2757509999999990    0.0908480000000000 V
   0.7500000000000000    0.8808159999999990    0.0266990000000000 V
   0.7500000000000000    0.0783900000000000    0.9956809999999990 O
   0.2500000000000000    0.6670720000000000    0.9205030000000000 O
   0.2500000000000000    0.2912869999999990    0.9893130000000000 O
   0.7500000000000000    0.8820910000000000    0.9062789999999999 O
   0.7500000000000000    0.5001530000000000    0.9538970000000000 O
   0.2500000000000000    0.1464510000000000    0.8988980000000000 O
   0.7500000000000000    0.7129320000000000    0.8275580000000000 O
   0.2500000000000000    0.4342100000000000    0.8699359999999990 O
   0.2500000000000000    0.9860500000000001    0.7848870000000000 O
   0.2500000000000000    0.2741909999999990    0.7601070000000000 O
   0.7500000000000000    0.9247749999999991    0.6981640000000000 O
   0.7500000000000000    0.5425540000000000    0.7499290000000000 O
   0.2500000000000000    0.1318160000000000    0.6668780000000000 O
   0.2500000000000000    0.7573219999999991    0.7342790000000000 O
   0.2500000000000000    0.9196300000000001    0.6089059999999999 O
   0.7500000000000000    0.3412080000000000    0.6638069999999990 O
   0.2500000000000000    0.4990340000000000    0.6560690000000000 O
   0.7500000000000000    0.0912680000000000    0.5745230000000000 O
   0.7500000000000000    0.7123929999999991    0.6449420000000000 O
   0.2500000000000000    0.3061649999999990    0.5639270000000000 O
   0.7500000000000000    0.5607550000000000    0.5578080000000000 O
   0.2500000000000000    0.1368619999999990    0.4806700000000000 O
   0.7500000000000000    0.8631380000000000    0.5193300000000001 O
   0.2500000000000000    0.4392450000000000    0.4421920000000000 O
   0.7500000000000000    0.6938350000000000    0.4360730000000000 O
   0.2500000000000000    0.2876070000000000    0.3550580000000000 O
   0.2500000000000000    0.9087320000000000    0.4254770000000000 O
   0.7500000000000000    0.5009660000000000    0.3439310000000000 O
   0.2500000000000000    0.6587919999999990    0.3361929999999990 O
   0.7500000000000000    0.2426779999999990    0.2657210000000000 O
   0.7500000000000000    0.0803700000000000    0.3910940000000000 O
   0.7500000000000000    0.8681840000000000    0.3331220000000000 O
   0.2500000000000000    0.4574459999999990    0.2500710000000000 O
   0.2500000000000000    0.0752250000000000    0.3018360000000000 O
   0.7500000000000000    0.7258089999999990    0.2398930000000000 O
   0.7500000000000000    0.0139500000000000    0.2151130000000000 O
   0.7500000000000000    0.5657900000000000    0.1300639999999990 O
   0.2500000000000000    0.2870680000000000    0.1724419999999990 O
   0.7500000000000000    0.8535490000000000    0.1011020000000000 O
   0.2500000000000000    0.4998470000000000    0.0461030000000000 O
   0.2500000000000000    0.1179090000000000    0.0937210000000000 O
   0.7500000000000000    0.7087129999999990    0.0106870000000000 O
   0.7500000000000000    0.3329280000000000    0.0794970000000000 O
   0.2500000000000000    0.9216100000000000    0.0043190000000000 O
