V  O 
 1.0000000000000000
     3.6530440000000000    0.0000000000000000    0.0000000000000000
     0.0000000000000000   10.3457639999999991    0.0000000000000000
     0.0000000000000000    4.4086660000000002   21.3774200000000008
 V   O  
  18  44
Cartesian
  0.9132610000000000  5.5244735741797735 20.8147470512846482
  2.7397830000000001 11.4815143512701301 19.4406704359457052
  0.9132610000000000  8.9420073026658304 20.0763510875615481
  0.9132610000000000 13.0412425437342065 15.2817994860552400
  2.7397830000000001 10.5323218674305714 15.9514520528303354
  0.9132610000000000  6.1546796183159591 14.6462178871209296
  2.7397830000000001  8.3970495968257666 13.5241898413281980
  0.9132610000000000  4.0087307538137589 12.1632950201225647
  2.7397830000000001 11.8172692890212527 12.6866590931882097
  0.9132610000000000  2.9371607109787328  8.6907609068117875
  2.7397830000000001 10.7456992461862395  9.2141249798774307
  0.9132610000000003  6.3573804031742203  7.8532301586717965
  2.7397830000000001  8.5997503816840304  6.7312021128790729
  0.9132610000000000  4.2221081325694252  5.4259679471696485
  2.7397830000000001  1.7131874562657810  6.0956205139447475
  2.7397830000000001  5.8124226973341653  1.3010689124384356
  0.9132610000000000  3.2729156487298607  1.9367495640542838
  2.7397830000000001  9.2299564258202267  0.5626729487153382
  2.7397830000000001  5.2029295134437650 21.2869942097082614
  0.9132610000000001 10.9512221819318096 19.6792876814606501
  0.9132610000000000  7.3813296966205453 21.1499883414881147
  2.7397830000000001 13.1023788651556785 19.3885167407353016
  2.7397830000000001  9.3865708837712880 20.3919705993954423
  0.9132610000000000  5.4767250614980725 19.2227597056755961
  2.7397830000000001 11.0260735720732814 17.6820381470944348
  0.9132610000000000  8.3280652168889304 18.6005040018872236
  0.9132610000000000 13.6611096306254449 16.7554162134377407
  0.9132610000000000  6.1666210721638572 16.2388644715552459
  2.7397830000000001 12.6237667402043776 14.9197023651130607
  2.7397830000000001  8.9126027055931996 16.0248903847170929
  0.9132610000000000  4.2928827614977543 14.2354493746587423
  0.9132610000000001 11.0651939584303083 15.6988186887641366
  0.9132610000000001 12.2883269818831735 13.0050722032218289
  2.7397830000000001  6.4585120770638360 14.1852914516486219
  0.9132610000000000  8.0434631301999939 14.0047784646406779
  2.7397830000000001  3.5003365019753652 12.2919354674083703
  2.7397830000000001 10.2129726641402971 13.7949812456753804
  0.9132610000000000  5.6224581289858957 12.0655633447418609
  2.7397830000000001  8.2880770653523399 11.9314950610451742
  0.9132610000000000  3.5464308122325865 10.3056316267094754
  2.7397830000000001 11.2079991877673990 11.0717883732905200
  0.9132610000000000  6.4663529346476496  9.4459249389548212
  2.7397830000000001  9.1319718710141036  9.3118566552581186
  0.9132610000000000  4.5414573358596897  7.5824387543246203
  0.9132610000000000 11.2540934980246305  9.0854845325916198
  2.7397830000000001  6.7109668697999947  7.3726415353593167
  0.9132610000000002  8.2959179229361535  7.1921285483513708
  2.7397830000000001  3.6892360415696843  5.6786013112358491
  2.7397830000000001  2.4661030181168240  8.3723477967781665
  2.7397830000000001 10.4615472385022379  7.1419706253412487
  0.9132610000000000  5.8418272944067970  5.3525296152829140
  0.9132610000000001  2.1306632597956168  6.4577176348869285
  2.7397830000000001  8.5878089278361269  5.1385555284447477
  2.7397830000000001  1.0933203693745672  4.6220037865622361
  2.7397830000000001  6.4263647831110680  2.7769159981127598
  0.9132610000000000  3.7283564279267183  3.6953818529055509
  2.7397830000000001  9.2777049385019357  2.1546602943243958
  0.9132610000000001  5.3678591162287024  0.9854494006045442
  0.9132610000000000  1.6520511348443145  1.9889032592646803
  2.7397830000000001  7.3731003033794549  0.2274316585118714
  2.7397830000000001  3.8032078180681848  1.6981323185393402
  0.9132610000000001  9.5515004865562201  0.0904257902917215
