Ca V  B  O 
1.0
        9.7801170349         0.0000000000         0.0000000000
       -0.0000113129        12.1369686127         0.0000000000
       -0.0000155656         4.7882994240        13.8050942807
   Ca    V    B    O
   15   16   32   80
Direct
     0.586581230         0.655665100         0.105001122
     0.413418144         0.344315618         0.895002604
     0.413418144         0.844315648         0.395002604
     0.413418144         0.844315648         0.895002604
     0.086569346         0.094322823         0.395004749
     0.086569346         0.094322823         0.895004749
     0.086569346         0.594322801         0.395004749
     0.086569346         0.594322801         0.895004749
     0.913423598         0.405681014         0.105002128
     0.913423598         0.405681014         0.605002105
     0.913423598         0.905681014         0.105002128
     0.913423598         0.905681014         0.605002105
     0.586581230         0.155665100         0.105001122
     0.586581230         0.155665100         0.605001092
     0.586581230         0.655665100         0.605001092
     0.819497526         0.397445798         0.380208284
     0.819497526         0.397445798         0.880208254
     0.819497526         0.897445798         0.380208284
     0.819497526         0.897445798         0.880208254
     0.680522382         0.147453487         0.380228996
     0.680522382         0.147453487         0.880228996
     0.680522382         0.647453487         0.380228996
     0.680522382         0.647453487         0.880228996
     0.319452733         0.352550685         0.119777448
     0.319452733         0.352550685         0.619777441
     0.319452733         0.852550685         0.119777448
     0.319452733         0.852550685         0.619777441
     0.180493966         0.102552243         0.119785339
     0.180493966         0.102552243         0.619785309
     0.180493966         0.602552235         0.119785339
     0.180493966         0.602552235         0.619785309
     0.122146398         0.330492198         0.448357761
     0.122146398         0.330492198         0.948357761
     0.122146398         0.830492198         0.448357761
     0.122146398         0.830492198         0.948357761
     0.377910435         0.080535725         0.448333681
     0.377910435         0.080535725         0.948333681
     0.377910435         0.580535710         0.448333681
     0.377910435         0.580535710         0.948333681
     0.073672734         0.365521401         0.267169714
     0.073672734         0.365521401         0.767169714
     0.073672734         0.865521431         0.267169714
     0.073672734         0.865521431         0.767169714
     0.573757231         0.384503305         0.232757032
     0.573757231         0.384503305         0.732757032
     0.573757231         0.884503305         0.232757032
     0.573757231         0.884503305         0.732757032
     0.426315308         0.115517184         0.267202586
     0.426315308         0.115517184         0.767202616
     0.426315308         0.615517199         0.267202586
     0.426315308         0.615517199         0.767202616
     0.926301777         0.134491429         0.232799053
     0.926301777         0.134491429         0.732799053
     0.926301777         0.634491444         0.232799053
     0.926301777         0.634491444         0.732799053
     0.622157276         0.419519037         0.051720388
     0.622157276         0.419519037         0.551720381
     0.622157276         0.919519067         0.051720388
     0.622157276         0.919519067         0.551720381
     0.877892673         0.169484824         0.051644322
     0.877892673         0.169484824         0.551644325
     0.877892673         0.669484854         0.051644322
     0.877892673         0.669484854         0.551644325
     0.722256482         0.465963185         0.485309750
     0.722256482         0.465963185         0.985309720
     0.722256482         0.965963185         0.485309750
     0.722256482         0.965963185         0.985309720
     0.013740778         0.395377159         0.459089100
     0.013740778         0.395377159         0.959089100
     0.013740778         0.895377159         0.459089100
     0.013740778         0.895377159         0.959089100
     0.777676046         0.215995356         0.485300869
     0.777676046         0.215995356         0.985300899
     0.777676046         0.715995371         0.485300869
     0.777676046         0.715995371         0.985300899
     0.486242801         0.145364359         0.459098279
     0.486242801         0.145364359         0.959098279
     0.486242801         0.645364344         0.459098279
     0.486242801         0.645364344         0.959098279
     0.150350988         0.314144194         0.356016040
     0.150350988         0.314144194         0.856016040
     0.150350988         0.814144194         0.356016040
     0.150350988         0.814144194         0.856016040
     0.640814960         0.342915475         0.319390029
     0.640814960         0.342915475         0.819390059
     0.640814960         0.842915475         0.319390029
     0.640814960         0.842915475         0.819390059
     0.349556237         0.064110614         0.356087387
     0.349556237         0.064110614         0.856087387
     0.349556237         0.564110637         0.356087387
     0.349556237         0.564110637         0.856087387
     0.935607731         0.364641756         0.269740492
     0.935607731         0.364641756         0.769740462
     0.935607731         0.864641786         0.269740492
     0.935607731         0.864641786         0.769740462
     0.859127283         0.092910528         0.319403470
     0.859127283         0.092910528         0.819403470
     0.859127283         0.592910528         0.319403470
     0.859127283         0.592910528         0.819403470
     0.435646951         0.385350794         0.230317354
     0.435646951         0.385350794         0.730317354
     0.435646951         0.885350823         0.230317354
     0.435646951         0.885350823         0.730317354
     0.564397097         0.114657909         0.269663572
     0.564397097         0.114657909         0.769663572
     0.564397097         0.614657879         0.269663572
     0.564397097         0.614657879         0.769663572
     0.140893385         0.407087505         0.180600017
     0.140893385         0.407087505         0.680600047
     0.140893385         0.907087505         0.180600017
     0.140893385         0.907087505         0.680600047
     0.064418979         0.135350212         0.230289191
     0.064418979         0.135350212         0.730289221
     0.064418979         0.635350227         0.230289191
     0.064418979         0.635350227         0.730289221
     0.650290310         0.435824066         0.143937692
     0.650290310         0.435824066         0.643937707
     0.650290310         0.935824037         0.143937692
     0.650290310         0.935824037         0.643937707
     0.359172136         0.157085285         0.180608749
     0.359172136         0.157085285         0.680608749
     0.359172136         0.657085299         0.180608749
     0.359172136         0.657085299         0.680608749
     0.849612415         0.185865596         0.143980861
     0.849612415         0.185865596         0.643980861
     0.849612415         0.685865581         0.143980861
     0.849612415         0.685865581         0.643980861
     0.513809621         0.354661852         0.040898722
     0.513809621         0.354661852         0.540898740
     0.513809621         0.854661822         0.040898722
     0.513809621         0.854661822         0.540898740
     0.222305715         0.284014314         0.014700919
     0.222305715         0.284014314         0.514700890
     0.222305715         0.784014344         0.014700919
     0.222305715         0.784014344         0.514700890
     0.986265957         0.104622237         0.040906377
     0.986265957         0.104622237         0.540906370
     0.986265957         0.604622245         0.040906377
     0.986265957         0.604622245         0.540906370
     0.277701378         0.034005761         0.014665937
     0.277701378         0.034005761         0.514665961
     0.277701378         0.534005761         0.014665937
     0.277701378         0.534005761         0.514665961
