Ca   V    O                             
   1.00000000000000     
     8.7611289174103302   -0.0074212338507410   -0.0007151263026992
     2.9192395920126200   14.2214562212664006    0.3567419140964960
     2.9381193526202698   -0.3650636366945930   14.0069121919483006
   Ca   V    O 
    11    48    96
Direct
  0.4287455024047474  0.5543108362001805  0.5111226602631777
  0.1795358630615128  0.0103339694873672  0.4389415956798763
  0.1127577590706272  0.0700917887626928  0.0146530675251105
  0.1827417518680330  0.4955946219446751  0.9426246975488549
  0.5039628271232038  0.0206338125552664  0.4518842056388535
  0.4889565840947707  0.0694160309951887  0.0159370126099447
  0.5045808330354695  0.5207201982290042  0.9491918064133323
  0.8438799279839686  0.0063164880125800  0.4499584659083240
  0.8590915356741290  0.9227127977678511  0.9873567021184826
  0.8565622389777476  0.5541658753391276  0.5103184890383309
  0.8428389760440734  0.5104566783390017  0.9454908954596559
  0.2193043838710286  0.0936797766238874  0.2360505369889793
  0.1962660307059326  0.0928375843144024  0.7910244755493044
  0.2019334388747783  0.5945530888532993  0.2905179523064959
  0.2262567800418862  0.5850809116065524  0.7367531055892106
  0.5597294408380630  0.0891558647536168  0.2397572772104506
  0.5413991430425923  0.0917966284428405  0.7913310646361463
  0.5385044816181092  0.5974433461529151  0.2846006983940674
  0.5523354508403322  0.5856650063177895  0.7379729549730668
  0.8787187856853068  0.0895543567030383  0.2404135178907782
  0.8664164303834767  0.0896088559257822  0.7995262588604417
  0.8627554859390010  0.5977181214230322  0.2838015040663221
  0.8857329732926154  0.5870032818061746  0.7369146394324914
  0.0353145160661549  0.2705476401699490  0.0970696151355845
  0.0626962727815432  0.2008660496191604  0.5965900371692465
  0.0661577455792185  0.7099018537461769  0.0954510289927283
  0.0489800147436451  0.7533778565415049  0.5894296207725529
  0.3763158744199114  0.2711089023575979  0.0975854942789719
  0.3879343676228086  0.2056151383579594  0.6006162636635789
  0.3924749844526360  0.7103397647509989  0.0957279683015158
  0.3849911335968965  0.7643227451320151  0.5903541147057334
  0.7092550763786817  0.2636939354409872  0.0966914977689596
  0.7359492387380908  0.2026388327157504  0.5979430656129583
  0.7212506365109906  0.7132556675516808  0.0913729264863681
  0.7020620574601332  0.7635921741432999  0.5911528023081680
  0.2781589264907035  0.2465836042675162  0.4061575522897122
  0.2680094025718469  0.2792652649964780  0.9086289218824781
  0.2648573889993547  0.7875348435385835  0.4034930482619846
  0.2780190686055810  0.7412187547285721  0.9070244674284276
  0.6125749634164910  0.2410524168001940  0.4124953701559538
  0.6016059848383107  0.2878100343748102  0.9095485499646009
  0.5987464792297218  0.7877695274760730  0.4031384957569680
  0.6086530736241231  0.7419168650189137  0.9075457896874936
  0.9440417054982189  0.2418638489760703  0.4090018193344938
  0.9239645909594989  0.2862649316299453  0.9067230323287834
  0.9344331561771525  0.7859162933157812  0.4038557617675848
  0.9548693718904708  0.7276791510138583  0.9042698528543092
  0.0960693843531080  0.4156715391374159  0.2635977953219566
  0.1260961870665575  0.3992979897990252  0.7132617565468748
  0.1241722797394230  0.9063691823947804  0.2094596988937166
  0.1086689441857128  0.9033866243519056  0.7559974381981868
  0.4451464358260722  0.4149884585664942  0.2650272192617023
  0.4606797810325647  0.3945621869376327  0.7131412103793637
  0.4532728244010109  0.9058572324925050  0.2105760689484567
  0.4351969853049419  0.9121165501200977  0.7654643234578394
  0.7659956803584651  0.4125887001223157  0.2676153986634584
  0.7889602895895428  0.3978794034437984  0.7121115114199943
  0.7919044890695554  0.9035185553156386  0.2149348681463733
  0.7755758834408998  0.9025728632296984  0.7565312908367595
  0.2696553333532293  0.3457605120577307  0.3294704264233980
  0.2783706813485204  0.3543770229137119  0.7984142328609390
  0.2784889761266008  0.8611442594643065  0.2922931361304169
  0.2722292531952126  0.8422796092395064  0.8262997782372768
  0.6006504041595434  0.3455533455742318  0.3331178636467055
  0.6120343041453369  0.3543034803690816  0.7957838861120720
  0.6113674843944280  0.8588682619464987  0.2896964098280380
  0.6049695744577807  0.8417575431391455  0.8258708049600757
  0.9407780836035160  0.3458701702559184  0.3313306107325590
  0.9442754331990594  0.3575488637659014  0.7957627644737932
  0.9458238330757581  0.8586222945913590  0.2918680517816351
  0.9377663946488750  0.8445592113506939  0.8317564115570406
  0.1577929148546194  0.1697445001600905  0.3484535674730687
  0.1339044484496333  0.2042966089759185  0.8662304669185281
  0.1404241475110882  0.7082871419276441  0.3588025523597366
  0.1616973018265769  0.6693242910555119  0.8417489614815395
  0.4876975381774087  0.1684449773942934  0.3516833591807911
  0.4768426471383608  0.2029671336613304  0.8663692526712226
  0.4737769224134197  0.7087922263616341  0.3568744290500198
  0.4903854849637582  0.6692189605034697  0.8444191008058262
  0.8213491195746732  0.1718421821215604  0.3471904301280756
  0.8053519164219793  0.2052204507133494  0.8629005405393689
  0.8074471728981918  0.7085214452401988  0.3571922166861919
  0.8199729505043730  0.6677939632091838  0.8465285839348652
  0.1655948642169778  0.3276300121910763  0.1598730007139620
  0.1853190348891137  0.2862101576587142  0.6453180037729679
  0.1859365743404285  0.7928640486364105  0.1396065116653765
  0.1660024932030612  0.8204582975635747  0.6568635074899298
  0.4989067775786288  0.3287423846729694  0.1630213398173306
  0.5189880686399365  0.2832671631195837  0.6438906234115026
  0.5150040289764058  0.7930199801216331  0.1385281132787912
  0.4996766679113834  0.8259475175335880  0.6606185410310302
  0.8316072307753395  0.3273121012085776  0.1648758818849022
  0.8536654318949848  0.2862282024419757  0.6434614191470479
  0.8535001305171064  0.7939149918196357  0.1352953672729479
  0.8399761220235762  0.8197971509232630  0.6572065715345558
  0.0480237944773533  0.1543181284966591  0.1745849122988015
  0.0456170306312428  0.1360263865079116  0.7122794510570737
  0.0488882776889927  0.6395602123742198  0.2056975077337695
  0.0556285150500635  0.6475479659818258  0.6739284438914124
  0.3907207509835286  0.1544833790052533  0.1751926332695891
  0.3787657069966579  0.1350090530020264  0.7150941368282907
  0.3768552580908707  0.6397454411923307  0.2065885988138547
  0.3905351038210356  0.6483569753483438  0.6675800542213256
  0.7158444805524841  0.1583480477514840  0.1783354649988300
  0.7134398348379782  0.1357804720633448  0.7115171535282389
  0.7155165683480005  0.6432440834839125  0.2022358976323920
  0.7224407876230151  0.6479337116212004  0.6688750471925251
  0.0516023938500133  0.0184377778702700  0.3055560499569521
  0.0282934174342614  0.0243103925164393  0.8727309296314772
  0.0264750908149892  0.5315730749156347  0.3578574203911445
  0.0559510402284920  0.5150410635405605  0.8080922639363866
  0.3896149892431796  0.0183735596718388  0.3048937307608477
  0.3631109887964132  0.0295615212733697  0.8675124751791253
  0.3717886801013408  0.5307114845985930  0.3590921197435904
  0.3895121435010992  0.5132400110420814  0.8094140987741608
  0.7204337146095848  0.0152702601802944  0.3113776758781084
  0.6976387040460200  0.0237690063141650  0.8729519769626045
  0.6973884249776914  0.5315077384340571  0.3622394387195069
  0.7180108106149707  0.5146208177488215  0.8083998909869672
  0.2543024095514166  0.1996352477955926  0.0251998237485419
  0.2743330562853423  0.1282683379567168  0.5270646009431529
  0.2759683119244962  0.6354528285722822  0.0197706161177904
  0.2596293776237222  0.7022899895659441  0.5174014455497764
  0.5851978169817241  0.2065252134853163  0.0235246632831821
  0.6124605365934177  0.1311507306511444  0.5240961535729557
  0.6094152880123266  0.6356208191194102  0.0194733933251040
  0.5908724058093191  0.6977774402459292  0.5156443947038076
  0.9188225908911318  0.2069235511169964  0.0226184073550759
  0.9462257858535708  0.1290479020746547  0.5221475749852379
  0.9446477511196019  0.6371568815238625  0.0171456085757171
  0.9181154676817203  0.7023320836424588  0.5184993340885375
  0.2658951189865397  0.4784161035270609  0.2134113801577725
  0.2951009391430155  0.4707487111597867  0.6491459686139331
  0.2864188305896828  0.9843974137787918  0.1411038115304940
  0.2605583031932222  0.9794528909631025  0.7116842395484471
  0.6018201469421629  0.4841874932549156  0.2053465920077206
  0.6209240563549286  0.4716141772830791  0.6473833926479670
  0.6250337665279377  0.9771334125402337  0.1393413733787683
  0.6027558231918264  0.9789672482971922  0.7115726483931328
  0.9302842509792705  0.4824164320468452  0.2070598687422084
  0.9500706647968480  0.4726054711937283  0.6504395458494656
  0.9554887088119876  0.9776380203389734  0.1382263160640446
  0.9304060901364276  0.9786114288867686  0.7138634005392018
  0.0749035312421110  0.2846280244443363  0.4844578804324252
  0.0485269318206918  0.3622396156376479  0.9746676412014350
  0.0507927119389635  0.8638871730668096  0.4702955288987409
  0.0694289726269442  0.7927203897015376  0.9803344601324508
  0.4023489752747858  0.2847870927093898  0.4851394494321516
  0.3839385324093340  0.3624277909512690  0.9756131072167398
  0.3851025683478501  0.8632174665862392  0.4722387095830181
  0.4047061779822868  0.7887858989196078  0.9800292130687748
  0.7388570315359902  0.2864673247849769  0.4865279952974333
  0.7151727493253028  0.3664874932267105  0.9741715179912066
  0.7164619925547713  0.8627858884759042  0.4729025859209642
  0.7399698378688964  0.7938120295349156  0.9773967556352654
 
             NaN             NaN             NaN
             NaN             NaN             NaN
             NaN             NaN             NaN
             NaN             NaN             NaN
             NaN             NaN             NaN
             NaN             NaN             NaN
             NaN             NaN             NaN
             NaN             NaN             NaN
             NaN             NaN             NaN
             NaN             NaN             NaN
             NaN             NaN             NaN
             NaN             NaN             NaN
             NaN             NaN             NaN
             NaN             NaN             NaN
             NaN             NaN             NaN
             NaN             NaN             NaN
             NaN             NaN             NaN
             NaN             NaN             NaN
             NaN             NaN             NaN
             NaN             NaN             NaN
             NaN             NaN             NaN
             NaN             NaN             NaN
             NaN             NaN             NaN
             NaN             NaN             NaN
             NaN             NaN             NaN
             NaN             NaN             NaN
             NaN             NaN             NaN
             NaN             NaN             NaN
             NaN             NaN             NaN
             NaN             NaN             NaN
             NaN             NaN             NaN
             NaN             NaN             NaN
             NaN             NaN             NaN
             NaN             NaN             NaN
             NaN             NaN             NaN
             NaN             NaN             NaN
             NaN             NaN             NaN
             NaN             NaN             NaN
             NaN             NaN             NaN
             NaN             NaN             NaN
             NaN             NaN             NaN
             NaN             NaN             NaN
             NaN             NaN             NaN
             NaN             NaN             NaN
             NaN             NaN             NaN
             NaN             NaN             NaN
             NaN             NaN             NaN
             NaN             NaN             NaN
             NaN             NaN             NaN
             NaN             NaN             NaN
             NaN             NaN             NaN
             NaN             NaN             NaN
             NaN             NaN             NaN
             NaN             NaN             NaN
             NaN             NaN             NaN
             NaN             NaN             NaN
             NaN             NaN             NaN
             NaN             NaN             NaN
             NaN             NaN             NaN
             NaN             NaN             NaN
             NaN             NaN             NaN
             NaN             NaN             NaN
             NaN             NaN             NaN
             NaN             NaN             NaN
             NaN             NaN             NaN
             NaN             NaN             NaN
             NaN             NaN             NaN
             NaN             NaN             NaN
             NaN             NaN             NaN
             NaN             NaN             NaN
             NaN             NaN             NaN
             NaN             NaN             NaN
             NaN             NaN             NaN
             NaN             NaN             NaN
             NaN             NaN             NaN
             NaN             NaN             NaN
             NaN             NaN             NaN
             NaN             NaN             NaN
             NaN             NaN             NaN
             NaN             NaN             NaN
             NaN             NaN             NaN
             NaN             NaN             NaN
             NaN             NaN             NaN
             NaN             NaN             NaN
             NaN             NaN             NaN
             NaN             NaN             NaN
             NaN             NaN             NaN
             NaN             NaN             NaN
             NaN             NaN             NaN
             NaN             NaN             NaN
             NaN             NaN             NaN
             NaN             NaN             NaN
             NaN             NaN             NaN
             NaN             NaN             NaN
             NaN             NaN             NaN
             NaN             NaN             NaN
             NaN             NaN             NaN
             NaN             NaN             NaN
             NaN             NaN             NaN
             NaN             NaN             NaN
             NaN             NaN             NaN
             NaN             NaN             NaN
             NaN             NaN             NaN
             NaN             NaN             NaN
             NaN             NaN             NaN
             NaN             NaN             NaN
             NaN             NaN             NaN
             NaN             NaN             NaN
             NaN             NaN             NaN
             NaN             NaN             NaN
             NaN             NaN             NaN
             NaN             NaN             NaN
             NaN             NaN             NaN
             NaN             NaN             NaN
             NaN             NaN             NaN
             NaN             NaN             NaN
             NaN             NaN             NaN
             NaN             NaN             NaN
             NaN             NaN             NaN
             NaN             NaN             NaN
             NaN             NaN             NaN
             NaN             NaN             NaN
             NaN             NaN             NaN
             NaN             NaN             NaN
             NaN             NaN             NaN
             NaN             NaN             NaN
             NaN             NaN             NaN
             NaN             NaN             NaN
             NaN             NaN             NaN
             NaN             NaN             NaN
             NaN             NaN             NaN
             NaN             NaN             NaN
             NaN             NaN             NaN
             NaN             NaN             NaN
             NaN             NaN             NaN
             NaN             NaN             NaN
             NaN             NaN             NaN
             NaN             NaN             NaN
             NaN             NaN             NaN
             NaN             NaN             NaN
             NaN             NaN             NaN
             NaN             NaN             NaN
             NaN             NaN             NaN
             NaN             NaN             NaN
             NaN             NaN             NaN
             NaN             NaN             NaN
             NaN             NaN             NaN
             NaN             NaN             NaN
             NaN             NaN             NaN
             NaN             NaN             NaN
             NaN             NaN             NaN
             NaN             NaN             NaN
             NaN             NaN             NaN
             NaN             NaN             NaN
             NaN             NaN             NaN
