Ca   V    O                             
   1.00000000000000     
     8.7611289174103302   -0.0074212338507410   -0.0007151263026992
     2.9192395920126200   14.2214562212664006    0.3567419140964960
     2.9381193526202698   -0.3650636366945930   14.0069121919483006
   Ca   V    O 
    11    48    96
Direct
  0.4287527068239072  0.5543153343423199  0.5111328885460864
  0.1795678514821475  0.0102874089581704  0.4389005989371881
  0.1127470065763916  0.0701151373920226  0.0146510522094445
  0.1827227844022943  0.4955614843181166  0.9426548480814816
  0.5039010477483288  0.0207344906912255  0.4519336315511993
  0.4889436819906336  0.0694322003711747  0.0159516142863723
  0.5045461096129316  0.5208071186065908  0.9492435846204330
  0.8439055827959763  0.0062619466230558  0.4499400699319622
  0.8591120244486277  0.9226885929290845  0.9873710887821332
  0.8565567359154755  0.5541766223792024  0.5103113424096080
  0.8428794017268686  0.5103821670448383  0.9454687069037675
  0.2193061716168785  0.0937043884978266  0.2360416724746202
  0.1962649707983317  0.0928363688404659  0.7910693472227024
  0.2019374019115574  0.5945555173240891  0.2905339037422578
  0.2262949491109723  0.5850701089861374  0.7367631594315895
  0.5597533431713870  0.0891464732661262  0.2397267133073981
  0.5413243913792343  0.0918218231549872  0.7913458215520635
  0.5385481452971206  0.5974593608809684  0.2846161401802263
  0.5523062123020068  0.5856313750846880  0.7379554405478217
  0.8787090049080248  0.0895662280570875  0.2404020330707723
  0.8663843312652801  0.0896576443165173  0.7995641358184784
  0.8627668910495743  0.5977284783479320  0.2837981531949580
  0.8857496352803338  0.5869997791456782  0.7369020123185948
  0.0353034007469688  0.2705617754793224  0.0970889348471502
  0.0627252950966550  0.2008379753890210  0.5965782398728052
  0.0661635464675498  0.7098693487397298  0.0954639182486119
  0.0490029908989840  0.7533614214069431  0.5894043295552009
  0.3763398473197626  0.2711309145707119  0.0976035063048215
  0.3879117651830910  0.2055734573771275  0.6006405400537318
  0.3924985352075439  0.7103277647464949  0.0957476083547277
  0.3849749659384116  0.7643576362253128  0.5903502296041623
  0.7092012225837649  0.2637090179021797  0.0967020009510335
  0.7359799404032898  0.2026327592796164  0.5979190458513557
  0.7212543825782234  0.7132074300037274  0.0913730954384917
  0.7020134863712642  0.7635990115899958  0.5911334244666406
  0.2781138537635002  0.2465849138415663  0.4061243242601833
  0.2680732950004625  0.2792737977646240  0.9086584737137073
  0.2648616787506626  0.7875548999424140  0.4034923956245109
  0.2780123658404889  0.7412085618752471  0.9070099490212655
  0.6126315182699926  0.2410350177654408  0.4124925330955378
  0.6015524836973754  0.2878785296543427  0.9095682181384674
  0.5987230691116139  0.7878383714824864  0.4031606686377316
  0.6086470094308822  0.7419194540124039  0.9075332560698541
  0.9440576709496185  0.2418156297621366  0.4089908078260081
  0.9239254998908493  0.2862541506660534  0.9067198125054929
  0.9344116757233962  0.7859257942237932  0.4038536099553767
  0.9548994098576031  0.7276421035630847  0.9042580701911476
  0.0960453520194733  0.4156772033659450  0.2635791542461234
  0.1261184403855111  0.3992979572155733  0.7132297478051655
  0.1241832634123199  0.9063567785967876  0.2094451660978081
  0.1086664481309825  0.9033988743663102  0.7560136885118922
  0.4451681921184161  0.4149896797762693  0.2650168104565580
  0.4607013108292008  0.3945625632922116  0.7131165655044072
  0.4532827696222128  0.9058527559322158  0.2105666291952559
  0.4351496149170941  0.9121417058024548  0.7654903245113687
  0.7659832838288239  0.4125911729126628  0.2676207859740316
  0.7889475127449685  0.3978791984857821  0.7120780081190929
  0.7919200538647715  0.9035181458736119  0.2149084814558080
  0.7756119102775187  0.9025740632297712  0.7565426860527964
  0.2696272116082170  0.3457419669634731  0.3294731342994126
  0.2783985880675743  0.3543434435139119  0.7984139517187003
  0.2785104246391583  0.8611429901589105  0.2922613571508350
  0.2722238510527362  0.8422746308593219  0.8263139160219666
  0.6006653912626518  0.3455512047168412  0.3331155451177423
  0.6120488540594025  0.3542838070512602  0.7957607295213123
  0.6113544350146967  0.8588604688863910  0.2896698304058560
  0.6049631912863518  0.8417603731931536  0.8258759433188487
  0.9407975171399201  0.3458742401004713  0.3313396344078114
  0.9442748300020298  0.3575429121846980  0.7957626355280993
  0.9458357508528934  0.8586005695785204  0.2918450343583103
  0.9377560178533244  0.8445710545033975  0.8317755042176458
  0.1577920134695390  0.1697297940531683  0.3484407407652625
  0.1338460439887541  0.2043697515123668  0.8662713523857590
  0.1404094463078138  0.7083069990134874  0.3588207631978619
  0.1616864284464654  0.6693262613331896  0.8417394673756746
  0.4877095037582890  0.1684030117036457  0.3516831181760196
  0.4768226495884136  0.2029947334034219  0.8663863171473238
  0.4737431094853903  0.7088315220801888  0.3568862321504653
  0.4903730549225571  0.6692033308496477  0.8444114922644275
  0.8213577163965127  0.1718240852531920  0.3471716112348773
  0.8052893773928602  0.2052601296898331  0.8629203151119711
  0.8074195930638766  0.7085488666977255  0.3571915705913824
  0.8200017950411578  0.6677842961001517  0.8465018960644883
  0.1655896648618622  0.3276388053137396  0.1598752376304589
  0.1853475109339939  0.2861787755870182  0.6453081232365747
  0.1859598595059495  0.7928487199104666  0.1395955828425954
  0.1659788909988151  0.8204455129024808  0.6568630103521471
  0.4988946383245931  0.3287597907813904  0.1630319109476730
  0.5189692585737191  0.2832193158875853  0.6438526428882057
  0.5149876532236775  0.7930166779126822  0.1385364826372708
  0.4996464682718127  0.8259572821700800  0.6606345101455631
  0.8315909574816729  0.3273237700124696  0.1648902162495816
  0.8536854483325413  0.2862310624508737  0.6434613953081083
  0.8535192778343017  0.7938961769008159  0.1352750920437344
  0.8399963662866483  0.8197855193276169  0.6572135893005822
  0.0480021576602283  0.1543166997471630  0.1745940336066312
  0.0456281040384496  0.1360329461121523  0.7122952836588965
  0.0489042874328263  0.6395512336096658  0.2056956161523118
  0.0556525055998236  0.6475515763629289  0.6739057523577543
  0.3907392252627204  0.1544841135579844  0.1751952124403218
  0.3787582554227242  0.1350444493288876  0.7150506282614728
  0.3768542374558237  0.6397415131991764  0.2066009229522763
  0.3905164418996065  0.6483743470460084  0.6675518274598886
  0.7158363422370968  0.1583466632267516  0.1783433535927301
  0.7134071672796409  0.1357590949108811  0.7115472341023832
  0.7155198534870451  0.6432383393797707  0.2022452106490178
  0.7224290048613042  0.6479381700720808  0.6688508020630266
  0.0516183976667079  0.0184354095160231  0.3055241531915343
  0.0282183532430267  0.0243366210045721  0.8727585114210825
  0.0264729596745852  0.5315678741014338  0.3578574412616220
  0.0559871371410097  0.5150355858518481  0.8080791575394386
  0.3896579316868340  0.0183575340466007  0.3048608297173274
  0.3631284859206900  0.0295838468949015  0.8675308871965584
  0.3718006178687432  0.5307253065365032  0.3591125508768727
  0.3895247365727172  0.5132263846065541  0.8094160119893914
  0.7204145378131983  0.0152618794364940  0.3113706668181564
  0.6976172710555488  0.0237630651830187  0.8730164465904338
  0.6974013960174261  0.5315017031151612  0.3622509890883592
  0.7179835632125773  0.5145918672411725  0.8083872246702057
  0.2543127933137370  0.1996937738251958  0.0252066803588278
  0.2743144818271119  0.1282283366181574  0.5270973637562903
  0.2759982871524826  0.6353892099005023  0.0197649181129975
  0.2596063234305106  0.7023163857667427  0.5173991444506356
  0.5851733152374408  0.2065833437674058  0.0235121697552287
  0.6125000904216122  0.1311262654911900  0.5240990279978561
  0.6094203474163464  0.6355648614103586  0.0194664739660766
  0.5908569294764376  0.6978052633797134  0.5156390303300498
  0.9187954879858609  0.2069893963688259  0.0226120450760092
  0.9462169810412533  0.1290116149418523  0.5221389703905857
  0.9446683919945471  0.6371046448826903  0.0171387155428775
  0.9181232237632386  0.7023776270448394  0.5185119138609622
  0.2658638097996047  0.4783983640415670  0.2134551775639508
  0.2951371686760638  0.4707332743682002  0.6491219309599998
  0.2864347435996777  0.9843856012402554  0.1410983037860376
  0.2605126563614135  0.9794228545214168  0.7117201874337695
  0.6018095992569883  0.4841788192625529  0.2053722628843602
  0.6209308033601104  0.4716040648102222  0.6473469541827797
  0.6250320744055671  0.9771180827197270  0.1393288842780365
  0.6027872356851773  0.9789910750105051  0.7116169836175175
  0.9302651158921549  0.4824183589434554  0.2070754011295932
  0.9500622472685052  0.4725948322237272  0.6504185998879919
  0.9554917536908434  0.9776289091068620  0.1382150496226231
  0.9303377600566947  0.9786409441975579  0.7139019432423552
  0.0749803401192466  0.2846160891328893  0.4844127435420447
  0.0485140525619059  0.3622604145865935  0.9746626333924766
  0.0507799757055594  0.8639140918065138  0.4702722479153820
  0.0694158100242674  0.7926962460485427  0.9803241100087234
  0.4023306623655643  0.2847336733115000  0.4851716967631319
  0.3839176692874844  0.3624711858357870  0.9756200323920012
  0.3850793730206377  0.8632526715295228  0.4722277190263569
  0.4047272212673860  0.7887383084161570  0.9800288769934795
  0.7388475296880230  0.2864499250683323  0.4865036846665163
  0.7151507553009395  0.3665311845215982  0.9741662257226409
  0.7164524334586773  0.8628290986947249  0.4728989138352162
  0.7399951795426674  0.7937955938968031  0.9774021011415641
 
             NaN             NaN             NaN
             NaN             NaN             NaN
             NaN             NaN             NaN
             NaN             NaN             NaN
             NaN             NaN             NaN
             NaN             NaN             NaN
             NaN             NaN             NaN
             NaN             NaN             NaN
             NaN             NaN             NaN
             NaN             NaN             NaN
             NaN             NaN             NaN
             NaN             NaN             NaN
             NaN             NaN             NaN
             NaN             NaN             NaN
             NaN             NaN             NaN
             NaN             NaN             NaN
             NaN             NaN             NaN
             NaN             NaN             NaN
             NaN             NaN             NaN
             NaN             NaN             NaN
             NaN             NaN             NaN
             NaN             NaN             NaN
             NaN             NaN             NaN
             NaN             NaN             NaN
             NaN             NaN             NaN
             NaN             NaN             NaN
             NaN             NaN             NaN
             NaN             NaN             NaN
             NaN             NaN             NaN
             NaN             NaN             NaN
             NaN             NaN             NaN
             NaN             NaN             NaN
             NaN             NaN             NaN
             NaN             NaN             NaN
             NaN             NaN             NaN
             NaN             NaN             NaN
             NaN             NaN             NaN
             NaN             NaN             NaN
             NaN             NaN             NaN
             NaN             NaN             NaN
             NaN             NaN             NaN
             NaN             NaN             NaN
             NaN             NaN             NaN
             NaN             NaN             NaN
             NaN             NaN             NaN
             NaN             NaN             NaN
             NaN             NaN             NaN
             NaN             NaN             NaN
             NaN             NaN             NaN
             NaN             NaN             NaN
             NaN             NaN             NaN
             NaN             NaN             NaN
             NaN             NaN             NaN
             NaN             NaN             NaN
             NaN             NaN             NaN
             NaN             NaN             NaN
             NaN             NaN             NaN
             NaN             NaN             NaN
             NaN             NaN             NaN
             NaN             NaN             NaN
             NaN             NaN             NaN
             NaN             NaN             NaN
             NaN             NaN             NaN
             NaN             NaN             NaN
             NaN             NaN             NaN
             NaN             NaN             NaN
             NaN             NaN             NaN
             NaN             NaN             NaN
             NaN             NaN             NaN
             NaN             NaN             NaN
             NaN             NaN             NaN
             NaN             NaN             NaN
             NaN             NaN             NaN
             NaN             NaN             NaN
             NaN             NaN             NaN
             NaN             NaN             NaN
             NaN             NaN             NaN
             NaN             NaN             NaN
             NaN             NaN             NaN
             NaN             NaN             NaN
             NaN             NaN             NaN
             NaN             NaN             NaN
             NaN             NaN             NaN
             NaN             NaN             NaN
             NaN             NaN             NaN
             NaN             NaN             NaN
             NaN             NaN             NaN
             NaN             NaN             NaN
             NaN             NaN             NaN
             NaN             NaN             NaN
             NaN             NaN             NaN
             NaN             NaN             NaN
             NaN             NaN             NaN
             NaN             NaN             NaN
             NaN             NaN             NaN
             NaN             NaN             NaN
             NaN             NaN             NaN
             NaN             NaN             NaN
             NaN             NaN             NaN
             NaN             NaN             NaN
             NaN             NaN             NaN
             NaN             NaN             NaN
             NaN             NaN             NaN
             NaN             NaN             NaN
             NaN             NaN             NaN
             NaN             NaN             NaN
             NaN             NaN             NaN
             NaN             NaN             NaN
             NaN             NaN             NaN
             NaN             NaN             NaN
             NaN             NaN             NaN
             NaN             NaN             NaN
             NaN             NaN             NaN
             NaN             NaN             NaN
             NaN             NaN             NaN
             NaN             NaN             NaN
             NaN             NaN             NaN
             NaN             NaN             NaN
             NaN             NaN             NaN
             NaN             NaN             NaN
             NaN             NaN             NaN
             NaN             NaN             NaN
             NaN             NaN             NaN
             NaN             NaN             NaN
             NaN             NaN             NaN
             NaN             NaN             NaN
             NaN             NaN             NaN
             NaN             NaN             NaN
             NaN             NaN             NaN
             NaN             NaN             NaN
             NaN             NaN             NaN
             NaN             NaN             NaN
             NaN             NaN             NaN
             NaN             NaN             NaN
             NaN             NaN             NaN
             NaN             NaN             NaN
             NaN             NaN             NaN
             NaN             NaN             NaN
             NaN             NaN             NaN
             NaN             NaN             NaN
             NaN             NaN             NaN
             NaN             NaN             NaN
             NaN             NaN             NaN
             NaN             NaN             NaN
             NaN             NaN             NaN
             NaN             NaN             NaN
             NaN             NaN             NaN
             NaN             NaN             NaN
             NaN             NaN             NaN
             NaN             NaN             NaN
             NaN             NaN             NaN
             NaN             NaN             NaN
             NaN             NaN             NaN
             NaN             NaN             NaN
             NaN             NaN             NaN
