Ca V  P  O 
1.0
       13.6729612350         0.0000000000         0.0000000000
       -3.2228420983        10.6982548284         0.0000000000
        1.4058255980        -0.4988639732         7.5278780564
   Ca    V    P    O
    7    8   16   56
Direct
     0.299669564         0.900647521         0.099275440
     0.049582765         0.400679052         0.599341333
     0.549582779         0.400679052         0.599341333
     0.799669564         0.900647521         0.099275440
     0.200332806         0.099361755         0.900730073
     0.700332820         0.099361755         0.900730073
     0.950398922         0.599305451         0.400684804
     0.454642177         0.090732485         0.409158647
     0.954642177         0.090732485         0.409158647
     0.045366429         0.909293234         0.590821803
     0.545366406         0.909293234         0.590821803
     0.204568461         0.590694368         0.909180045
     0.704568446         0.590694368         0.909180045
     0.295424640         0.409275293         0.090810418
     0.795424640         0.409275293         0.090810418
     0.283515871         0.365255952         0.663616538
     0.783515871         0.365255952         0.663616538
     0.033512060         0.865201771         0.163581491
     0.533512056         0.865201771         0.163581491
     0.216518804         0.634829998         0.336464345
     0.716518819         0.634829998         0.336464345
     0.466504782         0.134826094         0.836446047
     0.966504812         0.134826094         0.836446047
     0.029906971         0.348858804         0.137899563
     0.529906988         0.348858804         0.137899563
     0.279900581         0.848910689         0.637707412
     0.779900551         0.848910689         0.637707412
     0.470075727         0.651157379         0.862082183
     0.970075727         0.651157379         0.862082183
     0.220078081         0.151021838         0.362155855
     0.720078111         0.151021838         0.362155855
     0.482013226         0.749322116         0.034990408
     0.982013226         0.749322116         0.034990408
     0.232164130         0.249226049         0.535061955
     0.732164145         0.249226049         0.535061955
     0.017968131         0.250620335         0.964970946
     0.517968118         0.250620335         0.964970946
     0.267817140         0.750769377         0.464946240
     0.767817140         0.750769377         0.464946240
     0.359026045         0.568055093         0.917763770
     0.859026074         0.568055093         0.917763770
     0.109056130         0.067982756         0.418098748
     0.609056115         0.067982756         0.418098748
     0.140967473         0.431928933         0.082249351
     0.640967488         0.431928933         0.082249351
     0.390916258         0.932015419         0.581918120
     0.890916228         0.932015419         0.581918120
     0.107974552         0.571044147         0.426361024
     0.607974529         0.571044147         0.426361024
     0.357923806         0.071126841         0.926282525
     0.857923806         0.071126841         0.926282525
     0.392082870         0.428969324         0.573544860
     0.892082870         0.428969324         0.573544860
     0.142091945         0.928876281         0.073703706
     0.642091930         0.928876281         0.073703706
     0.282221586         0.304030091         0.833687842
     0.782221556         0.304030091         0.833687842
     0.032170884         0.803956866         0.333658487
     0.532170892         0.803956866         0.333658487
     0.209578499         0.448750824         0.688499808
     0.709578514         0.448750824         0.688499808
     0.459661484         0.948833406         0.188592255
     0.959661484         0.948833406         0.188592255
     0.290366411         0.551251054         0.311470211
     0.790366411         0.551251054         0.311470211
     0.040325303         0.051182125         0.811404228
     0.540325284         0.051182125         0.811404228
     0.217787728         0.695913613         0.166352466
     0.717787743         0.695913613         0.166352466
     0.467811704         0.196014717         0.666393697
     0.967811704         0.196014717         0.666393697
     0.270992368         0.776934862         0.800714970
     0.770992398         0.776934862         0.800714970
     0.020806242         0.276796162         0.300899893
     0.520806253         0.276796162         0.300899893
     0.448736429         0.421458930         0.156467199
     0.948736429         0.421458930         0.156467199
     0.198714122         0.921531439         0.656634867
     0.698714137         0.921531439         0.656634867
     0.051291674         0.578546464         0.843565047
     0.551291704         0.578546464         0.843565047
     0.301324993         0.078456275         0.343411148
     0.801324964         0.078456275         0.343411148
     0.229023337         0.223123014         0.199256301
     0.729023337         0.223123014         0.199256301
     0.479186863         0.723230839         0.699144900
     0.979186893         0.723230839         0.699144900
