Ca   Sc   V    O                        
   1.00000000000000     
     9.9046625117998506   -0.0302179404118330   -0.0131699934484288
     2.1480063586983800    9.5496757124953593   -0.0105830834979281
    -5.9828002313667996   -4.7510566027783101   15.5406486843361993
   Ca   Sc   V    O 
     7    16    16    64
Direct
  0.5075770960583528  0.3693147442107633  0.5063049049186966
  0.4988422443838029  0.1116280927682941  0.9828345945887815
  0.4992735447026326  0.6101352874725398  0.9825079700048297
  0.9844299828075681  0.1344750314447009  0.4825572514266188
  0.9926061447225535  0.1122929764169341  0.9832351262989332
  0.9869652265335942  0.6276640540455093  0.4827787954590740
  0.9928062712755985  0.6141403474862331  0.9830046051881974
  0.3456556605162309  0.4593597954623296  0.1687211907914047
  0.3234089635954914  0.4744919492930986  0.6747053829274942
  0.3438451216972965  0.9572878588071321  0.1686005811727087
  0.3197972791770126  0.9792178925206328  0.6709301778070069
  0.8487910048654880  0.4625107836978056  0.1724251393721214
  0.8313306052465216  0.4748112793859761  0.6762099311505914
  0.8459068377040589  0.9593506069464131  0.1724645044264004
  0.8286275589175240  0.9659122862250391  0.6704864218800981
  0.1662143271919859  0.0338117525582182  0.3124159427170200
  0.1456727313266129  0.0442244831473485  0.8128256630681399
  0.1739406167481916  0.5335334559195832  0.3171018339647133
  0.1474667526825450  0.5457205616579742  0.8149462034460667
  0.6629910911236921  0.0297116292860168  0.3147936964141234
  0.6423652234007986  0.0412114543061453  0.8074944409168209
  0.6666386432639803  0.5248905572277733  0.3107112466423187
  0.6447787678899434  0.5426518141960014  0.8104377767622507
  0.1009017952199266  0.2164489818235841  0.1804410155651285
  0.0769850591818332  0.2284536924069328  0.6811851495009389
  0.1013295136101574  0.7153004390789935  0.1804053107693478
  0.0816475681654166  0.7278006669714069  0.6812247107020853
  0.6019406473107475  0.2119299894979314  0.1800262719301945
  0.5836832421804580  0.2167109592018207  0.6730092865869624
  0.6011860181166203  0.7128262441370231  0.1799445905556806
  0.5681022272314384  0.7263115063159058  0.6715286443199988
  0.4153400021975774  0.2776001887433360  0.3082553536025754
  0.3962261997973114  0.2939892183786760  0.8126395987287278
  0.4206111525016119  0.7826252175303871  0.3181876533064576
  0.3972276319771516  0.7926044919236577  0.8124813754538446
  0.9169918202995505  0.2807549629105873  0.3114970545014598
  0.8929844107529628  0.2929179854452915  0.8124437683364278
  0.9175239131923156  0.7817830398199962  0.3132263445995365
  0.8928844246806202  0.7921920753755771  0.8124884502808337
  0.2339732229215157  0.3525951017618211  0.2123910311948457
  0.2120687069529591  0.3652229560598417  0.7144364772467576
  0.2295960683348159  0.8523475051659630  0.2094744300300061
  0.2135800302562312  0.8643101548730792  0.7125895016677597
  0.7359276002532629  0.3495707277340085  0.2121955652965213
  0.7141499788599525  0.3634514824978047  0.7125793771630647
  0.7346152729540794  0.8504112096888766  0.2141801781324917
  0.7107767751567016  0.8578195722678221  0.7077106109700284
  0.5001902350384407  0.1066593009629073  0.2113426850261661
  0.4732200187705374  0.1245362357162376  0.7089730079832470
  0.5016908575172918  0.6040131532170512  0.2089962837303215
  0.4762104305706151  0.6243650171746328  0.7128966426091472
  0.9995881143041327  0.1108757505904796  0.2128685148503541
  0.9753284862425978  0.1243095922341260  0.7128322421596954
  0.0031577315016349  0.6117551196182881  0.2150600723190280
  0.9793935063531596  0.6250491011052208  0.7146452842611571
  0.0589731750874059  0.1954440553385053  0.3893708040853545
  0.0325730512257570  0.2028498221118939  0.8892325659376904
  0.0570580671288194  0.6943436461100725  0.3898352137381872
  0.0373736399423327  0.7104321370917172  0.8913880362370804
  0.5680107788174468  0.2084403734341820  0.3899450899899125
  0.5359604577616882  0.2032238227350135  0.8874207231894605
  0.5645838732080337  0.7067610459396433  0.3842762557260980
  0.5377284746931165  0.7079276253266079  0.8897828692959804
  0.3439454588718674  0.4263675793251295  0.3902205213654882
  0.3293301455228195  0.4550012303917385  0.8915071271979315
  0.3446120634187184  0.9263419126391875  0.3843627906341646
  0.3314727767788713  0.9592742778912662  0.8891080551406086
  0.8509769593606571  0.4433974489786211  0.3895164154859705
  0.8279249241046566  0.4555265014258291  0.8896124425384495
  0.8526943099591358  0.9455811837576206  0.3898417093234562
  0.8262779300572813  0.9576983604439908  0.8871909028808137
  0.2828114350228159  0.1408942750733285  0.2750497387152768
  0.2578329172467898  0.1561933829135990  0.7755939281154259
  0.2872486318228086  0.6431606287806789  0.2771455077807628
  0.2596558549230885  0.6584799639944213  0.7786936155756232
  0.7810621076059440  0.1441943569472889  0.2782946790888319
  0.7529216662292347  0.1561534170477548  0.7724669109169596
  0.7820201102211090  0.6438110600414974  0.2783228469535391
  0.7625182440076589  0.6569923457196462  0.7795165587037033
  0.0191754099890370  0.3828069011724611  0.2781546058733068
  0.9965805457521825  0.3968748304721576  0.7800500881923310
  0.0179716014185406  0.8832231176985034  0.2780778743983846
  0.9935312639483530  0.8957362571343725  0.7763154623225215
  0.5147194276089220  0.3806345755549353  0.2749745591090603
  0.4942908297076845  0.3990029873490739  0.7819041489856432
  0.5119005778667909  0.8802831066409257  0.2759222299053956
  0.4960468511741157  0.8922104617918895  0.7742059807720948
  0.4493833655834729  0.2816107128949723  0.0984422341393755
  0.4376698645819314  0.3135306252203925  0.6036320082987567
  0.4494053272724548  0.7817189286625374  0.0980591343692677
  0.4274314405500636  0.7961156810775212  0.6011818981323089
  0.9479677250664009  0.2854892461208116  0.0994582425120610
  0.9241887657608948  0.2991825136430713  0.5992495198151669
  0.9455231438189583  0.7827115690429366  0.0994622099942387
  0.9302645122564555  0.7947659488294712  0.5983842636007601
  0.1697802698982961  0.0644035663409308  0.0982393029510914
  0.1468747780186169  0.0793450482407290  0.5985808691320212
  0.1692597630638416  0.5633453497547924  0.0980380947958978
  0.1522405909958285  0.5751969940559276  0.5997533214899168
  0.6728368220828108  0.0615129839540796  0.0987539256963379
  0.6524984318014124  0.0803175641293000  0.6000179756691623
  0.6749924263959782  0.5640375719911277  0.0986903238866096
  0.6406263811335602  0.5602589595905572  0.6028662896018797
 
             NaN             NaN             NaN
             NaN             NaN             NaN
             NaN             NaN             NaN
             NaN             NaN             NaN
             NaN             NaN             NaN
             NaN             NaN             NaN
             NaN             NaN             NaN
             NaN             NaN             NaN
             NaN             NaN             NaN
             NaN             NaN             NaN
             NaN             NaN             NaN
             NaN             NaN             NaN
             NaN             NaN             NaN
             NaN             NaN             NaN
             NaN             NaN             NaN
             NaN             NaN             NaN
             NaN             NaN             NaN
             NaN             NaN             NaN
             NaN             NaN             NaN
             NaN             NaN             NaN
             NaN             NaN             NaN
             NaN             NaN             NaN
             NaN             NaN             NaN
             NaN             NaN             NaN
             NaN             NaN             NaN
             NaN             NaN             NaN
             NaN             NaN             NaN
             NaN             NaN             NaN
             NaN             NaN             NaN
             NaN             NaN             NaN
             NaN             NaN             NaN
             NaN             NaN             NaN
             NaN             NaN             NaN
             NaN             NaN             NaN
             NaN             NaN             NaN
             NaN             NaN             NaN
             NaN             NaN             NaN
             NaN             NaN             NaN
             NaN             NaN             NaN
             NaN             NaN             NaN
             NaN             NaN             NaN
             NaN             NaN             NaN
             NaN             NaN             NaN
             NaN             NaN             NaN
             NaN             NaN             NaN
             NaN             NaN             NaN
             NaN             NaN             NaN
             NaN             NaN             NaN
             NaN             NaN             NaN
             NaN             NaN             NaN
             NaN             NaN             NaN
             NaN             NaN             NaN
             NaN             NaN             NaN
             NaN             NaN             NaN
             NaN             NaN             NaN
             NaN             NaN             NaN
             NaN             NaN             NaN
             NaN             NaN             NaN
             NaN             NaN             NaN
             NaN             NaN             NaN
             NaN             NaN             NaN
             NaN             NaN             NaN
             NaN             NaN             NaN
             NaN             NaN             NaN
             NaN             NaN             NaN
             NaN             NaN             NaN
             NaN             NaN             NaN
             NaN             NaN             NaN
             NaN             NaN             NaN
             NaN             NaN             NaN
             NaN             NaN             NaN
             NaN             NaN             NaN
             NaN             NaN             NaN
             NaN             NaN             NaN
             NaN             NaN             NaN
             NaN             NaN             NaN
             NaN             NaN             NaN
             NaN             NaN             NaN
             NaN             NaN             NaN
             NaN             NaN             NaN
             NaN             NaN             NaN
             NaN             NaN             NaN
             NaN             NaN             NaN
             NaN             NaN             NaN
             NaN             NaN             NaN
             NaN             NaN             NaN
             NaN             NaN             NaN
             NaN             NaN             NaN
             NaN             NaN             NaN
             NaN             NaN             NaN
             NaN             NaN             NaN
             NaN             NaN             NaN
             NaN             NaN             NaN
             NaN             NaN             NaN
             NaN             NaN             NaN
             NaN             NaN             NaN
             NaN             NaN             NaN
             NaN             NaN             NaN
             NaN             NaN             NaN
             NaN             NaN             NaN
             NaN             NaN             NaN
             NaN             NaN             NaN
             NaN             NaN             NaN
