Ca   Sc   V    O                        
   1.00000000000000     
     9.9046625117998506   -0.0302179404118330   -0.0131699934484288
     2.1480063586983800    9.5496757124953593   -0.0105830834979281
    -5.9828002313667996   -4.7510566027783101   15.5406486843361993
   Ca   Sc   V    O 
     7    16    16    64
Direct
  0.5075872830540920  0.3692889222867571  0.5063065780002221
  0.4988494173138885  0.1116145705292535  0.9828327097781188
  0.4992684442575050  0.6101251465463172  0.9825082471077771
  0.9844254907278749  0.1344874943334099  0.4825628539960030
  0.9926212632204519  0.1122772974394824  0.9832413508806435
  0.9869621948069095  0.6276631947307416  0.4827759836401846
  0.9928110773792767  0.6141277283943012  0.9830033247159308
  0.3456509449339056  0.4593512455679257  0.1687041658258744
  0.3234085919938937  0.4744842734605823  0.6747101715171664
  0.3438454616917795  0.9572908422521800  0.1686026413973159
  0.3197865587010002  0.9792280123949386  0.6709334376562398
  0.8487905447389195  0.4624970365857272  0.1724247694672817
  0.8313474748403987  0.4748043426577532  0.6762202132174301
  0.8459016995366413  0.9593607749046810  0.1724610941915994
  0.8286326490789063  0.9659136883422793  0.6704920951837779
  0.1662555169640634  0.0337864378080361  0.3124174066637969
  0.1456725820426949  0.0442236171641351  0.8128284690039059
  0.1739367842115522  0.5335316392225830  0.3171019507395564
  0.1474759383052623  0.5457238668314391  0.8149477391960701
  0.6629826400235428  0.0297110316819207  0.3147899582745316
  0.6423552195005945  0.0412190834801609  0.8074999460460822
  0.6666673865220109  0.5248595453666400  0.3107076640467564
  0.6447815197581461  0.5426537508003775  0.8104472513574548
  0.1009097978555095  0.2164575672420223  0.1804478782635886
  0.0769785728200151  0.2284530089024531  0.6811877162369904
  0.1013558566520290  0.7152699507092060  0.1803963731606385
  0.0816352365930569  0.7278149208111691  0.6812427148330394
  0.6019397997864510  0.2119408473026390  0.1800214159033786
  0.5836839899549787  0.2167009834276542  0.6730156717668446
  0.6011880698657720  0.7128004642206556  0.1799297651813318
  0.5681018134681073  0.7263286619568000  0.6715432957111664
  0.4153381291541566  0.2775968213489746  0.3082428873648316
  0.3962116460299854  0.2939901425058208  0.8126440943651243
  0.4205591688989123  0.7826571919083662  0.3181815783463750
  0.3972228088520547  0.7926124829781724  0.8124876814559493
  0.9169791315246800  0.2807830529688816  0.3114754247211475
  0.8929830994489718  0.2929197106464076  0.8124480244353836
  0.9175307858312366  0.7817445884083830  0.3132269807352654
  0.8928917147859773  0.7921996488605360  0.8124964664414938
  0.2339766292441354  0.3525799556099022  0.2123888701337834
  0.2120670643401650  0.3652225466456983  0.7144356016285750
  0.2295918671502797  0.8523403404271060  0.2094668734696087
  0.2135720152907880  0.8643040761603223  0.7125900200767049
  0.7359293586136116  0.3495494708277981  0.2121909475776429
  0.7141505866667320  0.3634634824057689  0.7125807673832062
  0.7346318504309548  0.8504202050384229  0.2141807583754655
  0.7107591089487934  0.8578038740912062  0.7077052772737099
  0.5002026401831087  0.1066416374559120  0.2113385849672493
  0.4732035335941221  0.1245357671004605  0.7089800994051584
  0.5017030259937587  0.6039966355406273  0.2089936246304519
  0.4762090090704400  0.6243645314864744  0.7128949902387676
 -0.0004117270462351  0.1108666109142562  0.2128645583601433
  0.9753283835188892  0.1243066442765771  0.7128323618322200
  0.0031706164269702  0.6117507160906913  0.2150551556537147
  0.9793939339407566  0.6250507176485810  0.7146463974156360
  0.0589879585567663  0.1954372071603221  0.3893819041903514
  0.0325684950551532  0.2028490009198159  0.8892324216656924
  0.0570450735025273  0.6943464669314655  0.3898297089054107
  0.0373754325297051  0.7104337835666225  0.8913926183236184
  0.5680137476041472  0.2084270233012103  0.3899352508383757
  0.5359508959669698  0.2032263628909742  0.8874213692147263
  0.5646149933664465  0.7067474100049713  0.3842937858106150
  0.5377158458835807  0.7079257081083860  0.8897824951626132
  0.3439571011241664  0.4263678612669251  0.3902250164758838
  0.3293266555970211  0.4549958888686728  0.8915023919094678
  0.3446100789775339  0.9263435017130699  0.3843576116185741
  0.3314673506525498  0.9592699504738657  0.8891043867510132
  0.8509945953032201  0.4433695478764816  0.3895129533688020
  0.8279164768718725  0.4555219144916122  0.8896117839384414
  0.8526941309560594  0.9455908297441367  0.3898489988227845
  0.8262711783685694  0.9577023457227249  0.8871946155269828
  0.2828259188390117  0.1408868104309628  0.2750491321049793
  0.2578174032051612  0.1561941026397439  0.7755916447671637
  0.2872598853576547  0.6431533573965600  0.2771460872819339
  0.2596528529341574  0.6584788393636791  0.7786907730932909
  0.7810747141006097  0.1441840013090033  0.2782972423263389
  0.7529158523710130  0.1561591047347152  0.7724658175699819
  0.7820313597354757  0.6438162119049102  0.2783233916304518
  0.7625149444651242  0.6569868509903999  0.7795184651511483
  0.0191749554934903  0.3827818448564424  0.2781550756169976
  0.9965758134452406  0.3968735078192185  0.7800504260245607
  0.0179743267022321  0.8832184446560576  0.2780717510844146
  0.9935231861338056  0.8957370249018775  0.7763179318869768
  0.5147283189925282  0.3806171660956408  0.2749731383888651
  0.4942872734675790  0.3990009704344647  0.7819012728036178
  0.5119222032574876  0.8802718183979236  0.2759223461063730
  0.4960344573018184  0.8922159226774966  0.7742131584298577
  0.4493942033069173  0.2816029123902972  0.0984418965809395
  0.4376461130395649  0.3135266072683668  0.6036354207644729
  0.4494110813234213  0.7817204263144718  0.0980635151185837
  0.4274101760513278  0.7961241750478827  0.6011720767607079
  0.9479760086008713  0.2854683997777122  0.0994558889254197
  0.9241841386473230  0.2991867491064020  0.5992524853944093
  0.9455176123104441  0.7827163042532789  0.0994607765764294
  0.9302605328843272  0.7947602611484107  0.5983855247415227
  0.1697855489962276  0.0643972252663523  0.0982416175269307
  0.1468624936485785  0.0793521644720088  0.5985801566011258
  0.1692540960588356  0.5633552580523767  0.0980408816979571
  0.1522344982510836  0.5751815266809495  0.5997473426803041
  0.6728485468669745  0.0615026008479576  0.0987583713566400
  0.6524883928800853  0.0803219936360742  0.6000207326192226
  0.6749853175000812  0.5640352446550932  0.0986891153020816
  0.6406050890225714  0.5602283113927388  0.6028460883002450
 
             NaN             NaN             NaN
             NaN             NaN             NaN
             NaN             NaN             NaN
             NaN             NaN             NaN
             NaN             NaN             NaN
             NaN             NaN             NaN
             NaN             NaN             NaN
             NaN             NaN             NaN
             NaN             NaN             NaN
             NaN             NaN             NaN
             NaN             NaN             NaN
             NaN             NaN             NaN
             NaN             NaN             NaN
             NaN             NaN             NaN
             NaN             NaN             NaN
             NaN             NaN             NaN
             NaN             NaN             NaN
             NaN             NaN             NaN
             NaN             NaN             NaN
             NaN             NaN             NaN
             NaN             NaN             NaN
             NaN             NaN             NaN
             NaN             NaN             NaN
             NaN             NaN             NaN
             NaN             NaN             NaN
             NaN             NaN             NaN
             NaN             NaN             NaN
             NaN             NaN             NaN
             NaN             NaN             NaN
             NaN             NaN             NaN
             NaN             NaN             NaN
             NaN             NaN             NaN
             NaN             NaN             NaN
             NaN             NaN             NaN
             NaN             NaN             NaN
             NaN             NaN             NaN
             NaN             NaN             NaN
             NaN             NaN             NaN
             NaN             NaN             NaN
             NaN             NaN             NaN
             NaN             NaN             NaN
             NaN             NaN             NaN
             NaN             NaN             NaN
             NaN             NaN             NaN
             NaN             NaN             NaN
             NaN             NaN             NaN
             NaN             NaN             NaN
             NaN             NaN             NaN
             NaN             NaN             NaN
             NaN             NaN             NaN
             NaN             NaN             NaN
             NaN             NaN             NaN
             NaN             NaN             NaN
             NaN             NaN             NaN
             NaN             NaN             NaN
             NaN             NaN             NaN
             NaN             NaN             NaN
             NaN             NaN             NaN
             NaN             NaN             NaN
             NaN             NaN             NaN
             NaN             NaN             NaN
             NaN             NaN             NaN
             NaN             NaN             NaN
             NaN             NaN             NaN
             NaN             NaN             NaN
             NaN             NaN             NaN
             NaN             NaN             NaN
             NaN             NaN             NaN
             NaN             NaN             NaN
             NaN             NaN             NaN
             NaN             NaN             NaN
             NaN             NaN             NaN
             NaN             NaN             NaN
             NaN             NaN             NaN
             NaN             NaN             NaN
             NaN             NaN             NaN
             NaN             NaN             NaN
             NaN             NaN             NaN
             NaN             NaN             NaN
             NaN             NaN             NaN
             NaN             NaN             NaN
             NaN             NaN             NaN
             NaN             NaN             NaN
             NaN             NaN             NaN
             NaN             NaN             NaN
             NaN             NaN             NaN
             NaN             NaN             NaN
             NaN             NaN             NaN
             NaN             NaN             NaN
             NaN             NaN             NaN
             NaN             NaN             NaN
             NaN             NaN             NaN
             NaN             NaN             NaN
             NaN             NaN             NaN
             NaN             NaN             NaN
             NaN             NaN             NaN
             NaN             NaN             NaN
             NaN             NaN             NaN
             NaN             NaN             NaN
             NaN             NaN             NaN
             NaN             NaN             NaN
             NaN             NaN             NaN
             NaN             NaN             NaN
