Co3 Ni1 O8
1.0
   1.6195260000000000   -2.4685480000000002   -4.8383240000000001
   1.6197050000000000   -5.4213410000000000   -0.0001519999999990
  -3.8438800000000000   -4.1029530000000003   -2.5142220000000002
Co Ni O
3 1 8
direct
   0.4946080000000000    0.0054269999999990    0.0048300000000000 Co
   0.0047900000000000    0.4950880000000000    0.0049390000000000 Co
   0.4946009999999990    0.4950389999999991    0.0048680000000000 Co
   0.0118920000000000    0.0125530000000000    0.9629200000000001 Ni
   0.2414180000000000    0.2422320000000000    0.8116169999999990 O
   0.7033579999999990    0.2425179999999990    0.8117289999999990 O
   0.2414559999999990    0.7047580000000000    0.8116089999999990 O
   0.7291069999999999    0.7288260000000000    0.8132389999999990 O
   0.2674330000000000    0.2690909999999990    0.1941610000000000 O
   0.7715240000000000    0.2680410000000000    0.1884549999999990 O
   0.2691159999999990    0.7708919999999990    0.1888870000000000 O
   0.7715160000000000    0.7717700000000001    0.1884440000000000 O
