Co Ni O 
 1.0000000000000000
     1.6195260000000000   -2.4685480000000002   -4.8383240000000001
     1.6197050000000000   -5.4213410000000000   -0.0001519999999990
    -3.8438800000000000   -4.1029530000000003   -2.5142220000000002
 Co  Ni  O  
   3   1   8
Cartesian
  0.8135624196333970 -1.2336861900751308 -2.4162097198170529
  0.8140316560836655 -2.7091675929024928  0.0011010677734988
  1.6229793567935160 -3.9428841686819771 -2.4162882270379287
 -3.8340182112675727 -4.0997601311792788 -2.5108788003411870
 -2.4106077684232852 -5.1453313983719529 -3.1516276323330379
 -1.5991888290880292 -6.3845520485106020 -5.5832234947888129
 -1.5977876640818449 -7.8659969473926408 -3.1516668566826480
 -0.7876035629545060 -9.0946899887100940 -5.5747885796258068
  0.1929369755848875 -2.8946660527949288 -1.7727666797387709
  1.0045958990055595 -4.1221628796799799 -4.1961934749819889
  1.0064394145589675 -5.6042266528952656 -1.7627082437212123
  1.8178157383842446 -6.8442293169465849 -4.1962444907370307
