Ca Zr Mn F 
1.0
       17.5821552277         0.0000000000         0.0000000000
        5.1581040120        16.8085140762         0.0000000000
        5.6629662684         4.1857943321        14.3714960665
   Ca   Zr   Mn    F
   17   36   18  198
Direct
     0.333333343         0.666666687         0.500000000
     0.000000000         0.000000000         0.000000000
     0.000000000         0.000000000         0.500000000
     0.000000000         0.333333343         0.000000000
     0.000000000         0.333333343         0.500000000
     0.000000000         0.666666687         0.000000000
     0.000000000         0.666666687         0.500000000
     0.333333343         0.000000000         0.000000000
     0.333333343         0.000000000         0.500000000
     0.333333343         0.333333343         0.000000000
     0.333333343         0.666666687         0.000000000
     0.666666687         0.000000000         0.000000000
     0.666666687         0.000000000         0.500000000
     0.666666687         0.333333343         0.000000000
     0.666666687         0.333333343         0.500000000
     0.666666687         0.666666687         0.000000000
     0.666666687         0.666666687         0.500000000
     0.164355069         0.164355069         0.119428992
     0.164355069         0.164355069         0.619428992
     0.164355069         0.497688413         0.119428992
     0.164355069         0.497688413         0.619428992
     0.164355069         0.831021726         0.119428992
     0.164355069         0.831021726         0.619428992
     0.497688413         0.164355069         0.119428992
     0.497688413         0.164355069         0.619428992
     0.497688413         0.497688413         0.119428992
     0.497688413         0.497688413         0.619428992
     0.497688413         0.831021726         0.119428992
     0.497688413         0.831021726         0.619428992
     0.831021726         0.164355069         0.119428992
     0.831021726         0.164355069         0.619428992
     0.831021726         0.497688413         0.119428992
     0.831021726         0.497688413         0.619428992
     0.831021726         0.831021726         0.119428992
     0.831021726         0.831021726         0.619428992
     0.168978259         0.168978259         0.380571008
     0.168978259         0.168978259         0.880571008
     0.168978259         0.502311587         0.380571008
     0.168978259         0.502311587         0.880571008
     0.168978259         0.835644901         0.380571008
     0.168978259         0.835644901         0.880571008
     0.502311587         0.168978259         0.380571008
     0.502311587         0.168978259         0.880571008
     0.502311587         0.502311587         0.380571008
     0.502311587         0.502311587         0.880571008
     0.502311587         0.835644901         0.380571008
     0.502311587         0.835644901         0.880571008
     0.835644901         0.168978259         0.380571008
     0.835644901         0.168978259         0.880571008
     0.835644901         0.502311587         0.380571008
     0.835644901         0.502311587         0.880571008
     0.835644901         0.835644901         0.380571008
     0.835644901         0.835644901         0.880571008
     0.000000000         0.000000000         0.250000000
     0.000000000         0.000000000         0.750000000
     0.000000000         0.333333343         0.250000000
     0.000000000         0.333333343         0.750000000
     0.000000000         0.666666687         0.250000000
     0.000000000         0.666666687         0.750000000
     0.333333343         0.000000000         0.250000000
     0.333333343         0.000000000         0.750000000
     0.333333343         0.333333343         0.250000000
     0.333333343         0.333333343         0.750000000
     0.333333343         0.666666687         0.250000000
     0.333333343         0.666666687         0.750000000
     0.666666687         0.000000000         0.250000000
     0.666666687         0.000000000         0.750000000
     0.666666687         0.333333343         0.250000000
     0.666666687         0.333333343         0.750000000
     0.666666687         0.666666687         0.250000000
     0.666666687         0.666666687         0.750000000
     0.065146081         0.261360794         0.148304015
     0.065146081         0.261360794         0.648303986
     0.065146081         0.594694138         0.148304015
     0.065146081         0.594694138         0.648303986
     0.065146081         0.928027451         0.148304015
     0.065146081         0.928027451         0.648303986
     0.398479402         0.261360794         0.148304015
     0.398479402         0.261360794         0.648303986
     0.398479402         0.594694138         0.148304015
     0.398479402         0.594694138         0.648303986
     0.398479402         0.928027451         0.148304015
     0.398479402         0.928027451         0.648303986
     0.731812775         0.261360794         0.148304015
     0.731812775         0.261360794         0.648303986
     0.731812775         0.594694138         0.148304015
     0.731812775         0.594694138         0.648303986
     0.731812775         0.928027451         0.148304015
     0.731812775         0.928027451         0.648303986
     0.071972534         0.268187255         0.351695985
     0.071972534         0.268187255         0.851696014
     0.071972534         0.601520598         0.351695985
     0.071972534         0.601520598         0.851696014
     0.071972534         0.934853911         0.351695985
     0.071972534         0.934853911         0.851696014
     0.405305862         0.268187255         0.351695985
     0.405305862         0.268187255         0.851696014
     0.405305862         0.601520598         0.351695985
     0.405305862         0.601520598         0.851696014
     0.405305862         0.934853911         0.351695985
     0.405305862         0.934853911         0.851696014
     0.738639176         0.268187255         0.351695985
     0.738639176         0.268187255         0.851696014
     0.738639176         0.601520598         0.351695985
     0.738639176         0.601520598         0.851696014
     0.738639176         0.934853911         0.351695985
     0.738639176         0.934853911         0.851696014
     0.268187255         0.071972534         0.351695985
     0.268187255         0.071972534         0.851696014
     0.268187255         0.405305862         0.351695985
     0.268187255         0.405305862         0.851696014
     0.268187255         0.738639176         0.351695985
     0.268187255         0.738639176         0.851696014
     0.601520598         0.071972534         0.351695985
     0.601520598         0.071972534         0.851696014
     0.601520598         0.405305862         0.351695985
     0.601520598         0.405305862         0.851696014
     0.601520598         0.738639176         0.351695985
     0.601520598         0.738639176         0.851696014
     0.934853911         0.071972534         0.351695985
     0.934853911         0.071972534         0.851696014
     0.934853911         0.405305862         0.351695985
     0.934853911         0.405305862         0.851696014
     0.934853911         0.738639176         0.351695985
     0.934853911         0.738639176         0.851696014
     0.261360794         0.065146081         0.148304015
     0.261360794         0.065146081         0.648303986
     0.261360794         0.398479402         0.148304015
     0.261360794         0.398479402         0.648303986
     0.261360794         0.731812775         0.148304015
     0.261360794         0.731812775         0.648303986
     0.594694138         0.065146081         0.148304015
     0.594694138         0.065146081         0.648303986
     0.594694138         0.398479402         0.148304015
     0.594694138         0.398479402         0.648303986
     0.594694138         0.731812775         0.148304015
     0.594694138         0.731812775         0.648303986
     0.928027451         0.065146081         0.148304015
     0.928027451         0.065146081         0.648303986
     0.928027451         0.398479402         0.148304015
     0.928027451         0.398479402         0.648303986
     0.928027451         0.731812775         0.148304015
     0.928027451         0.731812775         0.648303986
     0.166666672         0.166666672         0.250000000
     0.166666672         0.166666672         0.750000000
     0.166666672         0.500000000         0.250000000
     0.166666672         0.500000000         0.750000000
     0.166666672         0.833333313         0.250000000
     0.166666672         0.833333313         0.750000000
     0.500000000         0.166666672         0.250000000
     0.500000000         0.166666672         0.750000000
     0.500000000         0.500000000         0.250000000
     0.500000000         0.500000000         0.750000000
     0.500000000         0.833333313         0.250000000
     0.500000000         0.833333313         0.750000000
     0.833333313         0.166666672         0.250000000
     0.833333313         0.166666672         0.750000000
     0.833333313         0.500000000         0.250000000
     0.833333313         0.500000000         0.750000000
     0.833333313         0.833333313         0.250000000
     0.833333313         0.833333313         0.750000000
     0.222411513         0.110921822         0.000000000
     0.222411513         0.110921822         0.500000000
     0.222411513         0.444255143         0.000000000
     0.222411513         0.444255143         0.500000000
     0.222411513         0.777588487         0.000000000
     0.222411513         0.777588487         0.500000000
     0.555744827         0.110921822         0.000000000
     0.555744827         0.110921822         0.500000000
     0.555744827         0.444255143         0.000000000
     0.555744827         0.444255143         0.500000000
     0.555744827         0.777588487         0.000000000
     0.555744827         0.777588487         0.500000000
     0.889078200         0.110921822         0.000000000
     0.889078200         0.110921822         0.500000000
     0.889078200         0.444255143         0.000000000
     0.889078200         0.444255143         0.500000000
     0.889078200         0.777588487         0.000000000
     0.889078200         0.777588487         0.500000000
     0.110921822         0.222411513         0.000000000
     0.110921822         0.222411513         0.500000000
     0.110921822         0.555744827         0.000000000
     0.110921822         0.555744827         0.500000000
     0.110921822         0.889078200         0.000000000
     0.110921822         0.889078200         0.500000000
     0.444255143         0.222411513         0.000000000
     0.444255143         0.222411513         0.500000000
     0.444255143         0.555744827         0.000000000
     0.444255143         0.555744827         0.500000000
     0.444255143         0.889078200         0.000000000
     0.444255143         0.889078200         0.500000000
     0.777588487         0.222411513         0.000000000
     0.777588487         0.222411513         0.500000000
     0.777588487         0.555744827         0.000000000
     0.777588487         0.555744827         0.500000000
     0.777588487         0.889078200         0.000000000
     0.777588487         0.889078200         0.500000000
     0.248601496         0.248601496         0.326969832
     0.248601496         0.248601496         0.826969862
     0.248601496         0.581934810         0.326969832
     0.248601496         0.581934810         0.826969862
     0.248601496         0.915268183         0.326969832
     0.248601496         0.915268183         0.826969862
     0.581934810         0.248601496         0.326969832
     0.581934810         0.248601496         0.826969862
     0.581934810         0.581934810         0.326969832
     0.581934810         0.581934810         0.826969862
     0.581934810         0.915268183         0.326969832
     0.581934810         0.915268183         0.826969862
     0.915268183         0.248601496         0.326969832
     0.915268183         0.248601496         0.826969862
     0.915268183         0.581934810         0.326969832
     0.915268183         0.581934810         0.826969862
     0.915268183         0.915268183         0.326969832
     0.915268183         0.915268183         0.826969862
     0.084731840         0.084731840         0.173030183
     0.084731840         0.084731840         0.673030198
     0.084731840         0.418065161         0.173030183
     0.084731840         0.418065161         0.673030198
     0.084731840         0.751398504         0.173030183
     0.084731840         0.751398504         0.673030198
     0.418065161         0.084731840         0.173030183
     0.418065161         0.084731840         0.673030198
     0.418065161         0.418065161         0.173030183
     0.418065161         0.418065161         0.673030198
     0.418065161         0.751398504         0.173030183
     0.418065161         0.751398504         0.673030198
     0.751398504         0.084731840         0.173030183
     0.751398504         0.084731840         0.673030198
     0.751398504         0.418065161         0.173030183
     0.751398504         0.418065161         0.673030198
     0.751398504         0.751398504         0.173030183
     0.751398504         0.751398504         0.673030198
     0.245580807         0.245580807         0.052245848
     0.245580807         0.245580807         0.552245855
     0.245580807         0.578914165         0.052245848
     0.245580807         0.578914165         0.552245855
     0.245580807         0.912247479         0.052245848
     0.245580807         0.912247479         0.552245855
     0.578914165         0.245580807         0.052245848
     0.578914165         0.245580807         0.552245855
     0.578914165         0.578914165         0.052245848
     0.578914165         0.578914165         0.552245855
     0.578914165         0.912247479         0.052245848
     0.578914165         0.912247479         0.552245855
     0.912247479         0.245580807         0.052245848
     0.912247479         0.245580807         0.552245855
     0.912247479         0.578914165         0.052245848
     0.912247479         0.578914165         0.552245855
     0.912247479         0.912247479         0.052245848
     0.912247479         0.912247479         0.552245855
     0.087752514         0.087752514         0.447754174
     0.087752514         0.087752514         0.947754145
     0.087752514         0.421085835         0.447754174
     0.087752514         0.421085835         0.947754145
     0.087752514         0.754419208         0.447754174
     0.087752514         0.754419208         0.947754145
     0.421085835         0.087752514         0.447754174
     0.421085835         0.087752514         0.947754145
     0.421085835         0.421085835         0.447754174
     0.421085835         0.421085835         0.947754145
     0.421085835         0.754419208         0.447754174
     0.421085835         0.754419208         0.947754145
     0.754419208         0.087752514         0.447754174
     0.754419208         0.087752514         0.947754145
     0.754419208         0.421085835         0.447754174
     0.754419208         0.421085835         0.947754145
     0.754419208         0.754419208         0.447754174
     0.754419208         0.754419208         0.947754145
