Ca Mn V  P  O 
1.0
       18.4695663452         0.0000000000         0.0000000000
        0.7490623341        17.8748051587         0.0000000000
        9.7365935439         8.8611014881        12.3997327565
   Ca   Mn    V    P    O
   31   16   16   48  192
Direct
     0.509048879         0.495430678         0.552556515
     0.117295980         0.059611220         0.259830087
     0.117295980         0.059611220         0.759830117
     0.117295980         0.559611201         0.259830087
     0.117295980         0.559611201         0.759830117
     0.617295980         0.059611220         0.259830087
     0.617295980         0.059611220         0.759830117
     0.617295980         0.559611201         0.759830117
     0.244557366         0.270350397         0.490748376
     0.244557366         0.270350397         0.990748405
     0.244557366         0.770350397         0.490748376
     0.244557366         0.770350397         0.990748405
     0.744557381         0.270350397         0.490748376
     0.744557381         0.270350397         0.990748405
     0.744557381         0.770350397         0.490748376
     0.744557381         0.770350397         0.990748405
     0.509048879         0.495430678         0.052556496
     0.509048879         0.995430708         0.052556496
     0.509048879         0.995430708         0.552556515
     0.009048879         0.495430678         0.052556496
     0.009048879         0.495430678         0.552556515
     0.009048879         0.995430708         0.052556496
     0.009048879         0.995430708         0.552556515
     0.391916215         0.133357957         0.410651088
     0.391916215         0.133357957         0.910651088
     0.391916215         0.633357942         0.410651088
     0.391916215         0.633357942         0.910651088
     0.891916215         0.133357957         0.410651088
     0.891916215         0.133357957         0.910651088
     0.891916215         0.633357942         0.410651088
     0.891916215         0.633357942         0.910651088
     0.010605249         0.173334539         0.145535156
     0.010605249         0.173334539         0.645535171
     0.010605249         0.673334539         0.145535156
     0.010605249         0.673334539         0.645535171
     0.510605276         0.173334539         0.145535156
     0.510605276         0.173334539         0.645535171
     0.510605276         0.673334539         0.145535156
     0.510605276         0.673334539         0.645535171
     0.485357046         0.335847586         0.351155013
     0.485357046         0.335847586         0.851155043
     0.485357046         0.835847616         0.351155013
     0.485357046         0.835847616         0.851155043
     0.985357046         0.335847586         0.351155013
     0.985357046         0.335847586         0.851155043
     0.985357046         0.835847616         0.351155013
     0.985357046         0.835847616         0.851155043
     0.280361384         0.422220945         0.156423062
     0.280361384         0.422220945         0.656423092
     0.280361384         0.922220945         0.156423062
     0.280361384         0.922220945         0.656423092
     0.780361414         0.422220945         0.156423062
     0.780361414         0.422220945         0.656423092
     0.780361414         0.922220945         0.156423062
     0.780361414         0.922220945         0.656423092
     0.225016043         0.079153262         0.345416993
     0.225016043         0.079153262         0.845417023
     0.225016043         0.579153240         0.345416993
     0.225016043         0.579153240         0.845417023
     0.725016057         0.079153262         0.345416993
     0.725016057         0.079153262         0.845417023
     0.725016057         0.579153240         0.345416993
     0.725016057         0.579153240         0.845417023
     0.134892657         0.033049405         0.097119458
     0.134892657         0.033049405         0.597119451
     0.134892657         0.533049405         0.097119458
     0.134892657         0.533049405         0.597119451
     0.634892642         0.033049405         0.097119458
     0.634892642         0.033049405         0.597119451
     0.634892642         0.533049405         0.097119458
     0.634892642         0.533049405         0.597119451
     0.124459773         0.228325546         0.262112141
     0.124459773         0.228325546         0.762112141
     0.124459773         0.728325546         0.262112141
     0.124459773         0.728325546         0.762112141
     0.624459743         0.228325546         0.262112141
     0.624459743         0.228325546         0.762112141
     0.624459743         0.728325546         0.262112141
     0.624459743         0.728325546         0.762112141
     0.132161543         0.383979410         0.398160338
     0.132161543         0.383979410         0.898160338
     0.132161543         0.883979440         0.398160338
     0.132161543         0.883979440         0.898160338
     0.632161558         0.383979410         0.398160338
     0.632161558         0.383979410         0.898160338
     0.632161558         0.883979440         0.398160338
     0.632161558         0.883979440         0.898160338
     0.364552647         0.123806216         0.098814271
     0.364552647         0.123806216         0.598814249
     0.364552647         0.623806238         0.098814271
     0.364552647         0.623806238         0.598814249
     0.864552617         0.123806216         0.098814271
     0.864552617         0.123806216         0.598814249
     0.864552617         0.623806238         0.098814271
     0.864552617         0.623806238         0.598814249
     0.363141477         0.264967918         0.250418872
     0.363141477         0.264967918         0.750418901
     0.363141477         0.764967918         0.250418872
     0.363141477         0.764967918         0.750418901
     0.863141477         0.264967918         0.250418872
     0.863141477         0.264967918         0.750418901
     0.863141477         0.764967918         0.250418872
     0.863141477         0.764967918         0.750418901
     0.374664515         0.476793975         0.398178488
     0.374664515         0.476793975         0.898178458
     0.374664515         0.976794004         0.398178488
     0.374664515         0.976794004         0.898178458
     0.874664545         0.476793975         0.398178488
     0.874664545         0.476793975         0.898178458
     0.874664545         0.976794004         0.398178488
     0.874664545         0.976794004         0.898178458
     0.042511582         0.454322904         0.183228672
     0.042511582         0.454322904         0.683228672
     0.042511582         0.954322934         0.183228672
     0.042511582         0.954322934         0.683228672
     0.542511582         0.454322904         0.183228672
     0.542511582         0.454322904         0.683228672
     0.542511582         0.954322934         0.183228672
     0.542511582         0.954322934         0.683228672
     0.158077970         0.061360508         0.488542855
     0.158077970         0.061360508         0.988542855
     0.158077970         0.561360478         0.488542855
     0.158077970         0.561360478         0.988542855
     0.658077955         0.061360508         0.488542855
     0.658077955         0.061360508         0.988542855
     0.658077955         0.561360478         0.488542855
     0.658077955         0.561360478         0.988542855
     0.125382483         0.117814600         0.102894358
     0.125382483         0.117814600         0.602894366
     0.125382483         0.617814600         0.102894358
     0.125382483         0.617814600         0.602894366
     0.625382483         0.117814600         0.102894358
     0.625382483         0.117814600         0.602894366
     0.625382483         0.617814600         0.102894358
     0.625382483         0.617814600         0.602894366
     0.146744937         0.222941339         0.169566438
     0.146744937         0.222941339         0.669566453
     0.146744937         0.722941339         0.169566438
     0.146744937         0.722941339         0.669566453
     0.646744967         0.222941339         0.169566438
     0.646744967         0.222941339         0.669566453
     0.646744967         0.722941339         0.169566438
     0.646744967         0.722941339         0.669566453
     0.028486677         0.235968456         0.323394835
     0.028486677         0.235968456         0.823394835
     0.028486677         0.735968471         0.323394835
     0.028486677         0.735968471         0.823394835
     0.528486669         0.235968456         0.323394835
     0.528486669         0.235968456         0.823394835
     0.528486669         0.735968471         0.323394835
     0.528486669         0.735968471         0.823394835
     0.059147228         0.386843145         0.379429489
     0.059147228         0.386843145         0.879429460
     0.059147228         0.886843145         0.379429489
     0.059147228         0.886843145         0.879429460
     0.559147239         0.386843145         0.379429489
     0.559147239         0.386843145         0.879429460
     0.559147239         0.886843145         0.379429489
     0.559147239         0.886843145         0.879429460
     0.208094686         0.507576346         0.113880284
     0.208094686         0.507576346         0.613880277
     0.208094686         0.007576346         0.113880284
     0.208094686         0.007576346         0.613880277
     0.708094716         0.507576346         0.113880284
     0.708094716         0.507576346         0.613880277
     0.708094716         0.007576346         0.113880284
     0.708094716         0.007576346         0.613880277
     0.116904058         0.128926754         0.347239077
     0.116904058         0.128926754         0.847239077
     0.116904058         0.628926754         0.347239077
     0.116904058         0.628926754         0.847239077
     0.616904080         0.128926754         0.347239077
     0.616904080         0.128926754         0.847239077
     0.616904080         0.628926754         0.347239077
     0.616904080         0.628926754         0.847239077
     0.193724945         0.307295740         0.223922029
     0.193724945         0.307295740         0.723922014
     0.193724945         0.807295740         0.223922029
     0.193724945         0.807295740         0.723922014
     0.693724930         0.307295740         0.223922029
     0.693724930         0.307295740         0.723922014
     0.693724930         0.807295740         0.223922029
     0.693724930         0.807295740         0.723922014
     0.114911050         0.295101196         0.496759951
     0.114911050         0.295101196         0.996759951
     0.114911050         0.795101166         0.496759951
     0.114911050         0.795101166         0.996759951
     0.614911079         0.295101196         0.496759951
     0.614911079         0.295101196         0.996759951
     0.614911079         0.795101166         0.496759951
     0.614911079         0.795101166         0.996759951
     0.129666701         0.463184088         0.415365487
     0.129666701         0.463184088         0.915365458
     0.129666701         0.963184118         0.415365487
     0.129666701         0.963184118         0.915365458
     0.629666686         0.463184088         0.415365487
     0.629666686         0.463184088         0.915365458
     0.629666686         0.963184118         0.415365487
     0.629666686         0.963184118         0.915365458
     0.225507766         0.405878603         0.298205703
     0.225507766         0.405878603         0.798205733
     0.225507766         0.905878603         0.298205703
     0.225507766         0.905878603         0.798205733
     0.725507736         0.405878603         0.298205703
     0.725507736         0.405878603         0.798205733
     0.725507736         0.905878603         0.298205703
     0.725507736         0.905878603         0.798205733
     0.271250129         0.092937768         0.204570100
     0.271250129         0.092937768         0.704570115
     0.271250129         0.592937768         0.204570100
     0.271250129         0.592937768         0.704570115
     0.771250129         0.092937768         0.204570100
     0.771250129         0.092937768         0.704570115
     0.771250129         0.592937768         0.204570100
     0.771250129         0.592937768         0.704570115
     0.376199573         0.044834919         0.079988301
     0.376199573         0.044834919         0.579988301
     0.376199573         0.544834912         0.079988301
     0.376199573         0.544834912         0.579988301
     0.876199603         0.044834919         0.079988301
     0.876199603         0.044834919         0.579988301
     0.876199603         0.544834912         0.079988301
     0.876199603         0.544834912         0.579988301
     0.365148783         0.203395680         0.004183931
     0.365148783         0.203395680         0.504183948
     0.365148783         0.703395665         0.004183931
     0.365148783         0.703395665         0.504183948
     0.865148783         0.203395680         0.004183931
     0.865148783         0.203395680         0.504183948
     0.865148783         0.703395665         0.004183931
     0.865148783         0.703395665         0.504183948
     0.302415669         0.204231739         0.254692316
     0.302415669         0.204231739         0.754692316
     0.302415669         0.704231739         0.254692316
     0.302415669         0.704231739         0.754692316
     0.802415669         0.204231739         0.254692316
     0.802415669         0.204231739         0.754692316
     0.802415669         0.704231739         0.254692316
     0.802415669         0.704231739         0.754692316
     0.381711215         0.367906034         0.167687431
     0.381711215         0.367906034         0.667687416
     0.381711215         0.867906034         0.167687431
     0.381711215         0.867906034         0.667687416
     0.881711245         0.367906034         0.167687431
     0.881711245         0.367906034         0.667687416
     0.881711245         0.867906034         0.167687431
     0.881711245         0.867906034         0.667687416
     0.307017952         0.015533626         0.377646118
     0.307017952         0.015533626         0.877646089
     0.307017952         0.515533626         0.377646118
     0.307017952         0.515533626         0.877646089
     0.807017922         0.015533626         0.377646118
     0.807017922         0.015533626         0.877646089
     0.807017922         0.515533626         0.377646118
     0.807017922         0.515533626         0.877646089
     0.445772827         0.146369845         0.094690897
     0.445772827         0.146369845         0.594690919
     0.445772827         0.646369815         0.094690897
     0.445772827         0.646369815         0.594690919
     0.945772827         0.146369845         0.094690897
     0.945772827         0.146369845         0.594690919
     0.945772827         0.646369815         0.094690897
     0.945772827         0.646369815         0.594690919
     0.452787727         0.242085084         0.216903120
     0.452787727         0.242085084         0.716903090
     0.452787727         0.742085099         0.216903120
     0.452787727         0.742085099         0.716903090
     0.952787757         0.242085084         0.216903120
     0.952787757         0.242085084         0.716903090
     0.952787757         0.742085099         0.216903120
     0.952787757         0.742085099         0.716903090
     0.319666952         0.241735488         0.363791108
     0.319666952         0.241735488         0.863791108
     0.319666952         0.741735458         0.363791108
     0.319666952         0.741735458         0.863791108
     0.819666982         0.241735488         0.363791108
     0.819666982         0.241735488         0.863791108
     0.819666982         0.741735458         0.363791108
     0.819666982         0.741735458         0.863791108
     0.374904513         0.387815386         0.404261321
     0.374904513         0.387815386         0.904261351
     0.374904513         0.887815356         0.404261321
     0.374904513         0.887815356         0.904261351
     0.874904513         0.387815386         0.404261321
     0.874904513         0.387815386         0.904261351
     0.874904513         0.887815356         0.404261321
     0.874904513         0.887815356         0.904261351
     0.353637636         0.462127179         0.001113860
     0.353637636         0.462127179         0.501113832
     0.353637636         0.962127209         0.001113860
     0.353637636         0.962127209         0.501113832
     0.853637636         0.462127179         0.001113860
     0.853637636         0.462127179         0.501113832
     0.853637636         0.962127209         0.001113860
     0.853637636         0.962127209         0.501113832
     0.469408065         0.054891501         0.306950897
     0.469408065         0.054891501         0.806950927
     0.469408065         0.554891527         0.306950897
     0.469408065         0.554891527         0.806950927
     0.969408035         0.054891501         0.306950897
     0.969408035         0.054891501         0.806950927
     0.969408035         0.554891527         0.306950897
     0.969408035         0.554891527         0.806950927
