Ca V  O 
1.0
        9.4185495377         0.0000000000         0.0000000000
        0.0000062710         9.4188680649         0.0000000000
        0.0000000000         0.0000000000        13.0181369781
   Ca    V    O
    7   20   48
Direct
     0.675274253         0.761896670         0.843940854
     0.324735552         0.238095745         0.156063735
     0.824731648         0.761878967         0.156056434
     0.824731648         0.261878967         0.343943596
     0.324735522         0.738095760         0.343936265
     0.175262704         0.738118589         0.656061590
     0.175262704         0.238118604         0.843938470
     0.250007093         0.488917619         0.999996781
     0.750009120         0.511140227         0.000013249
     0.977474034         0.251993179         0.108264692
     0.477469772         0.748020828         0.108263165
     0.977474034         0.751993179         0.391735286
     0.477469772         0.248020813         0.391736835
     0.750009120         0.011140200         0.499986738
     0.250007123         0.988917589         0.500003219
     0.022524247         0.248004541         0.608264983
     0.522530079         0.751975715         0.608261645
     0.522530019         0.251975715         0.891738355
     0.022524247         0.748004556         0.891735017
     0.629795730         0.099243544         0.147521600
     0.129862845         0.900796950         0.147557035
     0.129862845         0.400796890         0.352442980
     0.629795730         0.599243522         0.352478385
     0.370169103         0.400773406         0.647526264
     0.870160043         0.599191844         0.647587776
     0.870159984         0.099191882         0.852412224
     0.370169103         0.900773346         0.852473736
     0.545725584         0.176391959         0.042557888
     0.045693591         0.823565423         0.042500399
     0.350787044         0.579100728         0.087515026
     0.850822210         0.420912862         0.087524123
     0.148491696         0.364689022         0.068827450
     0.648498893         0.635284722         0.068816602
     0.130670682         0.087867722         0.139266476
     0.630699277         0.912139773         0.139272526
     0.804566026         0.151956365         0.177775264
     0.304590791         0.848048151         0.177771315
     0.020140767         0.838566542         0.245242864
     0.520173252         0.161413565         0.245227337
     0.020140648         0.338566571         0.254757136
     0.520173252         0.661413550         0.254772663
     0.804566026         0.651956379         0.322224706
     0.304590762         0.348048121         0.322228670
     0.630699217         0.412139803         0.360727459
     0.130670682         0.587867737         0.360733509
     0.648498893         0.135284752         0.431183398
     0.148491696         0.864689052         0.431172550
     0.350787073         0.079100721         0.412484974
     0.850822270         0.920912862         0.412475884
     0.545725584         0.676391959         0.457442135
     0.045693595         0.323565423         0.457499593
     0.454289883         0.323604107         0.542542815
     0.954314232         0.676439226         0.542493999
     0.149178103         0.079070218         0.587519884
     0.649193704         0.920890808         0.587533176
     0.851490080         0.135295123         0.568822563
     0.351507604         0.864705980         0.568819106
     0.869326651         0.412139148         0.639267921
     0.369305283         0.587854981         0.639271319
     0.195438132         0.348043531         0.677769542
     0.695402026         0.651961088         0.677772939
     0.479839623         0.338580757         0.745237768
     0.979847670         0.661430299         0.745226741
     0.979847670         0.161430299         0.754773259
     0.479839653         0.838580787         0.754762173
     0.695402026         0.151961118         0.822227001
     0.195438132         0.848043501         0.822230518
     0.369305313         0.087854974         0.860728681
     0.869326591         0.912139177         0.860732019
     0.351507574         0.364705980         0.931180835
     0.851490140         0.635295093         0.931177437
     0.649193704         0.420890868         0.912466824
     0.149178103         0.579070210         0.912480175
     0.954314232         0.176439241         0.957505941
     0.454289854         0.823604107         0.957457185
