Ca Cr P  O 
 1.0000000000000000
     8.7485284804999992    0.0000000000000000    0.0000000000000000
     0.0000065873000000    9.8939285278000000    0.0000000000000000
    -0.0000058994000000    2.4026902022000001    6.9821501365999996
 Ca  Cr  P   O  
   3   4   8  28
Selective dynamics
Cartesian
  2.7006131618758746  6.4010571632310667  4.9370875360112914   T   T   T
  7.4694231143942584  4.3052673676296864  1.6233079988402048   T   T   T
  7.5112845333348064  9.1865166705556103  1.5732225329625014   T   T   T
  6.5306589122302983  2.8983773429535113  5.3493750658996273   T   T   T
  6.5320037233320534  7.9289127622105973  5.4130239052642644   T   T   T
  2.3245955320810712  4.4531345328748957  1.6054987738536048   T   T   T
  2.3391846792198439  9.4508734394889231  1.6066035152852502   T   T   T
  0.4785691582714825  1.8091930541497194 -0.0067994633742134   T   T   T
  0.5256060504542623  6.7562482262923638 -0.0999948351236494   T   T   T
  4.9985623394929384  5.4032274293222056  7.0051622871624124   T   T   T
  4.8862511042385783 10.3976197867328679  7.0151777967566105   T   T   T
  8.4546824676161592  5.3084966022748015  4.2870382249061212   T   T   T
  8.4784819000291467 10.2219992857887778  4.2203146856710294   T   T   T
  4.2709614039186610  2.1410023030278538  2.8126388086749596   T   T   T
  4.3039481446021641  7.1642615120832200  2.8041245608637793   T   T   T
  0.7587414173265242  4.7624025936195968  5.4301785646394869   T   T   T
  0.7308818040497265  9.6167618807421640  5.3387162479381285   T   T   T
  5.3268776718485409  2.6810294305946760  1.5760221441601134   T   T   T
  5.3208868754241490  7.6543679064125749  1.6510592420521621   T   T   T
  0.4409503273581854  3.0514315213183201  0.8837204078239551   T   T   T
  0.5715746371315960  7.9821166633143541  0.8182806991284483   T   T   T
  5.1662643857252162  4.2035785208925818  6.0929787394686308   T   T   T
  5.0929622278320972  9.1269302650346784  6.2074622318010322   T   T   T
  3.1013076638790174  3.1108858997724802  2.8852039757471277   T   T   T
  3.0467811089741663  8.0590443173599180  2.9455884443289770   T   T   T
  7.2850384449015335  4.3090274291152255  4.0994570134312402   T   T   T
  7.2547868835832192  9.2495812272870843  4.0712162270356806   T   T   T
  5.2176008972270278  2.2166087254180571  4.0082889147394880   T   T   T
  5.0733795918565630  7.2219558618461397  4.1488143358298215   T   T   T
  0.5475629319954927  5.3057561765802941  3.0131537090579732   T   T   T
  0.4943446999072346 10.1345609371650980  2.8930967955946723   T   T   T
  3.8444744015865706  5.7313715989348593  2.5813093170566348   T   T   T
  3.8860389803679829 10.6294561242104528  2.3934430361496597   T   T   T
  8.0358735087769499  1.7167740318055282  4.6444661675354251   T   T   T
  8.0196349897577033  6.6971715033698436  4.7251347540492592   T   T   T
  3.5731227814621205  5.9597199166239045  6.9055571704184198   T   T   T
  3.4819095368762283 10.9217018247948872  7.0897438429283133   T   T   T
  7.8377241738543066  1.1091386245597026 -0.0808421805856955   T   T   T
  7.8402396781976460  6.1107379604717602 -0.0446850368648275   T   T   T
  6.0671978860309022  6.5124225617964937  6.7734621302871290   T   T   T
  6.0065005705474022 11.4456705168251549  6.7635570315208442   T   T   T
  1.6373236727406093  0.8829030632281040  0.2479205107575686   T   T   T
  1.6332651751173854  5.7247927247097676  0.0945761297485282   T   T   T
