Ca1 V4 O10
1.0
       13.3045825958         0.0000000000         0.0000000000
        2.8773108371        12.7505691027         0.0000000000
       -2.3725867787         0.0989215443        17.1328943599
   Ca    V    O
   11   48  120
Direct
     0.750000000         0.250000000         0.333333343
     0.250000000         0.250000000         0.000000000
     0.250000000         0.250000000         0.333333343
     0.250000000         0.250000000         0.666666687
     0.250000000         0.750000000         0.000000000
     0.250000000         0.750000000         0.333333343
     0.250000000         0.750000000         0.666666687
     0.750000000         0.250000000         0.000000000
     0.750000000         0.750000000         0.000000000
     0.750000000         0.750000000         0.333333343
     0.750000000         0.750000000         0.666666687
     0.101078004         0.354681998         0.187373340
     0.101078004         0.354681998         0.520706654
     0.101078004         0.354681998         0.854040027
     0.101078004         0.854681969         0.187373340
     0.101078004         0.854681969         0.520706654
     0.101078004         0.854681969         0.854040027
     0.601078033         0.354681998         0.187373340
     0.601078033         0.354681998         0.520706654
     0.601078033         0.354681998         0.854040027
     0.601078033         0.854681969         0.187373340
     0.601078033         0.854681969         0.520706654
     0.601078033         0.854681969         0.854040027
     0.398921996         0.145318002         0.145960003
     0.398921996         0.145318002         0.479293346
     0.398921996         0.145318002         0.812626660
     0.398921996         0.645318031         0.145960003
     0.398921996         0.645318031         0.479293346
     0.398921996         0.645318031         0.812626660
     0.898921967         0.145318002         0.145960003
     0.898921967         0.145318002         0.479293346
     0.898921967         0.145318002         0.812626660
     0.898921967         0.645318031         0.145960003
     0.898921967         0.645318031         0.479293346
     0.898921967         0.645318031         0.812626660
     0.328356504         0.404974490         0.135400340
     0.328356504         0.404974490         0.468733668
     0.328356504         0.404974490         0.802066982
     0.328356504         0.904974461         0.135400340
     0.328356504         0.904974461         0.468733668
     0.328356504         0.904974461         0.802066982
     0.828356504         0.404974490         0.135400340
     0.828356504         0.404974490         0.468733668
     0.828356504         0.404974490         0.802066982
     0.828356504         0.904974461         0.135400340
     0.828356504         0.904974461         0.468733668
     0.828356504         0.904974461         0.802066982
     0.171643496         0.095025502         0.197933003
     0.171643496         0.095025502         0.531266332
     0.171643496         0.095025502         0.864599645
     0.171643496         0.595025480         0.197933003
     0.171643496         0.595025480         0.531266332
     0.171643496         0.595025480         0.864599645
     0.671643496         0.095025502         0.197933003
     0.671643496         0.095025502         0.531266332
     0.671643496         0.095025502         0.864599645
     0.671643496         0.595025480         0.197933003
     0.671643496         0.595025480         0.531266332
     0.671643496         0.595025480         0.864599645
     0.471430510         0.400826991         0.145057991
     0.471430510         0.400826991         0.478391320
     0.471430510         0.400826991         0.811724663
     0.471430510         0.900826991         0.145057991
     0.471430510         0.900826991         0.478391320
     0.471430510         0.900826991         0.811724663
     0.971430540         0.400826991         0.145057991
     0.971430540         0.400826991         0.478391320
     0.971430540         0.400826991         0.811724663
     0.971430540         0.900826991         0.145057991
     0.971430540         0.900826991         0.478391320
     0.971430540         0.900826991         0.811724663
     0.028569501         0.099173002         0.188275337
     0.028569501         0.099173002         0.521608651
     0.028569501         0.099173002         0.854942024
     0.028569501         0.599173009         0.188275337
     0.028569501         0.599173009         0.521608651
     0.028569501         0.599173009         0.854942024
     0.528569520         0.099173002         0.188275337
     0.528569520         0.099173002         0.521608651
     0.528569520         0.099173002         0.854942024
     0.528569520         0.599173009         0.188275337
     0.528569520         0.599173009         0.521608651
     0.528569520         0.599173009         0.854942024
     0.190596506         0.442254007         0.173700333
     0.190596506         0.442254007         0.507033646
     0.190596506         0.442254007         0.840367019
     0.190596506         0.942254007         0.173700333
     0.190596506         0.942254007         0.507033646
     0.190596506         0.942254007         0.840367019
     0.690596521         0.442254007         0.173700333
     0.690596521         0.442254007         0.507033646
     0.690596521         0.442254007         0.840367019
     0.690596521         0.942254007         0.173700333
     0.690596521         0.942254007         0.507033646
     0.690596521         0.942254007         0.840367019
     0.309403509         0.057746001         0.159632996
     0.309403509         0.057746001         0.492966324
     0.309403509         0.057746001         0.826299667
     0.309403509         0.557745993         0.159632996
     0.309403509         0.557745993         0.492966324
     0.309403509         0.557745993         0.826299667
     0.809403539         0.057746001         0.159632996
     0.809403539         0.057746001         0.492966324
     0.809403539         0.057746001         0.826299667
     0.809403539         0.557745993         0.159632996
     0.809403539         0.557745993         0.492966324
     0.809403539         0.557745993         0.826299667
     0.108589500         0.338259995         0.281888336
     0.108589500         0.338259995         0.615221679
     0.108589500         0.338259995         0.948554993
     0.108589500         0.838259995         0.281888336
     0.108589500         0.838259995         0.615221679
     0.108589500         0.838259995         0.948554993
     0.608589530         0.338259995         0.281888336
     0.608589530         0.338259995         0.615221679
     0.608589530         0.338259995         0.948554993
     0.608589530         0.838259995         0.281888336
     0.608589530         0.838259995         0.615221679
     0.608589530         0.838259995         0.948554993
     0.391410500         0.161740005         0.051445004
     0.391410500         0.161740005         0.384778351
     0.391410500         0.161740005         0.718111694
     0.391410500         0.661740005         0.051445004
     0.391410500         0.661740005         0.384778351
     0.391410500         0.661740005         0.718111694
     0.891410470         0.161740005         0.051445004
     0.891410470         0.161740005         0.384778351
     0.891410470         0.161740005         0.718111694
     0.891410470         0.661740005         0.051445004
     0.891410470         0.661740005         0.384778351
     0.891410470         0.661740005         0.718111694
     0.295785487         0.384235501         0.042922001
     0.295785487         0.384235501         0.376255333
     0.295785487         0.384235501         0.709588647
     0.295785487         0.884235501         0.042922001
     0.295785487         0.884235501         0.376255333
     0.295785487         0.884235501         0.709588647
     0.795785487         0.384235501         0.042922001
     0.795785487         0.384235501         0.376255333
     0.795785487         0.384235501         0.709588647
     0.795785487         0.884235501         0.042922001
     0.795785487         0.884235501         0.376255333
     0.795785487         0.884235501         0.709588647
     0.204214498         0.115764499         0.290411323
     0.204214498         0.115764499         0.623744667
     0.204214498         0.115764499         0.957077980
     0.204214498         0.615764499         0.290411323
     0.204214498         0.615764499         0.623744667
     0.204214498         0.615764499         0.957077980
     0.704214513         0.115764499         0.290411323
     0.704214513         0.115764499         0.623744667
     0.704214513         0.115764499         0.957077980
     0.704214513         0.615764499         0.290411323
     0.704214513         0.615764499         0.623744667
     0.704214513         0.615764499         0.957077980
     0.146926001         0.228480995         0.149529338
     0.146926001         0.228480995         0.482862681
     0.146926001         0.228480995         0.816196024
     0.146926001         0.728480995         0.149529338
     0.146926001         0.728480995         0.482862681
     0.146926001         0.728480995         0.816196024
     0.646925986         0.228480995         0.149529338
     0.646925986         0.228480995         0.482862681
     0.646925986         0.228480995         0.816196024
     0.646925986         0.728480995         0.149529338
     0.646925986         0.728480995         0.482862681
     0.646925986         0.728480995         0.816196024
     0.353074014         0.271519005         0.183803990
     0.353074014         0.271519005         0.517137349
     0.353074014         0.271519005         0.850470662
     0.353074014         0.771519005         0.183803990
     0.353074014         0.771519005         0.517137349
     0.353074014         0.771519005         0.850470662
     0.853074014         0.271519005         0.183803990
     0.853074014         0.271519005         0.517137349
     0.853074014         0.271519005         0.850470662
     0.853074014         0.771519005         0.183803990
     0.853074014         0.771519005         0.517137349
     0.853074014         0.771519005         0.850470662
