Ca V  O 
1.0
       11.3120231628         0.0000000000         0.0000000000
       -3.7709298683        12.2979042726         0.0000000000
       -0.0000779436        -1.7940491556        10.8975861135
   Ca    V    O
   11   36   78
Direct
     0.348701328         0.546102524         0.167437851
     0.015368008         0.046102509         0.167437851
     0.015368008         0.546102524         0.167437851
     0.348701328         0.046102509         0.167437851
     0.682034671         0.046102509         0.167437851
     0.317970902         0.453913629         0.832554579
     0.317970902         0.953913629         0.832554579
     0.651304245         0.453913629         0.832554579
     0.651304245         0.953913629         0.832554579
     0.984637558         0.453913629         0.832554579
     0.984637558         0.953913629         0.832554579
     0.217421159         0.152267799         0.959233820
     0.217421159         0.652267814         0.959233820
     0.550754488         0.152267799         0.959233820
     0.550754488         0.652267814         0.959233820
     0.884087801         0.152267799         0.959233820
     0.884087801         0.652267814         0.959233820
     0.115910582         0.347727299         0.040787052
     0.115910582         0.847727299         0.040787052
     0.449243903         0.347727299         0.040787052
     0.449243903         0.847727299         0.040787052
     0.782577276         0.347727299         0.040787052
     0.782577276         0.847727299         0.040787052
     0.136285707         0.408854485         0.391750634
     0.136285707         0.908854485         0.391750634
     0.469619036         0.408854485         0.391750634
     0.469619036         0.908854485         0.391750634
     0.802952349         0.408854485         0.391750634
     0.802952349         0.908854485         0.391750634
     0.095829494         0.287489623         0.625392735
     0.095829494         0.787489653         0.625392735
     0.429162830         0.287489623         0.625392735
     0.429162830         0.787489653         0.625392735
     0.762496173         0.287489623         0.625392735
     0.762496173         0.787489653         0.625392735
     0.197042778         0.091130927         0.608243525
     0.197042778         0.591130912         0.608243525
     0.530376136         0.091130927         0.608243525
     0.530376136         0.591130912         0.608243525
     0.863709450         0.091130927         0.608243525
     0.863709450         0.591130912         0.608243525
     0.237509251         0.212526441         0.374574602
     0.237509251         0.712526441         0.374574602
     0.570842564         0.212526441         0.374574602
     0.570842564         0.712526441         0.374574602
     0.904175937         0.212526441         0.374574602
     0.904175937         0.712526441         0.374574602
     0.143385202         0.430142224         0.572933137
     0.143385202         0.930142224         0.572933137
     0.476718545         0.430142224         0.572933137
     0.476718545         0.930142224         0.572933137
     0.810051858         0.430142224         0.572933137
     0.810051858         0.930142224         0.572933137
     0.273979336         0.321941853         0.986432791
     0.273979336         0.821941853         0.986432791
     0.607312679         0.321941853         0.986432791
     0.607312679         0.821941853         0.986432791
     0.940645993         0.321941853         0.986432791
     0.940645993         0.821941853         0.986432791
     0.253690869         0.261071265         0.590545595
     0.253690869         0.761071265         0.590545595
     0.587024212         0.261071265         0.590545595
     0.587024212         0.761071265         0.590545595
     0.920357525         0.261071265         0.590545595
     0.920357525         0.761071265         0.590545595
     0.041968286         0.125907406         0.628829122
     0.041968286         0.625907421         0.628829122
     0.375301629         0.125907406         0.628829122
     0.375301629         0.625907421         0.628829122
     0.708634973         0.125907406         0.628829122
     0.708634973         0.625907421         0.628829122
     0.134079412         0.402237356         0.196358964
     0.134079412         0.902237356         0.196358964
     0.467412740         0.402237356         0.196358964
     0.467412740         0.902237356         0.196358964
     0.800746083         0.402237356         0.196358964
     0.800746083         0.902237356         0.196358964
     0.219215497         0.157641932         0.218658462
     0.219215497         0.657641947         0.218658462
     0.552548826         0.157641932         0.218658462
     0.552548826         0.657641947         0.218658462
     0.885882139         0.157641932         0.218658462
     0.885882139         0.657641947         0.218658462
     0.199252069         0.097757272         0.803645253
     0.199252069         0.597757280         0.803645253
     0.532585382         0.097757272         0.803645253
     0.532585382         0.597757280         0.803645253
     0.865918756         0.097757272         0.803645253
     0.865918756         0.597757280         0.803645253
     0.059354737         0.178059801         0.013559446
     0.059354737         0.678059816         0.013559446
     0.392688066         0.178059801         0.013559446
     0.392688066         0.678059816         0.013559446
     0.726021409         0.178059801         0.013559446
     0.726021409         0.678059816         0.013559446
     0.166665539         0.999996006         0.999995291
     0.166665539         0.499996006         0.999995291
     0.499998868         0.999996006         0.999995291
     0.499998868         0.499996006         0.999995291
     0.833332181         0.999996006         0.999995291
     0.833332181         0.499996006         0.999995291
     0.079640053         0.238921478         0.409472287
     0.079640053         0.738921463         0.409472287
     0.412973374         0.238921478         0.409472287
     0.412973374         0.738921463         0.409472287
     0.746306717         0.238921478         0.409472287
     0.746306717         0.738921463         0.409472287
     0.189947620         0.069856130         0.427063167
     0.189947620         0.569856107         0.427063167
     0.523280978         0.069856130         0.427063167
     0.523280978         0.569856107         0.427063167
     0.856614292         0.069856130         0.427063167
     0.856614292         0.569856107         0.427063167
     0.114118062         0.342358351         0.781349242
     0.114118062         0.842358351         0.781349242
     0.447451383         0.342358351         0.781349242
     0.447451383         0.842358351         0.781349242
     0.780784726         0.342358351         0.781349242
     0.780784726         0.842358351         0.781349242
     0.291365743         0.374094695         0.371182591
     0.291365743         0.874094725         0.371182591
     0.624699056         0.374094695         0.371182591
     0.624699056         0.874094725         0.371182591
     0.958032429         0.374094695         0.371182591
     0.958032429         0.874094725         0.371182591
