Ca3 Mn6 P6 O24
1.0
       13.5226755142         0.0000000000         0.0000000000
       -5.4296488106        16.2364976873         0.0000000000
       -5.6537910711        -2.3281114135        16.3254442167
   Ca   Mn    P    O
   23   48   48  192
Direct
     0.371862501         0.504835486         0.503304005
     0.371862501         0.004835500         0.003304000
     0.371862501         0.004835500         0.503304005
     0.371862501         0.504835486         0.003304000
     0.871862531         0.004835500         0.003304000
     0.871862531         0.004835500         0.503304005
     0.871862531         0.504835486         0.003304000
     0.871862531         0.504835486         0.503304005
     0.128137499         0.495164514         0.996695995
     0.128137499         0.995164514         0.496695995
     0.128137499         0.995164514         0.996695995
     0.628137469         0.495164514         0.496695995
     0.628137469         0.495164514         0.996695995
     0.628137469         0.995164514         0.496695995
     0.628137469         0.995164514         0.996695995
     0.000000000         0.250000000         0.250000000
     0.000000000         0.250000000         0.750000000
     0.000000000         0.750000000         0.250000000
     0.000000000         0.750000000         0.750000000
     0.500000000         0.250000000         0.250000000
     0.500000000         0.250000000         0.750000000
     0.500000000         0.750000000         0.250000000
     0.500000000         0.750000000         0.750000000
     0.179963499         0.468006015         0.309076995
     0.179963499         0.468006015         0.809077024
     0.179963499         0.968006015         0.309076995
     0.179963499         0.968006015         0.809077024
     0.679963470         0.468006015         0.309076995
     0.679963470         0.468006015         0.809077024
     0.679963470         0.968006015         0.309076995
     0.679963470         0.968006015         0.809077024
     0.370382488         0.359412491         0.141112000
     0.370382488         0.359412491         0.641111970
     0.370382488         0.859412491         0.141112000
     0.370382488         0.859412491         0.641111970
     0.870382488         0.359412491         0.141112000
     0.870382488         0.359412491         0.641111970
     0.870382488         0.859412491         0.141112000
     0.870382488         0.859412491         0.641111970
     0.430658996         0.309262991         0.470165014
     0.430658996         0.309262991         0.970165014
     0.430658996         0.809262991         0.470165014
     0.430658996         0.809262991         0.970165014
     0.930658996         0.309262991         0.470165014
     0.930658996         0.309262991         0.970165014
     0.930658996         0.809262991         0.470165014
     0.930658996         0.809262991         0.970165014
     0.069340996         0.190736994         0.029835001
     0.069340996         0.190736994         0.529834986
     0.069340996         0.690737009         0.029835001
     0.069340996         0.690737009         0.529834986
     0.569341004         0.190736994         0.029835001
     0.569341004         0.190736994         0.529834986
     0.569341004         0.690737009         0.029835001
     0.569341004         0.690737009         0.529834986
     0.129617497         0.140587494         0.358888000
     0.129617497         0.140587494         0.858888030
     0.129617497         0.640587509         0.358888000
     0.129617497         0.640587509         0.858888030
     0.629617512         0.140587494         0.358888000
     0.629617512         0.140587494         0.858888030
     0.629617512         0.640587509         0.358888000
     0.629617512         0.640587509         0.858888030
     0.320036501         0.031994000         0.190923005
     0.320036501         0.031994000         0.690922976
     0.320036501         0.531993985         0.190923005
     0.320036501         0.531993985         0.690922976
     0.820036530         0.031994000         0.190923005
     0.820036530         0.031994000         0.690922976
     0.820036530         0.531993985         0.190923005
     0.820036530         0.531993985         0.690922976
     0.187738001         0.330559492         0.441132009
     0.187738001         0.330559492         0.941132009
     0.187738001         0.830559492         0.441132009
     0.187738001         0.830559492         0.941132009
     0.687738001         0.330559492         0.441132009
     0.687738001         0.330559492         0.941132009
     0.687738001         0.830559492         0.441132009
     0.687738001         0.830559492         0.941132009
     0.377530992         0.149196997         0.355403513
     0.377530992         0.149196997         0.855403543
     0.377530992         0.649196982         0.355403513
     0.377530992         0.649196982         0.855403543
     0.877530992         0.149196997         0.355403513
     0.877530992         0.149196997         0.855403543
     0.877530992         0.649196982         0.355403513
     0.877530992         0.649196982         0.855403543
     0.442712992         0.437974006         0.332753003
     0.442712992         0.437974006         0.832753003
     0.442712992         0.937973976         0.332753003
     0.442712992         0.937973976         0.832753003
     0.942713022         0.437974006         0.332753003
     0.942713022         0.437974006         0.832753003
     0.942713022         0.937973976         0.332753003
     0.942713022         0.937973976         0.832753003
     0.057287000         0.062026002         0.167246997
     0.057287000         0.062026002         0.667246997
     0.057287000         0.562026024         0.167246997
     0.057287000         0.562026024         0.667246997
     0.557286978         0.062026002         0.167246997
     0.557286978         0.062026002         0.667246997
     0.557286978         0.562026024         0.167246997
     0.557286978         0.562026024         0.667246997
     0.122469008         0.350802988         0.144596502
     0.122469008         0.350802988         0.644596517
     0.122469008         0.850803018         0.144596502
     0.122469008         0.850803018         0.644596517
     0.622469008         0.350802988         0.144596502
     0.622469008         0.350802988         0.644596517
     0.622469008         0.850803018         0.144596502
     0.622469008         0.850803018         0.644596517
     0.312261999         0.169440493         0.058867998
     0.312261999         0.169440493         0.558867991
     0.312261999         0.669440508         0.058867998
     0.312261999         0.669440508         0.558867991
     0.812261999         0.169440493         0.058867998
     0.812261999         0.169440493         0.558867991
     0.812261999         0.669440508         0.058867998
     0.812261999         0.669440508         0.558867991
     0.198505506         0.421618998         0.424766988
     0.198505506         0.421618998         0.924767017
     0.198505506         0.921618998         0.424766988
     0.198505506         0.921618998         0.924767017
     0.698505521         0.421618998         0.424766988
     0.698505521         0.421618998         0.924767017
     0.698505521         0.921618998         0.424766988
     0.698505521         0.921618998         0.924767017
     0.480020523         0.131997004         0.416742504
     0.480020523         0.131997004         0.916742504
     0.480020523         0.631996989         0.416742504
     0.480020523         0.631996989         0.916742504
     0.980020523         0.131997004         0.416742504
     0.980020523         0.131997004         0.916742504
     0.980020523         0.631996989         0.416742504
     0.980020523         0.631996989         0.916742504
     0.097422004         0.298647493         0.482906014
     0.097422004         0.298647493         0.982905984
     0.097422004         0.798647523         0.482906014
     0.097422004         0.798647523         0.982905984
     0.597422004         0.298647493         0.482906014
     0.597422004         0.298647493         0.982905984
     0.597422004         0.798647523         0.482906014
     0.597422004         0.798647523         0.982905984
     0.387326986         0.139721006         0.270219505
     0.387326986         0.139721006         0.770219505
     0.387326986         0.639721036         0.270219505
     0.387326986         0.639721036         0.770219505
     0.887326956         0.139721006         0.270219505
     0.887326956         0.139721006         0.770219505
     0.887326956         0.639721036         0.270219505
     0.887326956         0.639721036         0.770219505
     0.348041505         0.229894504         0.136591002
     0.348041505         0.229894504         0.636591017
     0.348041505         0.729894519         0.136591002
     0.348041505         0.729894519         0.636591017
     0.848041534         0.229894504         0.136591002
     0.848041534         0.229894504         0.636591017
     0.848041534         0.729894519         0.136591002
     0.848041534         0.729894519         0.636591017
     0.302881986         0.337372005         0.004586500
     0.302881986         0.337372005         0.504586518
     0.302881986         0.837372005         0.004586500
     0.302881986         0.837372005         0.504586518
     0.802881956         0.337372005         0.004586500
     0.802881956         0.337372005         0.504586518
     0.802881956         0.837372005         0.004586500
     0.802881956         0.837372005         0.504586518
     0.443773001         0.492072999         0.154887006
     0.443773001         0.492072999         0.654887021
     0.443773001         0.992072999         0.154887006
     0.443773001         0.992072999         0.654887021
     0.943773031         0.492072999         0.154887006
     0.943773031         0.492072999         0.654887021
     0.943773031         0.992072999         0.154887006
     0.943773031         0.992072999         0.654887021
     0.424915999         0.365380496         0.271707505
     0.424915999         0.365380496         0.771707535
     0.424915999         0.865380526         0.271707505
     0.424915999         0.865380526         0.771707535
     0.924916029         0.365380496         0.271707505
     0.924916029         0.365380496         0.771707535
     0.924916029         0.865380526         0.271707505
     0.924916029         0.865380526         0.771707535
     0.375037998         0.238590002         0.367630988
     0.375037998         0.238590002         0.867630959
     0.375037998         0.738590002         0.367630988
     0.375037998         0.738590002         0.867630959
     0.875038028         0.238590002         0.367630988
     0.875038028         0.238590002         0.867630959
     0.875038028         0.738590002         0.367630988
     0.875038028         0.738590002         0.867630959
     0.153525501         0.025637500         0.196438506
     0.153525501         0.025637500         0.696438491
     0.153525501         0.525637507         0.196438506
     0.153525501         0.525637507         0.696438491
     0.653525472         0.025637500         0.196438506
     0.653525472         0.025637500         0.696438491
     0.653525472         0.525637507         0.196438506
     0.653525472         0.525637507         0.696438491
     0.268902510         0.089572497         0.364529490
     0.268902510         0.089572497         0.864529490
     0.268902510         0.589572489         0.364529490
     0.268902510         0.589572489         0.864529490
     0.768902540         0.089572497         0.364529490
     0.768902540         0.089572497         0.864529490
     0.768902540         0.589572489         0.364529490
     0.768902540         0.589572489         0.864529490
     0.455821991         0.415694505         0.422476500
     0.455821991         0.415694505         0.922476530
     0.455821991         0.915694475         0.422476500
     0.455821991         0.915694475         0.922476530
     0.955821991         0.415694505         0.422476500
     0.955821991         0.415694505         0.922476530
     0.955821991         0.915694475         0.422476500
     0.955821991         0.915694475         0.922476530
     0.044178002         0.084305502         0.077523500
     0.044178002         0.084305502         0.577523470
     0.044178002         0.584305525         0.077523500
     0.044178002         0.584305525         0.577523470
     0.544178009         0.084305502         0.077523500
     0.544178009         0.084305502         0.577523470
     0.544178009         0.584305525         0.077523500
     0.544178009         0.584305525         0.577523470
     0.231097490         0.410427511         0.135470495
     0.231097490         0.410427511         0.635470510
     0.231097490         0.910427511         0.135470495
     0.231097490         0.910427511         0.635470510
     0.731097460         0.410427511         0.135470495
     0.731097460         0.410427511         0.635470510
     0.731097460         0.910427511         0.135470495
     0.731097460         0.910427511         0.635470510
     0.346474499         0.474362493         0.303561509
     0.346474499         0.474362493         0.803561509
     0.346474499         0.974362493         0.303561509
     0.346474499         0.974362493         0.803561509
     0.846474528         0.474362493         0.303561509
     0.846474528         0.474362493         0.803561509
     0.846474528         0.974362493         0.303561509
     0.846474528         0.974362493         0.803561509
     0.124962002         0.261409998         0.132368997
     0.124962002         0.261409998         0.632368982
     0.124962002         0.761409998         0.132368997
     0.124962002         0.761409998         0.632368982
     0.624961972         0.261409998         0.132368997
     0.624961972         0.261409998         0.632368982
     0.624961972         0.761409998         0.132368997
     0.624961972         0.761409998         0.632368982
     0.075084001         0.134619504         0.228292495
     0.075084001         0.134619504         0.728292465
     0.075084001         0.634619474         0.228292495
     0.075084001         0.634619474         0.728292465
     0.575083971         0.134619504         0.228292495
     0.575083971         0.134619504         0.728292465
     0.575083971         0.634619474         0.228292495
     0.575083971         0.634619474         0.728292465
     0.056226999         0.007927000         0.345113009
     0.056226999         0.007927000         0.845113039
     0.056226999         0.507927001         0.345113009
     0.056226999         0.507927001         0.845113039
     0.556226969         0.007927000         0.345113009
     0.556226969         0.007927000         0.845113039
     0.556226969         0.507927001         0.345113009
     0.556226969         0.507927001         0.845113039
     0.197117999         0.162627995         0.495413512
     0.197117999         0.162627995         0.995413542
     0.197117999         0.662627995         0.495413512
     0.197117999         0.662627995         0.995413542
     0.697117984         0.162627995         0.495413512
     0.697117984         0.162627995         0.995413542
     0.697117984         0.662627995         0.495413512
     0.697117984         0.662627995         0.995413542
     0.151958495         0.270105511         0.363409013
     0.151958495         0.270105511         0.863409042
     0.151958495         0.770105481         0.363409013
     0.151958495         0.770105481         0.863409042
     0.651958466         0.270105511         0.363409013
     0.651958466         0.270105511         0.863409042
     0.651958466         0.770105481         0.363409013
     0.651958466         0.770105481         0.863409042
     0.112673000         0.360278994         0.229780495
     0.112673000         0.360278994         0.729780495
     0.112673000         0.860278964         0.229780495
     0.112673000         0.860278964         0.729780495
     0.612672985         0.360278994         0.229780495
     0.612672985         0.360278994         0.729780495
     0.612672985         0.860278964         0.229780495
     0.612672985         0.860278964         0.729780495
     0.402577996         0.201352507         0.017093999
     0.402577996         0.201352507         0.517094016
     0.402577996         0.701352477         0.017093999
     0.402577996         0.701352477         0.517094016
     0.902577996         0.201352507         0.017093999
     0.902577996         0.201352507         0.517094016
     0.902577996         0.701352477         0.017093999
     0.902577996         0.701352477         0.517094016
     0.019979499         0.368003011         0.083257496
     0.019979499         0.368003011         0.583257496
     0.019979499         0.868003011         0.083257496
     0.019979499         0.868003011         0.583257496
     0.519979477         0.368003011         0.083257496
     0.519979477         0.368003011         0.583257496
     0.519979477         0.868003011         0.083257496
     0.519979477         0.868003011         0.583257496
     0.301494509         0.078381002         0.075232998
     0.301494509         0.078381002         0.575232983
     0.301494509         0.578381002         0.075232998
     0.301494509         0.578381002         0.575232983
     0.801494479         0.078381002         0.075232998
     0.801494479         0.078381002         0.575232983
     0.801494479         0.578381002         0.075232998
     0.801494479         0.578381002         0.575232983
