Ca Mn V  P  O 
1.0
        8.5150070190         0.0000000000         0.0000000000
        0.0000000000         7.3972787857         0.0000000000
        0.0000000000         3.5136516593         9.4098369988
   Ca   Mn    V    P    O
    3    2    2    8   28
Direct
     0.593696773         0.740602911         0.504879057
     0.093696706         0.259397119         0.495120913
     0.095212035         0.264162391         0.003434539
     0.011491552         0.742845297         0.988980591
     0.511491418         0.257154644         0.011019439
     0.007391810         0.729870200         0.497555405
     0.507391930         0.270129770         0.502444625
     0.236583382         0.893825531         0.694892049
     0.306866318         0.496165782         0.692009568
     0.806866407         0.503833890         0.307991147
     0.228229389         0.895844221         0.199299529
     0.736583591         0.106173269         0.305109680
     0.307927996         0.498894781         0.194224939
     0.807928145         0.501105428         0.805774748
     0.728229225         0.104156390         0.800699651
     0.342736691         0.726432145         0.663420796
     0.080388747         0.914693594         0.611324608
     0.810912251         0.615665436         0.645797968
     0.150246114         0.480597228         0.620661914
     0.450261265         0.459416986         0.613283634
     0.704270661         0.165162340         0.641732454
     0.328375250         0.080234915         0.623535037
     0.828374863         0.919765711         0.376464576
     0.204270586         0.834837377         0.358268112
     0.950261116         0.540582955         0.386716247
     0.650246263         0.519402862         0.379337937
     0.310912251         0.384334415         0.354202211
     0.580389023         0.085306428         0.388675183
     0.842736661         0.273567885         0.336579114
     0.335715920         0.729066968         0.168659195
     0.076150700         0.921881199         0.110601857
     0.804709911         0.615858674         0.148788527
     0.149608165         0.476515472         0.129020199
     0.450096816         0.465407372         0.113365628
     0.719349205         0.164987251         0.145787165
     0.324199021         0.080623515         0.134175003
     0.824199140         0.919376254         0.865825117
     0.219349355         0.835013151         0.854211807
     0.950096726         0.534592569         0.886634409
     0.649608076         0.523484528         0.870979846
     0.304709882         0.384141564         0.851211011
     0.576150656         0.078118749         0.889398277
     0.835715950         0.270932972         0.831340909
