Ca Co P  O 
1.0
       10.6190996170         0.0000000000         0.0000000000
        2.4691449923        17.7767604467         0.0000000000
        2.7216709229        -1.8487096121         6.6829827644
   Ca   Co    P    O
    7    8   16   56
Direct
     0.328773648         0.230339691         0.235581979
     0.570947349         0.479799539         0.484939069
     0.070947349         0.479799539         0.484939069
     0.319647133         0.981214106         0.990906239
     0.819647133         0.981214106         0.990906239
     0.081411548         0.730882466         0.735456169
     0.581411541         0.730882466         0.735456169
     0.382177681         0.748664260         0.233881637
     0.882177711         0.748664260         0.233881637
     0.001791411         0.497430354         0.986142755
     0.501791418         0.497430354         0.986142755
     0.133872390         0.246825427         0.734401584
     0.633872390         0.246825427         0.734401584
     0.246752292         0.997822762         0.492969960
     0.746752262         0.997822762         0.492969960
     0.193778098         0.367870927         0.058980871
     0.693778098         0.367870927         0.058980871
     0.438820094         0.869024456         0.564280510
     0.938820124         0.869024456         0.564280510
     0.463678211         0.117033742         0.812532485
     0.963678241         0.117033742         0.812532485
     0.217764899         0.617379248         0.308591098
     0.717764914         0.617379248         0.308591098
     0.060033761         0.130202308         0.409207314
     0.560033739         0.130202308         0.409207314
     0.313767195         0.629497766         0.905063331
     0.813767195         0.629497766         0.905063331
     0.296984971         0.380091786         0.656173646
     0.796984971         0.380091786         0.656173646
     0.044250675         0.881665051         0.161996305
     0.544250667         0.881665051         0.161996305
     0.998174548         0.194750682         0.891230881
     0.498174548         0.194750682         0.891230881
     0.245651186         0.697009981         0.389323980
     0.745651186         0.697009981         0.389323980
     0.088010952         0.447664708         0.141754642
     0.588010967         0.447664708         0.141754642
     0.334604830         0.949428618         0.648322940
     0.834604859         0.949428618         0.648322940
     0.166491896         0.050616968         0.330933392
     0.666491866         0.050616968         0.330933392
     0.419588208         0.549632847         0.824590564
     0.919588208         0.549632847         0.824590564
     0.272437423         0.299537361         0.573875964
     0.772437453         0.299537361         0.573875964
     0.521986306         0.800859690         0.075598560
     0.021986306         0.800859690         0.075598560
     0.319686055         0.375732481         0.860377669
     0.819686055         0.375732481         0.860377669
     0.065988734         0.876566827         0.366376638
     0.565988719         0.876566827         0.366376638
     0.435477197         0.126393214         0.615829647
     0.935477197         0.126393214         0.615829647
     0.189271271         0.625086963         0.110844821
     0.689271271         0.625086963         0.110844821
     0.137185082         0.298890889         0.991345346
     0.637185097         0.298890889         0.991345346
     0.380283117         0.801337540         0.494423121
     0.880283117         0.801337540         0.494423121
     0.080420315         0.044400670         0.746490538
     0.580420315         0.044400670         0.746490538
     0.339900196         0.547663033         0.241861984
     0.839900196         0.547663033         0.241861984
     0.130374879         0.195881367         0.469392955
     0.630374908         0.195881367         0.469392955
     0.384484649         0.694711685         0.966849923
     0.884484649         0.694711685         0.966849923
     0.162086770         0.443914056         0.719740510
     0.662086785         0.443914056         0.719740510
     0.408531755         0.944840372         0.226163462
     0.908531785         0.944840372         0.226163462
     0.252714634         0.357604474         0.212817371
     0.752714634         0.357604474         0.212817371
     0.997283101         0.857198417         0.717684448
     0.497283101         0.857198417         0.717684448
     0.329287589         0.110825852         0.971781194
     0.829287589         0.110825852         0.971781194
     0.085358687         0.608369946         0.466048211
     0.585358679         0.608369946         0.466048211
     0.425703853         0.397378117         0.518395782
     0.925703883         0.397378117         0.518395782
     0.172574759         0.900005281         0.026301397
     0.672574759         0.900005281         0.026301397
     0.491070718         0.144995302         0.272659987
     0.991070747         0.144995302         0.272659987
     0.245026380         0.645446837         0.768964112
     0.745026350         0.645446837         0.768964112
