Ca Zr V  F 
1.0
       17.6166782379         0.0000000000         0.0000000000
        5.1666914041        16.8419907396         0.0000000000
        5.6813097009         4.1997568639        14.4217637900
   Ca   Zr    V    F
   17   36   18  198
Direct
     0.333333343         0.333333343         0.500000000
     0.000000000         0.000000000         0.000000000
     0.000000000         0.000000000         0.500000000
     0.000000000         0.333333343         0.000000000
     0.000000000         0.333333343         0.500000000
     0.000000000         0.666666687         0.000000000
     0.000000000         0.666666687         0.500000000
     0.333333343         0.000000000         0.000000000
     0.333333343         0.000000000         0.500000000
     0.333333343         0.333333343         0.000000000
     0.333333343         0.666666687         0.000000000
     0.333333343         0.666666687         0.500000000
     0.666666687         0.000000000         0.000000000
     0.666666687         0.000000000         0.500000000
     0.666666687         0.333333343         0.000000000
     0.666666687         0.666666687         0.000000000
     0.666666687         0.666666687         0.500000000
     0.168918923         0.168919638         0.380474418
     0.168918923         0.168919638         0.880474448
     0.168918923         0.502252996         0.380474418
     0.168918923         0.502252996         0.880474448
     0.168918923         0.835586309         0.380474418
     0.168918923         0.835586309         0.880474448
     0.502252281         0.168919638         0.380474418
     0.502252281         0.168919638         0.880474448
     0.502252281         0.502252996         0.380474418
     0.502252281         0.502252996         0.880474448
     0.502252281         0.835586309         0.380474418
     0.502252281         0.835586309         0.880474448
     0.835585594         0.168919638         0.380474418
     0.835585594         0.168919638         0.880474448
     0.835585594         0.502252996         0.380474418
     0.835585594         0.502252996         0.880474448
     0.835585594         0.835586309         0.380474418
     0.835585594         0.835586309         0.880474448
     0.164414093         0.164413780         0.119525649
     0.164414093         0.164413780         0.619525671
     0.164414093         0.497747123         0.119525649
     0.164414093         0.497747123         0.619525671
     0.164414093         0.831080437         0.119525649
     0.164414093         0.831080437         0.619525671
     0.497747421         0.164413780         0.119525649
     0.497747421         0.164413780         0.619525671
     0.497747421         0.497747123         0.119525649
     0.497747421         0.497747123         0.619525671
     0.497747421         0.831080437         0.119525649
     0.497747421         0.831080437         0.619525671
     0.831080735         0.164413780         0.119525649
     0.831080735         0.164413780         0.619525671
     0.831080735         0.497747123         0.119525649
     0.831080735         0.497747123         0.619525671
     0.831080735         0.831080437         0.119525649
     0.831080735         0.831080437         0.619525671
     0.000000000         0.000000000         0.250000000
     0.000000000         0.000000000         0.750000000
     0.000000000         0.333333343         0.250000000
     0.000000000         0.333333343         0.750000000
     0.000000000         0.666666687         0.250000000
     0.000000000         0.666666687         0.750000000
     0.333333343         0.000000000         0.250000000
     0.333333343         0.000000000         0.750000000
     0.333333343         0.333333343         0.250000000
     0.333333343         0.333333343         0.750000000
     0.333333343         0.666666687         0.250000000
     0.333333343         0.666666687         0.750000000
     0.666666687         0.000000000         0.250000000
     0.666666687         0.000000000         0.750000000
     0.666666687         0.333333343         0.250000000
     0.666666687         0.333333343         0.750000000
     0.666666687         0.666666687         0.250000000
     0.666666687         0.666666687         0.750000000
     0.072703294         0.266884148         0.351830691
     0.072703294         0.266884148         0.851830721
     0.072703294         0.600217462         0.351830691
     0.072703294         0.600217462         0.851830721
     0.072703294         0.933550835         0.351830691
     0.072703294         0.933550835         0.851830721
     0.406036615         0.266884148         0.351830691
     0.406036615         0.266884148         0.851830721
     0.406036615         0.600217462         0.351830691
     0.406036615         0.600217462         0.851830721
     0.406036615         0.933550835         0.351830691
     0.406036615         0.933550835         0.851830721
     0.739369988         0.266884148         0.351830691
     0.739369988         0.266884148         0.851830721
     0.739369988         0.600217462         0.351830691
     0.739369988         0.600217462         0.851830721
     0.739369988         0.933550835         0.351830691
     0.739369988         0.933550835         0.851830721
     0.066449046         0.260630339         0.148169354
     0.066449046         0.260630339         0.648169339
     0.066449046         0.593963683         0.148169354
     0.066449046         0.593963683         0.648169339
     0.066449046         0.927296996         0.148169354
     0.066449046         0.927296996         0.648169339
     0.399782389         0.260630339         0.148169354
     0.399782389         0.260630339         0.648169339
     0.399782389         0.593963683         0.148169354
     0.399782389         0.593963683         0.648169339
     0.399782389         0.927296996         0.148169354
     0.399782389         0.927296996         0.648169339
     0.733115733         0.260630339         0.148169354
     0.733115733         0.260630339         0.648169339
     0.733115733         0.593963683         0.148169354
     0.733115733         0.593963683         0.648169339
     0.733115733         0.927296996         0.148169354
     0.733115733         0.927296996         0.648169339
     0.260630161         0.066449173         0.148169294
     0.260630161         0.066449173         0.648169279
     0.260630161         0.399782509         0.148169294
     0.260630161         0.399782509         0.648169279
     0.260630161         0.733115852         0.148169294
     0.260630161         0.733115852         0.648169279
     0.593963504         0.066449173         0.148169294
     0.593963504         0.066449173         0.648169279
     0.593963504         0.399782509         0.148169294
     0.593963504         0.399782509         0.648169279
     0.593963504         0.733115852         0.148169294
     0.593963504         0.733115852         0.648169279
     0.927296817         0.066449173         0.148169294
     0.927296817         0.066449173         0.648169279
     0.927296817         0.399782509         0.148169294
     0.927296817         0.399782509         0.648169279
     0.927296817         0.733115852         0.148169294
     0.927296817         0.733115852         0.648169279
     0.266884387         0.072702922         0.351830602
     0.266884387         0.072702922         0.851830602
     0.266884387         0.406036258         0.351830602
     0.266884387         0.406036258         0.851830602
     0.266884387         0.739369571         0.351830602
     0.266884387         0.739369571         0.851830602
     0.600217700         0.072702922         0.351830602
     0.600217700         0.072702922         0.851830602
     0.600217700         0.406036258         0.351830602
     0.600217700         0.406036258         0.851830602
     0.600217700         0.739369571         0.351830602
     0.600217700         0.739369571         0.851830602
     0.933551073         0.072702922         0.351830602
     0.933551073         0.072702922         0.851830602
     0.933551073         0.406036258         0.351830602
     0.933551073         0.406036258         0.851830602
     0.933551073         0.739369571         0.351830602
     0.933551073         0.739369571         0.851830602
     0.166666672         0.166666657         0.250000030
     0.166666672         0.166666657         0.750000000
     0.166666672         0.500000000         0.250000030
     0.166666672         0.500000000         0.750000000
     0.166666672         0.833333313         0.250000030
     0.166666672         0.833333313         0.750000000
     0.500000000         0.166666657         0.250000030
     0.500000000         0.166666657         0.750000000
     0.500000000         0.500000000         0.250000030
     0.500000000         0.500000000         0.750000000
     0.500000000         0.833333313         0.250000030
     0.500000000         0.833333313         0.750000000
     0.833333313         0.166666657         0.250000030
     0.833333313         0.166666657         0.750000000
     0.833333313         0.500000000         0.250000030
     0.833333313         0.500000000         0.750000000
     0.833333313         0.833333313         0.250000030
     0.833333313         0.833333313         0.750000000
     0.222590223         0.110743128         0.000000000
     0.222590223         0.110743128         0.500000000
     0.222590223         0.444076449         0.000000000
     0.222590223         0.444076449         0.500000000
     0.222590223         0.777409792         0.000000000
     0.222590223         0.777409792         0.500000000
     0.555923581         0.110743128         0.000000000
     0.555923581         0.110743128         0.500000000
     0.555923581         0.444076449         0.000000000
     0.555923581         0.444076449         0.500000000
     0.555923581         0.777409792         0.000000000
     0.555923581         0.777409792         0.500000000
     0.889256895         0.110743128         0.000000000
     0.889256895         0.110743128         0.500000000
     0.889256895         0.444076449         0.000000000
     0.889256895         0.444076449         0.500000000
     0.889256895         0.777409792         0.000000000
     0.889256895         0.777409792         0.500000000
     0.110743195         0.222590148         0.000000000
     0.110743195         0.222590148         0.500000000
     0.110743195         0.555923462         0.000000000
     0.110743195         0.555923462         0.500000000
     0.110743195         0.889256835         0.000000000
     0.110743195         0.889256835         0.500000000
     0.444076538         0.222590148         0.000000000
     0.444076538         0.222590148         0.500000000
     0.444076538         0.555923462         0.000000000
     0.444076538         0.555923462         0.500000000
     0.444076538         0.889256835         0.000000000
     0.444076538         0.889256835         0.500000000
     0.777409852         0.222590148         0.000000000
     0.777409852         0.222590148         0.500000000
     0.777409852         0.555923462         0.000000000
     0.777409852         0.555923462         0.500000000
     0.777409852         0.889256835         0.000000000
     0.777409852         0.889256835         0.500000000
     0.085751034         0.085751057         0.171120599
     0.085751034         0.085751057         0.671120584
     0.085751034         0.419084400         0.171120599
     0.085751034         0.419084400         0.671120584
     0.085751034         0.752417743         0.171120599
     0.085751034         0.752417743         0.671120584
     0.419084370         0.085751057         0.171120599
     0.419084370         0.085751057         0.671120584
     0.419084370         0.419084400         0.171120599
     0.419084370         0.419084400         0.671120584
     0.419084370         0.752417743         0.171120599
     0.419084370         0.752417743         0.671120584
     0.752417684         0.085751057         0.171120599
     0.752417684         0.085751057         0.671120584
     0.752417684         0.419084400         0.171120599
     0.752417684         0.419084400         0.671120584
     0.752417684         0.752417743         0.171120599
     0.752417684         0.752417743         0.671120584
     0.247582436         0.247582316         0.328879386
     0.247582436         0.247582316         0.828879356
     0.247582436         0.580915630         0.328879386
     0.247582436         0.580915630         0.828879356
     0.247582436         0.914249003         0.328879386
     0.247582436         0.914249003         0.828879356
     0.580915749         0.247582316         0.328879386
     0.580915749         0.247582316         0.828879356
     0.580915749         0.580915630         0.328879386
     0.580915749         0.580915630         0.828879356
     0.580915749         0.914249003         0.328879386
     0.580915749         0.914249003         0.828879356
     0.914249122         0.247582316         0.328879386
     0.914249122         0.247582316         0.828879356
     0.914249122         0.580915630         0.328879386
     0.914249122         0.580915630         0.828879356
     0.914249122         0.914249003         0.328879386
     0.914249122         0.914249003         0.828879356
     0.087373085         0.087373108         0.448780417
     0.087373085         0.087373108         0.948780417
     0.087373085         0.420706451         0.448780417
     0.087373085         0.420706451         0.948780417
     0.087373085         0.754039764         0.448780417
     0.087373085         0.754039764         0.948780417
     0.420706421         0.087373108         0.448780417
     0.420706421         0.087373108         0.948780417
     0.420706421         0.420706451         0.448780417
     0.420706421         0.420706451         0.948780417
     0.420706421         0.754039764         0.448780417
     0.420706421         0.754039764         0.948780417
     0.754039764         0.087373108         0.448780417
     0.754039764         0.087373108         0.948780417
     0.754039764         0.420706451         0.448780417
     0.754039764         0.420706451         0.948780417
     0.754039764         0.754039764         0.448780417
     0.754039764         0.754039764         0.948780417
     0.245960310         0.245960295         0.051219519
     0.245960310         0.245960295         0.551219523
     0.245960310         0.579293609         0.051219519
     0.245960310         0.579293609         0.551219523
     0.245960310         0.912626982         0.051219519
     0.245960310         0.912626982         0.551219523
     0.579293668         0.245960295         0.051219519
     0.579293668         0.245960295         0.551219523
     0.579293668         0.579293609         0.051219519
     0.579293668         0.579293609         0.551219523
     0.579293668         0.912626982         0.051219519
     0.579293668         0.912626982         0.551219523
     0.912626982         0.245960295         0.051219519
     0.912626982         0.245960295         0.551219523
     0.912626982         0.579293609         0.051219519
     0.912626982         0.579293609         0.551219523
     0.912626982         0.912626982         0.051219519
     0.912626982         0.912626982         0.551219523
