Mn V  P  O 
 1.0000000000000000
     4.8571119999999999    0.0208110000000000    0.0286000000000000
     0.1640390000000000    8.1473809999999993    0.0085250000000000
     0.3946810000000000   -0.3569800000000000   13.3682569999999998
 Mn  V   P   O  
   2   2   8  28
Cartesian
  0.9827583732093558 -0.1886535547758408  8.4867842440719272
  3.2137744461798983  0.0000798149457978  1.8170914522601669
  2.1351142476992808  3.8112444614200278 11.5309945350185004
  4.3662485052785938  4.0001216357060843  4.8613121436448603
  0.7896389247308310  1.3951618052733961  3.3888772007582775
  3.4156394342869780  1.2270880898369578 10.0870573708799469
  1.0547384988211004  6.2856373987252345  0.7021372568840093
  3.6809628273431065  6.1177178347763466  7.4004021860217390
  1.8327922487858754  2.0973052899021516  6.0091104223253229
  4.4587104082693116  1.9289982739866294 12.7072620210628404
  1.9493792431334021  5.5467979860738588  3.3338708273334015
  4.5754111575398664  5.3787275343115040 10.0319892693083421
  3.2183071161755459  2.6087324769465150  5.5658824296299692
  0.9870568090351923  2.4195935326426188 12.2353458970811406
  3.7216090748093156  5.2500822582381863  6.1181338665382965
  1.4905008792680219  5.0608578911242752 12.7882079786234542
  4.5694138064256444  0.3833296406880841  3.1559479138978808
  2.3383720736467293  0.1943366998643359  9.8255985705799898
  0.1801063814193094  2.8351026896679739  3.4987620764038345
  2.8060670430557049  2.6669803527250315 10.1969292734123602
  0.6577680763737657  5.3303307720923243  4.1717278690450730
  3.2837280351802076  5.1621979076622555 10.8697041082302075
  0.8407267563453078  3.3211746038754506  5.9852711023293725
  3.4665847023175589  3.1529122149404252 12.6833498734380008
  1.2882744236734041  1.0775935791496134  4.8932923087625282
  3.9140812224188180  0.9093004176514831 11.5914860376898794
  1.5720206994180561  5.2162541318720779  1.8076615480902547
  4.1983324875242944  5.0481372380884419  8.5057347201226357
  2.0091136689971623  7.4715385891061654  0.6053235642644434
  4.6354411742475179  7.3035275396964483  7.3034313203426429
  1.9897886158511298  1.4311836040728654  2.4641866385414328
  4.6158360718472684  1.2631907199688763  9.1624023869577194
  2.4956061366485955  6.9309700951803306  3.4370093502083003
  5.1216851435885058  6.7628766748736728 10.1351405197984192
  2.9581364385633897  4.4252585047024837  3.6831771515852743
  0.7270267549242242  4.2364272818570994 10.3529678927858431
  4.0899870925971991  1.5542623464482830  0.6309058201877138
  1.8590129816253151  1.3654938134963790  7.3009608346817334
  4.4801369510577134  6.6766691684897665  1.0597237866940015
  2.2493545242614319  6.4879819427153507  7.7296732480161916
