Mn2 V2 P8 O28
1.0
   4.8571119999999999    0.0208110000000000    0.0286000000000000
   0.1640390000000000    8.1473809999999993    0.0085250000000000
   0.3946810000000000   -0.3569800000000000   13.3682569999999998
Mn V P O
2 2 8 28
direct
   0.1512359999999990    0.0065070000000000    0.6334310000000000 Mn
   0.6514019999999990    0.0064560000000000    0.1333680000000000 Mn
   0.3444069999999990    0.4946029999999990    0.8600760000000000 V
   0.8445319999999999    0.4945119999999991    0.3599850000000000 V
   0.1435730000000000    0.1776770000000000    0.2591990000000000 P
   0.6433900000000000    0.1777270000000000    0.7592840000000000 P
   0.1785530000000000    0.7803180000000000    0.0471220000000000 P
   0.6783500000000000    0.7801920000000000    0.5471680000000000 P
   0.3289149999999990    0.2853030000000000    0.4553790000000000 P
   0.8290290000000000    0.2854710000000000    0.9554410000000000 P
   0.3578560000000000    0.6800970000000000    0.2432359999999990 P
   0.8577480000000000    0.6800200000000001    0.7432869999999990 P
   0.6231970000000000    0.3353720000000000    0.4218389999999990 O
   0.1234420000000000    0.3355550000000000    0.9219910000000000 O
   0.6963790000000000    0.6856479999999990    0.4460639999999990 O
   0.1961360000000000    0.6856909999999991    0.9460459999999991 O
   0.9354089999999990    0.0420800000000000    0.2426279999999990 O
   0.4352270000000000    0.0420790000000000    0.7427279999999991 O
   0.0079400000000000    0.3503890000000000    0.2579510000000000 O
   0.5078290000000000    0.3504629999999990    0.7580900000000000 O
   0.0784680000000000    0.6741809999999990    0.3028360000000000 O
   0.5783320000000000    0.6741980000000000    0.8028830000000000 O
   0.1340569999999990    0.4374719999999990    0.4497469999999990 O
   0.6342240000000000    0.4376290000000000    0.9498150000000000 O
   0.2362890000000000    0.1496870000000000    0.3726200000000000 O
   0.7367170000000000    0.1498030000000000    0.8726410000000000 O
   0.2880850000000000    0.6511260000000000    0.1269660000000000 O
   0.7879910000000000    0.6510150000000000    0.6270100000000001 O
   0.3641140000000000    0.9292279999999991    0.0418600000000000 O
   0.8638400000000001    0.9291020000000000    0.5419269999999990 O
   0.3991429999999990    0.1722250000000000    0.1901159999999990 O
   0.8989170000000000    0.1723279999999990    0.6901919999999990 O
   0.4910660000000000    0.8458370000000000    0.2546170000000000 O
   0.9909829999999999    0.8457450000000000    0.7546870000000000 O
   0.5509229999999991    0.5364590000000000    0.2671460000000000 O
   0.0506770000000000    0.5363960000000000    0.7672340000000000 O
   0.8273340000000000    0.1980009999999990    0.0520109999999990 O
   0.3272470000000000    0.1978810000000000    0.5519790000000000 O
   0.8785440000000000    0.8265549999999990    0.0753520000000000 O
   0.3783970000000000    0.8265530000000000    0.5754670000000000 O
