Ca Mn V  P  O 
1.0
       10.0654821396         0.0000000000         0.0000000000
        0.0061110305         8.4971396406         0.0000000000
       -0.2544129441        -0.0055538501        13.8774287223
   Ca   Mn    V    P    O
    7    2    6   16   56
Direct
     0.068295255         0.591157496         0.368571907
     0.182556152         0.095050804         0.132889703
     0.682556152         0.095050804         0.132889703
     0.314788997         0.595762968         0.868726432
     0.814788997         0.595762968         0.868726432
     0.432424217         0.095192261         0.630699098
     0.932424188         0.095192261         0.630699098
     0.074885502         0.010046412         0.370793015
     0.574885488         0.010046412         0.370793015
     0.176710442         0.507618368         0.133373335
     0.676710427         0.507618368         0.133373335
     0.323035419         0.007179295         0.865953505
     0.823035419         0.007179295         0.865953505
     0.428466499         0.507966518         0.635856509
     0.928466499         0.507966518         0.635856509
     0.068118967         0.809374690         0.750187039
     0.568118989         0.809374690         0.750187039
     0.081482902         0.231188759         0.947030365
     0.581482887         0.231188759         0.947030365
     0.170171440         0.729469776         0.554149032
     0.670171440         0.729469776         0.554149032
     0.182152212         0.307724535         0.749904394
     0.682152212         0.307724535         0.749904394
     0.318348944         0.806399882         0.250436813
     0.818348944         0.806399882         0.250436813
     0.330657095         0.237489358         0.446621180
     0.830657125         0.237489358         0.446621180
     0.418762684         0.730322003         0.052474387
     0.918762684         0.730322003         0.052474387
     0.431294978         0.308935523         0.247665614
     0.931294978         0.308935523         0.247665614
     0.002041667         0.150518954         0.236932024
     0.502041638         0.150518954         0.236932024
     0.019588189         0.451285720         0.228988931
     0.519588172         0.451285720         0.228988931
     0.050456297         0.308241487         0.693056941
     0.550456285         0.308241487         0.693056941
     0.087622754         0.576947927         0.543067634
     0.587622762         0.576947927         0.543067634
     0.062546097         0.705226064         0.082197644
     0.562546074         0.705226064         0.082197644
     0.097629838         0.841550767         0.635754049
     0.597629845         0.841550767         0.635754049
     0.098897979         0.326253235         0.039854683
     0.598897994         0.326253235         0.039854683
     0.153216660         0.340588093         0.864554048
     0.653216660         0.340588093         0.864554048
     0.151608512         0.821290135         0.460111558
     0.651608527         0.821290135         0.460111558
     0.164883301         0.079309858         0.960158885
     0.664883316         0.079309858         0.960158885
     0.186923489         0.220326930         0.414503545
     0.686923504         0.220326930         0.414503545
     0.199605197         0.810852587         0.807261407
     0.699605227         0.810852587         0.807261407
     0.230100602         0.949264944         0.268821597
     0.730100632         0.949264944         0.268821597
     0.254523814         0.149684116         0.740464091
     0.754523814         0.149684116         0.740464091
     0.243133321         0.649564922         0.257495344
     0.743133307         0.649564922         0.257495344
     0.271210223         0.449413806         0.731744051
     0.771210194         0.449413806         0.731744051
     0.297817320         0.311066151         0.193135470
     0.797817349         0.311066151         0.193135470
     0.312906832         0.708025753         0.587295353
     0.812906861         0.708025753         0.587295353
     0.335175842         0.578279912         0.040218249
     0.835175872         0.578279912         0.040218249
     0.352775007         0.330580682         0.539702892
     0.852774978         0.330580682         0.539702892
     0.349795938         0.839763880         0.135679603
     0.849795938         0.839763880         0.135679603
     0.399400860         0.824442863         0.959403574
     0.899400830         0.824442863         0.959403574
     0.405509353         0.342161864         0.363164812
     0.905509353         0.342161864         0.363164812
     0.438799769         0.206516951         0.914573491
     0.938799739         0.206516951         0.914573491
     0.408321500         0.081289560         0.459439129
     0.908321500         0.081289560         0.459439129
     0.448257208         0.803728282         0.308644444
     0.948257208         0.803728282         0.308644444
     0.478438556         0.950820684         0.768058717
     0.978438556         0.950820684         0.768058717
     0.496661305         0.650967002         0.760383546
     0.996661305         0.650967002         0.760383546
