Ca V  O                                 
   1.00000000000000     
    10.9655885695999995    0.0000000000000000    0.0000000000000000
    -1.8643554801000000   14.2891268287000006    0.0000000000000000
    -1.8525292359000001    0.1709672118000000    8.2915385771000008
   Ca   V    O 
    19    28    56
Direct
  0.7078680902244300  0.3119413281871877  0.6599918529810882
  0.0278689707044169  0.3213703939839070  0.6470312632538721
  0.0345850452778820  0.8256496109334135  0.6516030799601583
  0.5365038694684201  0.8259384133591565  0.6542586621602919
  0.2648271326667097  0.2571072404972436  0.5142476755825176
  0.2502564906520893  0.7515718126370778  0.4995880827659838
  0.7494171370897800  0.7478958870347256  0.4955285000545693
  0.4880343933328022  0.1827893806842903  0.3672869874039200
  0.4615508151359919  0.6745070702754628  0.3431383160517976
  0.9517844929340001  0.1743358579533940  0.3618394644384123
  0.9666514864959106  0.6752874057904538  0.3399828854555379
  0.3944440217651922  0.0378248427743566  0.0841376840198163
  0.3875955602816181  0.5334845654093333  0.0632251967783515
  0.8972741967058449  0.0299666736689659  0.0774421266094071
  0.8834165460783483  0.5315273615266924  0.0582825321593650
  0.1037690671427450  0.4655057703987728  0.9270415424217551
  0.1113717722903497  0.9668210460844100  0.9324751357767888
  0.5920321761310668  0.4576657414610463  0.9022916835670668
  0.6063235685543539  0.9644699934494708  0.9381014386781558
  0.4278985179400264  0.1038915125410710  0.7195736331190757
  0.4183597135789300  0.6020047944915325  0.7039193783953073
  0.9191939556705669  0.1021586227476339  0.7189624360260960
  0.9177731923897572  0.6020753874508006  0.7023082281097318
  0.0715121611347585  0.3986955922896735  0.2882600440268940
  0.0773153132861745  0.8968632972486845  0.2887620448910452
  0.5699080886745453  0.3921015888439177  0.2670072286670840
  0.5807178633864877  0.8972147668356389  0.2941517811061149
  0.2773655018321031  0.3166059679774863  0.1402014938529066
  0.2913371769931432  0.8206013619620509  0.1429536539736561
  0.7815155939886973  0.3142179443081903  0.1341452032395228
  0.7839622436962879  0.8135063281855733  0.1325658386678450
  0.1462372491722774  0.0352983858380816  0.5697880347778477
  0.1461311928765322  0.5344895812571201  0.5658025879830317
  0.6562531739980384  0.0394263421941338  0.5811070127925450
  0.6473161392455392  0.5395460868985112  0.5568367051572403
  1.0010152699650707  0.2492688237354686  0.0085901648077244
  1.0055508146113694  0.7478183258189470  0.9945780573561752
  0.4918575765546209  0.2530256817920222  0.9939086992240532
  0.4902833903508367  0.7507621286749743  0.9995509759252980
  0.3590837598449619  0.4649064512358493  0.4303181296729147
  0.3598310251365258  0.9709605435812585  0.4428516591056518
  0.8585959303156970  0.4599918430234399  0.4109821655242542
  0.8495919412923865  0.9594844438520078  0.4311630243357718
  0.2157355766064322  0.1825806588494619  0.8707564972615756
  0.2064984334006993  0.6815793857583328  0.8556841083376626
  0.7134063369004241  0.1724853396450772  0.8853163905613093
  0.7109228891729310  0.6819511386857283  0.8596954726740105
  0.3731851582645089  0.2262309014387894  0.7767552577247377
  0.3699904759163479  0.7317440921143189  0.7618766166316557
  0.8759174600378081  0.2352143663878344  0.7805865385834936
  0.8757125799873670  0.7322389268434341  0.7603669579487561
  0.0903126031536928  0.1710583332884380  0.6244127325976165
  0.0855996021231376  0.6706322166762474  0.6120897891988013
  0.5955882390748232  0.1646649426289207  0.6398960961728331
  0.5862770058700688  0.6733786666115077  0.6159578121770612
  0.4059397925095070  0.3325755218872537  0.3612731217647552
  0.4142751586453660  0.8323451737672715  0.3872472332457020
  0.9099670299753853  0.3314032929809199  0.3708984495733504
  0.9105626877363681  0.8257197030044721  0.3766714948724576
  0.3149109236252717  0.1004765887789604  0.4938534668729803
  0.3046630947495552  0.5963561057481914  0.4774651955473910
  0.8096049038031018  0.0869551791308702  0.4923912254295909
  0.8127235452950808  0.5966750032690419  0.4721072540312374
  0.1191772024118417  0.2693991850306630  0.2447956059844909
  0.1291704046719705  0.7692256680793085  0.2350888390550390
  0.6180849235025889  0.2680570911626273  0.2170445542058527
  0.6197762257162137  0.7658986093745500  0.2334231855987924
  0.4911363364633505  0.4851934017596578  0.6415692010889334
  0.4947017030484073  0.9799987099965006  0.6682176641119169
  0.9853603914421821  0.4756109787129790  0.6493562900824628
  0.9887199271736508  0.9782793159531711  0.6584633968569903
  0.4413506793310757  0.3826574873394672  0.0465385613894676
  0.4554718548778487  0.8850890987378931  0.0719586070013675
  0.9519430331999330  0.3817889766822035  0.0615430183130474
  0.9581855080363914  0.8799467846318979  0.0644812984603155
  0.1929042217576300  0.4050937105421225  0.5147717544913842
  0.1932687580325736  0.9045013402644166  0.5158728321705521
  0.6947712557218031  0.4212993224266604  0.4747124252651356
  0.6931607072312083  0.9012515690222349  0.5215105351921266
  0.0071375620689483  0.0186496476375382  0.3451827664417459
  0.0152445943890075  0.5247211983040723  0.3316742068645255
  0.5191059032849803  0.0250262214442733  0.3563709177157758
  0.5092540189996415  0.5224539411192326  0.3279654743327672
  0.3451591213177664  0.1927242822461506  0.0957195512211933
  0.3358237286029445  0.6891001698724361  0.0828697769055199
  0.8465461349563235  0.1858904494007108  0.0966505407713560
  0.8464224844011720  0.6890401776074713  0.0772766264337758
  0.1504864993318534  0.3097660184078857  0.9146245502128930
  0.1604364789666531  0.8117571328437523  0.9142409026019023
  0.6560997617732022  0.3043561692360195  0.9102962591329131
  0.6496762193969354  0.8073784056895676  0.9169119274242671
  0.0457886001216165  0.1176089163799666  0.9399614500444547
  0.0408926726701850  0.6153714418700423  0.9267488285343388
  0.5446034773306526  0.1153200578278867  0.9465025220185250
  0.5372014449916249  0.6162533765865353  0.9262630411381758
  0.2315656037998573  0.4456853603797712  0.1912476822787953
  0.2426092306501792  0.9485266533741952  0.2022831575038181
  0.7337110958122437  0.4417918297937171  0.1715905693110318
  0.7383760818354994  0.9422807422221682  0.1942623761926338
  0.2625804883935126  0.0547935147234162  0.8120701539132251
  0.2558574379923593  0.5526435834632499  0.7987756216675180
  0.7660945517614883  0.0504162673463360  0.8202725666996157
  0.7579779019149796  0.5514240773212187  0.7964426611203541
 
             NaN             NaN             NaN
             NaN             NaN             NaN
             NaN             NaN             NaN
             NaN             NaN             NaN
             NaN             NaN             NaN
             NaN             NaN             NaN
             NaN             NaN             NaN
             NaN             NaN             NaN
             NaN             NaN             NaN
             NaN             NaN             NaN
             NaN             NaN             NaN
             NaN             NaN             NaN
             NaN             NaN             NaN
             NaN             NaN             NaN
             NaN             NaN             NaN
             NaN             NaN             NaN
             NaN             NaN             NaN
             NaN             NaN             NaN
             NaN             NaN             NaN
             NaN             NaN             NaN
             NaN             NaN             NaN
             NaN             NaN             NaN
             NaN             NaN             NaN
             NaN             NaN             NaN
             NaN             NaN             NaN
             NaN             NaN             NaN
             NaN             NaN             NaN
             NaN             NaN             NaN
             NaN             NaN             NaN
             NaN             NaN             NaN
             NaN             NaN             NaN
             NaN             NaN             NaN
             NaN             NaN             NaN
             NaN             NaN             NaN
             NaN             NaN             NaN
             NaN             NaN             NaN
             NaN             NaN             NaN
             NaN             NaN             NaN
             NaN             NaN             NaN
             NaN             NaN             NaN
             NaN             NaN             NaN
             NaN             NaN             NaN
             NaN             NaN             NaN
             NaN             NaN             NaN
             NaN             NaN             NaN
             NaN             NaN             NaN
             NaN             NaN             NaN
             NaN             NaN             NaN
             NaN             NaN             NaN
             NaN             NaN             NaN
             NaN             NaN             NaN
             NaN             NaN             NaN
             NaN             NaN             NaN
             NaN             NaN             NaN
             NaN             NaN             NaN
             NaN             NaN             NaN
             NaN             NaN             NaN
             NaN             NaN             NaN
             NaN             NaN             NaN
             NaN             NaN             NaN
             NaN             NaN             NaN
             NaN             NaN             NaN
             NaN             NaN             NaN
             NaN             NaN             NaN
             NaN             NaN             NaN
             NaN             NaN             NaN
             NaN             NaN             NaN
             NaN             NaN             NaN
             NaN             NaN             NaN
             NaN             NaN             NaN
             NaN             NaN             NaN
             NaN             NaN             NaN
             NaN             NaN             NaN
             NaN             NaN             NaN
             NaN             NaN             NaN
             NaN             NaN             NaN
             NaN             NaN             NaN
             NaN             NaN             NaN
             NaN             NaN             NaN
             NaN             NaN             NaN
             NaN             NaN             NaN
             NaN             NaN             NaN
             NaN             NaN             NaN
             NaN             NaN             NaN
             NaN             NaN             NaN
             NaN             NaN             NaN
             NaN             NaN             NaN
             NaN             NaN             NaN
             NaN             NaN             NaN
             NaN             NaN             NaN
             NaN             NaN             NaN
             NaN             NaN             NaN
             NaN             NaN             NaN
             NaN             NaN             NaN
             NaN             NaN             NaN
             NaN             NaN             NaN
             NaN             NaN             NaN
             NaN             NaN             NaN
             NaN             NaN             NaN
             NaN             NaN             NaN
             NaN             NaN             NaN
             NaN             NaN             NaN
             NaN             NaN             NaN
