Ca V  O 
 1.0000000000000000
    10.9655885695999995    0.0000000000000000    0.0000000000000000
    -1.8643554801000000   14.2891268287000006    0.0000000000000000
    -1.8525292359000001    0.1709672118000000    8.2915385771000008
 Ca  V   O  
  19  28  56
Cartesian
  5.8969607450689345  4.5395388174187561  5.4921370680093711
 -1.4984457128551425  4.7325894791927769  5.3719910704453024
 -2.3271212705591826 11.9327776976371478  5.4190559515469614
  3.1556167199653062 11.9250060044301449  5.4183792514512605
  1.4923115136813838  3.7492205792818232  4.2489104230649923
  0.4114867393906930 10.8134873087645325  4.1360720640251323
  5.9052538475330971 10.8138290240075747  4.1254889760439397
  4.3070640474957838  2.6523420300386884  3.0039251414699697
  3.1415443849910738  9.6842862937660144  2.8387696650478578
  9.3910615603364658  2.5783775152911881  2.9960789448837213
  8.6731669344580915  9.6821661389679807  2.8309654162179267
  4.0642790096934442  0.5450636484949255  0.6309181062015112
  3.1834171603298964  7.6432065491917296  0.4910611997524188
  9.6015169933168849  0.4723015094052423  0.6516725762834338
  8.5889137922675918  7.6168071911264601  0.4666094761425657
 -1.3965644747033183  6.8033951099281653  7.7062849105624984
 -2.3342678880454981 13.9559191893372478  7.7470202470837561
  4.0025544943675087  6.6600267869512360  7.4867410259886640
  3.1286435806944621 13.9109641917279756  7.7920478803153914
  3.1749486888293892  1.6400100042605350  5.9630293913201706
  2.2273176644364487  8.7840562327117642  5.8692932919929541
  8.6089948269829151  1.6169978580615427  5.9603716864158569
  7.7162727102045814  8.7591821904762419  5.8773989610349098
 -0.4582904001490015  5.6742154792520632  2.3602416148947678
 -1.3998322999001314 12.8403133324715331  2.3870833215089129
  5.0080079929621224  5.7010293246251038  2.2613370034104592
  4.0714507902035271 12.8357349334557469  2.3861225635886987
  2.2716490885171807  4.5624852396724060  1.1661098387005522
  1.3331715965934627 11.7266350608505316  1.1718478235833683
  7.7151625150830441  4.5751447922853457  1.1815502568077147
  6.8211069989374753 11.6966012876346035  1.1680548168048883
  0.4710899806249113  0.6551788881451831  4.7395801954922270
 -0.4566775379219140  7.7521635737726839  4.6933539846538004
  5.9714424793560612  0.6278708361984063  4.7835504954039756
  4.9861340207260607  7.7916189189040184  4.6313748417180678
 -0.4930140887033731  3.5601169638738495  0.0456502781754297
 -1.4010932151397435 10.6996886678575311 -0.0156027484749354
  5.0002011821122148  3.5632984899773663 -0.0562078538425011
  4.0845541193854666 10.7000667717944697 -0.0119221062075544
  2.2625286002283111  6.6851239524927966  3.5289191787484824
  1.2972140140639794 13.8819443590802880  3.5943900868076408
  7.7393301469666476  6.7125885508978573  3.4619892597558590
  6.7807428874545677 13.8205252316373830  3.6075455765162410
  0.3999114621103597  2.7287573855398892  7.1490431318169776
 -0.5167423602216913  9.8763631024802390  7.0968493644385262
  5.8809608771921544  2.5805874175433527  7.2618351123069909
  4.9684337638192293  9.8539735989379622  7.0914676962592873
  2.2864734842604033  3.4159325254410953  6.4054458576519284
  1.3850255194409942 10.6436953882490055  6.2807511946731562
  7.7395644605008895  3.5029848723177559  6.3986594123109057
  6.8785639875143714 10.6220578372975076  6.2699502221557939
 -0.5180752387449158  2.6062970767636915  5.1233885985366996
 -1.4358489693344452  9.7376774290465509  5.0726465253085493
  5.0298915164763089  2.4624773384003720  5.2034323000023717
  4.0630229597001870  9.7395988623173402  5.0456807697660953
  3.2292358956468155  4.7692923607318285  3.0875926355579106
  2.2574954031131211 11.8868067556081058  3.2013305721036356
  8.6581274891441726  4.8321670342988075  3.1403904637745974
  7.7608862798978100 11.8599650985952696  3.2024969388457332
  2.3651489912207957  1.5372242277771135  4.1306460502360229
  1.3927153038878008  8.6563071217928869  4.0245287295471011
  7.7699871540124770  1.3841359886525859  4.1796732006590709
  6.8732007174943428  8.6483922277201675  4.0081078778659407
  0.3580371595166647  3.8474874586570960  2.0200924845616717
 -0.5438425279064890 10.9520748150638720  1.9884931198567533
  5.8251220016541954  3.8870123432458250  1.8308355830680811
  4.9191677691266236 10.9465696325199691  1.9866182577685678
  3.2745725490385489  7.0304030128477315  5.3640600807842986
  2.3258295514312666 14.0878564752322575  5.5311566066627176
  8.6411655806082486  6.9064168910700818  5.4624227236640559
  7.7812291829499012 14.0843434977387751  5.5573942924030986
  4.1232290608367856  5.5132700027485573  0.4151415316069759
  3.2142644655967367 12.6536854123986657  0.5344042967004201
  9.6246470428291708  5.4869837269622312  0.4981265368576119
  8.7156693731764872 12.6435325155613150  0.5313924182489873
  0.3862658568684966  5.8092423614796100  4.1861477209914364
 -0.5510515762789761 12.9871963464802480  4.2355443354452325
  5.9156871864770251  6.0814618999891854  4.0308720541730567
  4.9096905155404347 12.9606728398715276  4.2500688808829619
 -0.5483627828376262  0.4038508919934707  2.8242649072474850
 -1.4853289635941131  7.5048810827879064  2.7185754166226492
  4.9776215806161801  0.4038842824493042  2.8302795339502009
  4.0152106172519355  7.5527853771626070  2.7034568062188291
  3.3098908248341496  2.7441018020365986  0.7713564580727854
  2.3514783737926690  9.8584940637379113  0.7041196919711357
  8.7543911032647426  2.7018222635929532  0.8288533205418229
  7.8490204051947172  9.8314676277987267  0.7093632247949400
 -0.6464186474016372  4.5734673482438497  7.5621870116592662
 -1.5263349715157681 11.7413588866121401  7.5578151294383904
  4.9433651986716063  4.5449923537726109  7.5451890503905252
  3.9427682253511658 11.7245127260309836  7.5575312363864446
 -1.4845382853780333  1.7984870197770848  7.7973642069730600
 -2.4068213445172342  8.9263564380334373  7.7417327332990231
  3.9783695079206862  1.7417383471993553  7.8319782737039718
  3.0788769187036555  8.9133959300622525  7.7132838629784901
  1.3842633383273610  6.4570177207046129  1.5518048767956425
  0.4351961803255509 13.6254181537288996  1.6045013428947381
  6.8741481890671068  6.4539513774915980  1.4609860028519026
  5.9268769732805291 13.6024636442262654  1.6048817783716292
  1.3037731530586441  0.8364829608223012  6.7400779937229247
  0.3790944574828323  7.9818844866346979  6.6859424171364630
  6.8089989194161529  0.7542578738283511  6.7740664916988154
  5.8457099816731191  7.9086632474662757  6.5939587004259979
