Ca Mn V  P  O 
1.0
       10.0578603745         0.0000000000         0.0000000000
       -2.4007749382        10.9716108729         0.0000000000
       -2.3924196340        -2.1945859184        10.7511921803
   Ca   Mn    V    P    O
    7    2    6   16   56
Direct
     0.115484543         0.320246994         0.415482014
     0.117122628         0.821524084         0.915434361
     0.617122650         0.821524084         0.915434361
     0.381123453         0.333370358         0.931539595
     0.881123424         0.333370358         0.931539595
     0.385383278         0.836787820         0.423751235
     0.885383248         0.836787820         0.423751235
     0.388903886         0.121256642         0.135966569
     0.888903856         0.121256642         0.135966569
     0.110005058         0.113151126         0.620143473
     0.610005081         0.113151126         0.620143473
     0.110458419         0.610328317         0.118769921
     0.610458434         0.610328317         0.118769921
     0.390768766         0.632601023         0.635752976
     0.890768766         0.632601023         0.635752976
     0.194244847         0.846477211         0.652418554
     0.694244862         0.846477211         0.652418554
     0.108600534         0.438543350         0.667922139
     0.608600557         0.438543350         0.667922139
     0.106020831         0.932759941         0.172468737
     0.606020808         0.932759941         0.172468737
     0.307812959         0.597007036         0.903248727
     0.807812929         0.597007036         0.903248727
     0.192659542         0.345322818         0.154851273
     0.692659557         0.345322818         0.154851273
     0.393589020         0.082371876         0.812037349
     0.893589020         0.082371876         0.812037349
     0.392257690         0.581144214         0.311894536
     0.892257690         0.581144214         0.311894536
     0.306179464         0.096941888         0.407109171
     0.806179464         0.096941888         0.407109171
     0.096636735         0.757257342         0.705785334
     0.596636713         0.757257342         0.705785334
     0.116194591         0.917365551         0.566291571
     0.616194606         0.917365551         0.566291571
     0.205182120         0.653970361         0.961054146
     0.705182135         0.653970361         0.961054146
     0.022711556         0.064052306         0.770772517
     0.522711575         0.064052306         0.770772517
     0.018762160         0.560634494         0.267388850
     0.518762171         0.560634494         0.267388850
     0.079400256         0.298036695         0.623190105
     0.579400241         0.298036695         0.623190105
     0.082791455         0.793574035         0.125859484
     0.582791448         0.793574035         0.125859484
     0.282025665         0.944153547         0.783626974
     0.782025695         0.944153547         0.783626974
     0.220812008         0.466117263         0.805701613
     0.720812023         0.466117263         0.805701613
     0.223163426         0.964451611         0.308201045
     0.723163426         0.964451611         0.308201045
     0.186506569         0.500666857         0.579191983
     0.686506569         0.500666857         0.579191983
     0.296464205         0.789803684         0.593834400
     0.796464205         0.789803684         0.593834400
     0.094249234         0.255565673         0.206896797
     0.594249249         0.255565673         0.206896797
     0.114909157         0.415618837         0.067101195
     0.614909172         0.415618837         0.067101195
     0.384618312         0.685101509         0.833119154
     0.884618282         0.685101509         0.833119154
     0.406106800         0.544322371         0.992373109
     0.906106830         0.544322371         0.992373109
     0.199367851         0.150559917         0.461552441
     0.699367881         0.150559917         0.461552441
     0.316548288         0.170386598         0.747890472
     0.816548288         0.170386598         0.747890472
     0.314562529         0.668436229         0.246980309
     0.814562559         0.668436229         0.246980309
     0.279776454         0.444021255         0.286165655
     0.779776454         0.444021255         0.286165655
     0.419227093         0.127748281         0.952321351
     0.919227123         0.127748281         0.952321351
     0.422001541         0.629820466         0.451620549
     0.922001541         0.629820466         0.451620549
     0.176246881         0.999135375         0.081792049
     0.676246881         0.999135375         0.081792049
     0.481967539         0.483558565         0.686723113
     0.981967568         0.483558565         0.686723113
     0.477689922         0.971973419         0.196968243
     0.977689922         0.971973419         0.196968243
     0.294951946         0.288544744         0.097489253
     0.794951916         0.288544744         0.097489253
     0.382750064         0.186026901         0.338293135
     0.882750034         0.186026901         0.338293135
     0.403759122         0.044844534         0.497438580
     0.903759122         0.044844534         0.497438580
