Ca Mn V  P  O 
1.0
        7.4249615669         0.0000000000         0.0000000000
       -0.0064081040         8.5039820369         0.0000000000
       -3.5771014368         0.0084613020         9.4098387201
   Ca   Mn    V    P    O
    3    1    3    8   28
Direct
     0.262947172         0.407314390         0.248263001
     0.737715423         0.905528665         0.749341607
     0.734176219         0.903760910         0.253343612
     0.256876916         0.989880145         0.238266438
     0.268776536         0.992620826         0.744644761
     0.731126070         0.492494494         0.754624546
     0.731138229         0.492232203         0.256174684
     0.106733456         0.764031529         0.943978667
     0.501433909         0.691040218         0.942906380
     0.498603076         0.193220735         0.556913078
     0.104879133         0.767094970         0.446272254
     0.893999696         0.268217832         0.554947615
     0.502250135         0.692321301         0.444727719
     0.501012743         0.191379845         0.056500256
     0.893788874         0.272075176         0.053623345
     0.271770865         0.655635118         0.911984622
     0.084355183         0.919301987         0.859075189
     0.385771900         0.190872550         0.896539330
     0.518791258         0.849031985         0.874820113
     0.540546656         0.549322009         0.864342213
     0.831026912         0.295288861         0.894752800
     0.918864548         0.673125446         0.875617504
     0.079986565         0.174104363         0.620761514
     0.169543192         0.791975617         0.605043054
     0.462016582         0.050533649         0.636220515
     0.483150512         0.349860489         0.627937376
     0.613587379         0.689938068         0.605199456
     0.918339312         0.420381725         0.644068778
     0.728011072         0.158781633         0.584398687
     0.272049159         0.660955608         0.415293306
     0.075313218         0.918805540         0.356141090
     0.383816272         0.195304289         0.397759229
     0.524015665         0.850474834         0.379163086
     0.537938058         0.550248027         0.364873976
     0.831716537         0.292397261         0.396113276
     0.921402097         0.669545531         0.383025199
     0.081866227         0.180065215         0.119006068
     0.170580849         0.782061160         0.103479750
     0.464381933         0.049763858         0.136501372
     0.482944071         0.349495053         0.124238759
     0.612814069         0.691189587         0.103174433
     0.916372776         0.423663378         0.142876253
     0.730275512         0.160187364         0.083228514
