Ca Ti O 
 1.0000000000000000
    12.4370679855000006    0.0000000000000000    0.0000000000000000
    -1.0659715856000000   13.9755822961000007    0.0000000000000000
    -0.5859648079000001   -2.0967458091000002   10.1808118850000007
 Ca  Ti  O  
  11  48  96
Selective dynamics
Cartesian
  8.1889979563023569  9.9752611693321462  4.7436488473077487   T   T   T
 -0.0627080742376976  2.8708967911153236  0.6925224674691369   T   T   T
 -0.6074005642098160  9.8321966441434014  0.7204884534515819   T   T   T
  6.1513912657046177  2.8002633924410980  0.6885957284757337   T   T   T
  5.6249448244103872  9.8531151609561096  0.6303895286998846   T   T   T
  3.9149822953655620  2.5375495160776063  7.1311220773783166   T   T   T
  3.3370310128016043  9.5019175148203914  7.1569868956077904   T   T   T
 10.1334034029165672  2.5350337619636125  7.1445624819233426   T   T   T
  2.1727429463972152  3.1303248064897353  4.1429639268437812   T   T   T
  1.7067891152969719 10.1010109714872911  4.2609078436990773   T   T   T
  8.3685163208632307  3.0095450604635721  4.1092281172391969   T   T   T
 -0.9461081225794457  4.6533716423006783 10.1279474223878747   T   T   T
 -1.5709727927709132 11.6907202926723333 10.2152944693610337   T   T   T
  5.2269285394025271  4.7008898972714519 10.1085725488386444   T   T   T
  4.7453231661473607 11.6404845499843841 10.0906274968794865   T   T   T
  0.3613309832308513 13.4496585266053401  2.5595176384670486   T   T   T
  0.8817963869483807  6.4757979130312560  2.5964583576063016   T   T   T
  6.6193490431491258 13.4391613241123480  2.5167232197916936   T   T   T
  7.1043028628713154  6.4744570423738166  2.5618752861860110   T   T   T
  4.1202078275073255 -1.3865621067242908  7.6761111328451461   T   T   T
  3.7202272055114518  5.6240677347268857  7.7212002105845681   T   T   T
 10.4153665549489478 -1.5128474294431606  7.6289008760980472   T   T   T
  9.8193887523181704  5.6177768700711779  7.7639539920056491   T   T   T
  2.7747638315824834 -0.8767793052472606  5.1432264031421635   T   T   T
  2.1841484965086786  6.1202996072711047  5.1319879113778297   T   T   T
  8.9641910718594175 -0.8701043543827084  5.0916455698337426   T   T   T
  8.4323526158312632  6.0352805417891116  5.0669640574969899   T   T   T
  0.9574483207120418  0.4021354494958999  8.0477280924678603   T   T   T
  0.5002344963666047  7.3454907404648289  8.0899765991243093   T   T   T
  7.2188506262113323  0.4188740966395094  8.0455892178872404   T   T   T
  6.8809470805282720  7.6043705483428941  7.9443457743197907   T   T   T
 -0.3772862289520664  0.8542308818471521  5.4912202769832223   T   T   T
 -1.0057066496273546  7.8414803356318981  5.5359081713341123   T   T   T
  5.8673773199918395  0.8913089160660346  5.4826428494856954   T   T   T
  5.3008625509734300  7.8866364234204056  5.4395896583117382   T   T   T
  4.5217396942629380  1.4307962187033891  3.0317054877072409   T   T   T
  3.9740360019162604  8.4202011409190245  3.0078060641148361   T   T   T
 10.7698799629767770  1.4388499831787029  3.0259353439688699   T   T   T
 10.2052273046095916  8.3775204391257478  3.0031666604518459   T   T   T
  3.0998809980656308  1.9179293388388241  0.4588287389699982   T   T   T
  2.5589578923397145  8.9216550753889710  0.4698422511931640   T   T   T
  9.3400076515806933  1.9214429901239369  0.3755849511132350   T   T   T
  8.7488386654723076  8.9464508775957050  0.5539784503022881   T   T   T
  2.1723884861649791  2.8796410731422113  9.8277539695063343   T   T   T
  1.5969414373268858  9.8951494387449301  9.8028435471777566   T   T   T
  8.3706431160840680  2.8891923709247109  9.8250721434910773   T   T   T
  7.9622599990192011  9.8717823410678776  9.7049887741576164   T   T   T
  0.7103387541780269  3.4706545314976136  7.1846264643140092   T   T   T
 -0.3680301347859958 10.1173102398271872  7.3810372070373900   T   T   T
  6.8977020859526608  3.4812281950842889  7.2206764072503660   T   T   T
  6.3371142724181508 10.5014014262373472  7.2110447195251037   T   T   T
  4.0620777142095710  4.5629919825529965  2.0498651582283629   T   T   T
  3.5043828459154631 11.5337032172116771  2.0559401686358272   T   T   T
 10.2511342778426808  4.5329666049042814  2.0554207000095399   T   T   T
  9.6389057815577406 11.5130147862000367  2.1579697660844226   T   T   T
  5.3401748490319259  4.0387882695172630  4.6305125234140041   T   T   T
  4.9234853454933862 10.9990087718614706  4.5701446537469970   T   T   T
 11.5686779875152119  4.0116610946205862  4.6571421413236518   T   T   T
 11.1475630158847974 10.9821113254113047  4.6572295533656627   T   T   T
 -0.4825887186810631 -0.7594668645342555  8.7813226371912663   T   T   T
 -1.0004153155347526  6.2070254640405214  8.7978220853171294   T   T   T
  5.7499907952184701 -0.7704693445618793  8.7710486691409457   T   T   T
  5.1736472452700930  6.2613500197951968  8.7820390503122034   T   T   T
  2.9115687278032705  0.3668303418955535  3.5962956835676794   T   T   T
  2.3502273133214606  7.3774797377348778  3.6151269719292545   T   T   T
  9.1236794115788609  0.3903775048360685  3.5622886128912334   T   T   T
  8.6123856059495463  7.3294608901928289  3.6115988973893072   T   T   T
  4.3313614009538188 -0.0968613554600724  6.1736293808120912   T   T   T
  3.7754560011499794  6.8595938096016082  6.1863203710100345   T   T   T
 10.5192987961439552 -0.1544007574595277  6.1757069153378108   T   T   T
 10.0203512556448988  6.6508581173503014  6.1173689263316602   T   T   T
  1.4737137782818315  0.8528562880294458  1.0288426934747541   T   T   T
  0.9279672757508004  7.8206730580361006  1.0143119968329384   T   T   T
  7.7037373124343222  0.8324287094605759  0.9719295327717261   T   T   T
  7.1486000608872340  7.8661068266650389  1.0045215969867667   T   T   T
  1.3130520683211564 -0.0520653031491239  6.1624707066782358   T   T   T
  0.7417537497591445  6.9915837073736231  6.1715411378473268   T   T   T
  7.5148639264109711  0.0286447855770740  6.1181951872038844   T   T   T
  7.0198152350723113  6.9917014428265167  6.0935067965023118   T   T   T
  2.7234636886807118 -0.5665896557419317  8.6381930501020054   T   T   T
  2.1794246223006888  6.4516187060091701  8.6299275674165479   T   T   T
  8.9421678238985098 -0.5423275952767215  8.6376574684767906   T   T   T
  8.4341504774712295  6.4426810385849311  8.6850793430050661   T   T   T
 -0.0732000200962325  0.4624264651523215  3.6041192361788097   T   T   T
 -0.6240447307937045  7.4372327856404343  3.6275836446463150   T   T   T
  6.1490031832688308  0.5059256987348004  3.5845649931329748   T   T   T
  5.5749876462334367  7.4274275886694383  3.5842953149758645   T   T   T
  4.7247246805844405  1.0144279238899865  1.0526583266665548   T   T   T
  4.2019434298017755  8.0233259513457522  1.0319056950641778   T   T   T
 10.9914724992423860  1.0426446380108101  1.0550097996314372   T   T   T
 10.3980579971471698  8.0227890960233399  1.0528324275338785   T   T   T
  1.2102857041190518  1.1402042870618325  9.9113671666504892   T   T   T
  0.6490488578822398  8.1364081828943799  9.9186878188047061   T   T   T
  7.4139272796246676  1.1589512503151180  9.9220008456952797   T   T   T
  6.9194173729744808  8.1590373551949096  9.8467977534652569   T   T   T
 -0.3749311707220057  1.6124686488307114  7.4979686223393847   T   T   T
 -1.1721272732979400  8.5074581185619031  7.5550142264049649   T   T   T
  5.8444536162591989  1.6337158301151327  7.5142755075343040   T   T   T
  5.3638089309649617  8.6622701546930010  7.4916315754763314   T   T   T
  3.0753079779584063  2.7574488772052010  2.2052591381682274   T   T   T
  2.4911936301472974  9.7511379194555872  2.2351796319286921   T   T   T
  9.3133110981133953  2.7428581500568447  2.1801722396071401   T   T   T
  8.6862901125301679  9.7467136030258406  2.3766606141888889   T   T   T
  4.2629741221349526  2.3127942339046217  4.8789131012524667   T   T   T
  3.7714016739506171  9.2630009493679495  4.8970933114498765   T   T   T
 10.4902088617563312  2.2763500566492980  4.8919488504208628   T   T   T
 10.1587277516252072  9.1368369239615710  4.8794482050984849   T   T   T
  1.9670152481601235  2.1624532329441148  7.8759750586978541   T   T   T
  1.3057997754659041  9.1988352070376820  7.8509860302601577   T   T   T
  8.1798699936909447  2.1771608538229650  7.8811441702009688   T   T   T
  7.8635098981390446  9.2057149028726180  7.7344260963147997   T   T   T
  0.5122321791746779  2.6334451561552163  5.4057802465664535   T   T   T
  0.0005060461849172  9.6707340952021035  5.5312461075574193   T   T   T
  6.7048210058972133  2.6792812845083640  5.4216425439811564   T   T   T
  6.1931539081403866  9.6490385786812585  5.3507141595742569   T   T   T
  5.5456526152314600  3.1824393535593454  2.8220161563351183   T   T   T
  4.9685409559751097 10.1678314061104285  2.7731858131556111   T   T   T
 11.7874353790662951  3.1751016226759461  2.8409583798385563   T   T   T
 11.2177241472271021 10.1675343621618470  2.8503588449209767   T   T   T
  4.1860988060906434  3.7322444515057005  0.1399568516965564   T   T   T
  3.6127625144180069 10.7298170538619715  0.1385116723356973   T   T   T
 10.3963938640426345  3.7429480510453179  0.1226582592244779   T   T   T
  9.8349031698629990 10.7125520738920841  0.2662533860059104   T   T   T
  0.4253832284357933  3.8204165334635580  9.1491577013031442   T   T   T
 -0.1865902688488690 10.7814294810264020  9.2347604962500434   T   T   T
  6.6362079814193251  3.8647914721352086  9.1441163269685006   T   T   T
  6.1669183340727374 10.7910886967791555  9.1442015219742778   T   T   T
  5.1907376404098100  4.4173472353351704  6.6282009682425320   T   T   T
  4.7293245049813191 11.3658436851612663  6.6059948423740478   T   T   T
 11.4551623156442091  4.3642136896074097  6.6263398009910031   T   T   T
 10.7719393361517817 11.3795981038301210  6.6117576893793348   T   T   T
  3.7207849781593065  4.9295133395555162  4.0320269493577596   T   T   T
  3.2610834670144526 11.9062027079637538  3.9927053793578673   T   T   T
  9.9005816836124758  4.8488432617762554  4.0219759090923803   T   T   T
  9.4438197857816384 11.8709491730358945  4.1141186961741667   T   T   T
  2.4101177085136016  5.4767277333235596  1.4961756739179515   T   T   T
  1.8648633154105168 12.4685816521719488  1.4788100442038914   T   T   T
  8.6196757780160471  5.4847500280828241  1.4908460913030730   T   T   T
  8.1253373101220188 12.4528102513396224  1.4485904188220335   T   T   T
  2.2435627021522260  4.5282225737738733  6.5122617394743916   T   T   T
  1.9679674367924043 11.6001472071182601  6.4286936351347226   T   T   T
  8.4656772398883966  4.5203735154459217  6.5638264285455943   T   T   T
  7.8194566312061680 11.6213974258553669  6.5335832289705094   T   T   T
  3.6155648446283224  4.0637241234937864  9.0397638121096353   T   T   T
  3.0921575173637401 11.0261087852599378  9.0279735428476329   T   T   T
  9.8470285131704927  4.0602498833861480  9.0442991762592406   T   T   T
  9.2966093506066461 11.1182303566195912  9.1324358220602608   T   T   T
  0.7929723806007358  5.0996178707952380  4.1102397386585814   T   T   T
  0.3060697227101428 12.0606967825404627  4.1059493008782955   T   T   T
  7.0175092291819574  5.0670651314787918  4.0790289183359683   T   T   T
  6.5069004198556737 12.0978739866449541  4.0649058275197794   T   T   T
  5.6295610496535273  5.5919646729420869  1.4674073332893143   T   T   T
  5.1059183725091026 12.5632585519081701  1.4476051238951024   T   T   T
 11.8460095109105144  5.5650739471558799  1.4825136094394931   T   T   T
 11.2750494984578324 12.5694282633929610  1.5403786621194777   T   T   T
