Ca Sc Mn O 
 1.0000000000000000
    11.5374555587999996    0.0000000000000000    0.0000000000000000
    -8.6585401879999999    7.6251270536000000    0.0000000000000000
     0.0000000000000000    0.0000000000000000   10.1281061171999998
 Ca  Sc  Mn  O  
   7   8  16  40
Selective dynamics
Cartesian
  0.7083311117591458  1.8760931508416574  5.0640530059811768   T   T   T
 -3.6774008188376106  5.7346377113629527  2.5230812638030420   T   T   T
  6.4126202428510233  1.9399827217097294  2.5250154146992427   T   T   T
  2.0196887058553501  5.7851505794003550  2.6393743986454168   T   T   T
 -3.5303547933640402  5.6940163590262189  7.6030906189367107   T   T   T
  6.5498209381459747  1.8732849095568755  7.6050247725120199   T   T   T
  2.3076973454406167  5.6764110753453476  7.4887313735752397   T   T   T
  3.5617988639015414  0.8378956385907365  2.4931857039885603   T   T   T
 -0.7013211737541860  4.4829116939216496  2.4780752119851499   T   T   T
  9.4682482348377590  0.9149490317472402  2.4820242716394865   T   T   T
  5.0540307631570744  4.6197154675467242  2.4503181997543475   T   T   T
 -2.1192639891808587  2.9828171642364354  7.6349203009002462   T   T   T
 -6.5009655772460322  6.9442276029997396  7.6460815955219461   T   T   T
  3.4890875486969928  2.9007961324878662  7.6500306696086051   T   T   T
 -0.7397304853760496  6.8071869943076120  7.6777878570861073   T   T   T
  4.4470215684414525  0.5018499482046530  5.6095919024496945   T   T   T
 -0.2023601949932658  4.5364911548996902  5.6002060042349537   T   T   T
  9.7403072895198246  0.6052240796686429  5.6278892698464977   T   T   T
  5.8133280655099835  4.3361530580484979  5.7282478086851265   T   T   T
  4.3826494207796562  0.5233707495976040  9.6515399918506617   T   T   T
  0.1407731715785361  4.2802208252832115  9.5042380644999156   T   T   T
 10.2618692928504078  0.5118168662042509  9.5204124378151267   T   T   T
  5.7162258621808970  4.3743728879692485  9.4564747352857204   T   T   T
 -2.9431595426187092  3.2892766691609574  0.4765661492294812   T   T   T
 -7.3629869166780955  7.1661937864905418  0.6076934622573951   T   T   T
  2.7231604151109958  3.3052240435790750  0.6238678636127500   T   T   T
 -1.3988367614078876  7.0607101780167145  0.6716313315646162   T   T   T
 -3.0056924460533621  3.3156696732652842  4.5185141947682483   T   T   T
 -6.9098362491012466  6.8915919927859086  4.5002166412314688   T   T   T
  3.1500418890284272  3.2707703878484189  4.5278999227253482   T   T   T
 -1.4969691485968131  7.0962024180547187  4.3998584294155592   T   T   T
  5.2101685302425045  0.2075222496357817  1.3303984691962394   T   T   T
  0.8831951793754753  4.1708464132059504  1.2540399862151010   T   T   T
 10.8939811679231102  0.1109424011667557  1.2896076585615979   T   T   T
  6.5455801872656671  4.0640632231622744  1.1364198508438237   T   T   T
  5.2155658305471100  0.2072161847236173  3.7990868064723671   T   T   T
  0.7338139451780253  4.0582648435896607  3.9277051519208093   T   T   T
 10.7355001384909592  0.3036426214234896  4.0035671042743868   T   T   T
  6.5829646165132321  4.0477292988015616  3.8468069328145025   T   T   T
  2.6334226316441041  1.0977884951699013  4.3843618419438162   T   T   T
 -1.9215649244236228  5.1934031852386564  4.2116201502773993   T   T   T
  8.0582595699647612  1.1978031213643663  4.2044977349299479   T   T   T
  3.8345109892447535  5.1640742371339723  4.1624524976682240   T   T   T
  2.6132183804031843  1.1872568255618536  0.6842471334182464   T   T   T
 -1.9669590691588350  5.1966980930693918  0.8847807032880877   T   T   T
  8.0557570376098351  1.2134512775195598  0.8855109586056973   T   T   T
  3.7594711846102435  5.1234669617221025  0.9615711905887769   T   T   T
 -2.1274897130105348  2.9830844560385699  2.5648385601910917   T   T   T
 -6.0691970768846657  6.6501570293050287  2.6874848835916225   T   T   T
  4.0031278152485044  2.8389215924264821  2.6543918349647555   T   T   T
 -0.4457060289175616  6.6997002532726855  2.5004794375553323   T   T   T
 -3.7771876003119544  3.6024876079952812  6.3290195188307949   T   T   T
 -7.8560166292024904  7.3229883592046496  6.1245388129712461   T   T   T
  2.1314084850426900  3.5305941298471177  6.2004007984815050   T   T   T
 -2.2651799733978897  7.3884027562126757  6.2812995078495071   T   T   T
 -1.2507797277007289  2.5642938869185943  5.7437441238474767   T   T   T
 -5.2558694165527449  6.2246373990350623  5.9236081433957075   T   T   T
  4.8744118575441160  2.6275388586180490  5.9164857204805852   T   T   T
  0.5352528499607021  6.4097301807028844  5.9656533670655154   T   T   T
  3.5681485978107141  0.8326598675160227  7.5632669273729887   T   T   T
 -1.1279871601522653  4.7762068000674338  7.4737141261349374   T   T   T
  8.9498661385318847  0.9796138741500072  7.4406210896541962   T   T   T
  4.7623356088173407  4.7333708980392553  7.6276259780486866   T   T   T
 -3.7729345878476837  3.5991501496746174  8.7977078557741351   T   T   T
 -8.1023081011376963  7.2831125530905796  8.8384982291261114   T   T   T
  2.0937075467025559  3.7138098136119275  8.8740659413339849   T   T   T
 -2.2263284490689745  7.3759532932791156  8.9916864326863468   T   T   T
 -1.1764870674955090  2.6180842956827814  9.4438587907603395   T   T   T
 -5.2436494316335382  6.2347270704622337  9.2425949324901229   T   T   T
  4.9106564792540492  2.6000104318811341  9.2433251860056043   T   T   T
  0.5647310575525726  6.3296614797919135  9.1665346856718308   T   T   T
