Ca V  Fe P  O 
1.0
        8.4432582855         0.0000000000         0.0000000000
        0.0000009753         7.3240151405         0.0000000000
        0.0000040096         3.2740662908         9.4881349819
   Ca    V   Fe    P    O
    3    2    2    8   28
Direct
     0.409206510         0.262658238         0.619281113
     0.907436371         0.737938106         0.886039436
     0.909203529         0.737340987         0.380719006
     0.992812634         0.267710835         0.610829115
     0.492818922         0.732286453         0.389178663
     0.487345368         0.736779690         0.890531480
     0.987347126         0.263220996         0.109471217
     0.191244915         0.495863408         0.807336152
     0.765775979         0.109225348         0.892432809
     0.268753558         0.893214941         0.608190000
     0.693010330         0.503732204         0.692299247
     0.193004593         0.496281803         0.307706356
     0.768693089         0.106780969         0.391764551
     0.265752107         0.890765131         0.107502751
     0.691281140         0.504076362         0.192692086
     0.283715785         0.825072825         0.980153382
     0.674999058         0.920160294         0.919264495
     0.048521228         0.459708720         0.905740321
     0.350956827         0.476309687         0.883195043
     0.694760680         0.616420209         0.795832753
     0.421466172         0.917906582         0.685829222
     0.159248158         0.726224601         0.720081806
     0.656003177         0.273202956         0.777471006
     0.921825171         0.087768532         0.817866683
     0.190452203         0.383187532         0.702917933
     0.851194739         0.517657995         0.614208221
     0.549912274         0.542398751         0.593914509
     0.293494493         0.832198858         0.479542971
     0.673441410         0.920976579         0.419283926
     0.173440084         0.079016469         0.580717385
     0.793510675         0.167822883         0.520505965
     0.049923744         0.457608342         0.406072915
     0.351192683         0.482341379         0.385791123
     0.690450728         0.616835177         0.297095150
     0.421845794         0.912237167         0.182142302
     0.155997381         0.726772964         0.222542897
     0.659255207         0.273782879         0.279917777
     0.921502709         0.082089528         0.314155757
     0.194760010         0.383577526         0.204166755
     0.850959539         0.523696482         0.116799250
     0.548481822         0.540308654         0.094228648
     0.175007880         0.079831019         0.080740847
     0.783715546         0.174946383         0.019884886
