Ca Mo P  O 
1.0
       17.8634319305         0.0000000000         0.0000000000
       -0.0000056619        14.1734495163         0.0000000000
       -0.0000166825         2.8135536626         9.2173572759
   Ca   Mo    P    O
   15   16   32  112
Direct
     0.431111693         0.395546466         0.526510477
     0.431111693         0.895546436         0.526510477
     0.931111693         0.395546466         0.526510477
     0.931111693         0.895546436         0.526510477
     0.318879306         0.395547807         0.026515592
     0.318879306         0.895547807         0.026515592
     0.818879306         0.395547807         0.026515592
     0.818879306         0.895547807         0.026515592
     0.181121513         0.104448266         0.973485351
     0.181121513         0.604448259         0.973485351
     0.681121528         0.104448266         0.973485351
     0.681121528         0.604448259         0.973485351
     0.068882778         0.104446165         0.473493576
     0.068882778         0.604446173         0.473493576
     0.568882763         0.104446165         0.473493576
     0.113220580         0.357318401         0.990579128
     0.113220580         0.857318401         0.990579128
     0.613220572         0.357318401         0.990579128
     0.613220572         0.857318401         0.990579128
     0.136786029         0.357326716         0.490559191
     0.136786029         0.857326746         0.490559191
     0.636786044         0.357326716         0.490559191
     0.636786044         0.857326746         0.490559191
     0.363173544         0.142705172         0.509402752
     0.363173544         0.642705202         0.509402752
     0.863173544         0.142705172         0.509402752
     0.863173544         0.642705202         0.509402752
     0.386813819         0.142698571         0.009411715
     0.386813819         0.642698586         0.009411715
     0.886813819         0.142698571         0.009411715
     0.886813819         0.642698586         0.009411715
     0.276997089         0.018841794         0.291576505
     0.276997089         0.518841803         0.291576505
     0.776997089         0.018841794         0.291576505
     0.776997089         0.518841803         0.291576505
     0.473018765         0.018850563         0.791600823
     0.473018765         0.518850565         0.791600823
     0.973018765         0.018850563         0.791600823
     0.973018765         0.518850565         0.791600823
     0.220517322         0.226828486         0.285275817
     0.220517322         0.726828456         0.285275817
     0.720517337         0.226828486         0.285275817
     0.720517337         0.726828456         0.285275817
     0.470508009         0.273230314         0.214734629
     0.470508009         0.773230314         0.214734629
     0.970507979         0.273230314         0.214734629
     0.970507979         0.773230314         0.214734629
     0.223015651         0.481161624         0.708403468
     0.223015651         0.981161594         0.708403468
     0.723015666         0.481161624         0.708403468
     0.723015666         0.981161594         0.708403468
     0.026980838         0.481151253         0.208404511
     0.026980838         0.981151223         0.208404511
     0.526980817         0.481151253         0.208404511
     0.526980817         0.981151223         0.208404511
     0.279507041         0.273221433         0.714737535
     0.279507041         0.773221433         0.714737535
     0.779507041         0.273221433         0.714737535
     0.779507041         0.773221433         0.714737535
     0.029487995         0.226793647         0.785267115
     0.029487995         0.726793647         0.785267115
     0.529487967         0.226793647         0.785267115
     0.529487967         0.726793647         0.785267115
     0.295455188         0.027929502         0.128390297
     0.295455188         0.527929485         0.128390297
     0.795455217         0.027929502         0.128390297
     0.795455217         0.527929485         0.128390297
     0.482162565         0.072489411         0.143625692
     0.482162565         0.572489381         0.143625692
     0.982162595         0.072489411         0.143625692
     0.982162595         0.572489381         0.143625692
     0.348207206         0.028139845         0.376139581
     0.348207206         0.528139830         0.376139581
     0.848207235         0.028139845         0.376139581
     0.848207235         0.528139830         0.376139581
     0.218821123         0.111562513         0.276877582
     0.218821123         0.611562490         0.276877582
     0.718821108         0.111562513         0.276877582
     0.718821108         0.611562490         0.276877582
     0.204526678         0.472051978         0.871648848
     0.204526678         0.972051978         0.871648848
     0.704526663         0.472051978         0.871648848
     0.704526663         0.972051978         0.871648848
     0.017852297         0.427491486         0.856379926
     0.017852297         0.927491486         0.856379926
     0.517852306         0.427491486         0.856379926
     0.517852306         0.927491486         0.856379926
     0.151795596         0.471847475         0.623855770
     0.151795596         0.971847475         0.623855770
     0.651795626         0.471847475         0.623855770
     0.651795626         0.971847475         0.623855770
     0.281151980         0.388422459         0.723118067
     0.281151980         0.888422489         0.723118067
     0.781152010         0.388422459         0.723118067
     0.781152010         0.888422489         0.723118067
     0.045472179         0.472065032         0.371614069
     0.045472179         0.972065032         0.371614069
     0.545472205         0.472065032         0.371614069
     0.545472205         0.972065032         0.371614069
     0.232158646         0.427508503         0.356377363
     0.232158646         0.927508473         0.356377363
     0.732158661         0.427508503         0.356377363
     0.732158661         0.927508473         0.356377363
     0.098190852         0.471854210         0.123880066
     0.098190852         0.971854210         0.123880066
     0.598190844         0.471854210         0.123880066
     0.598190844         0.971854210         0.123880066
     0.468839735         0.388423979         0.223118231
     0.468839735         0.888423979         0.223118231
     0.968839765         0.388423979         0.223118231
     0.968839765         0.888423979         0.223118231
     0.034592103         0.290920049         0.625010312
     0.034592103         0.790920019         0.625010312
     0.534592092         0.290920049         0.625010312
     0.534592092         0.790920019         0.625010312
     0.099713422         0.231448650         0.875139773
     0.099713422         0.731448650         0.875139773
     0.599713445         0.231448650         0.875139773
     0.599713445         0.731448650         0.875139773
     0.456123769         0.245204806         0.849121869
     0.456123769         0.745204806         0.849121869
     0.956123769         0.245204806         0.849121869
     0.956123769         0.745204806         0.849121869
     0.206134304         0.254777253         0.650925934
     0.206134304         0.754777253         0.650925934
     0.706134319         0.254777253         0.650925934
     0.706134319         0.754777253         0.650925934
     0.349735826         0.268551767         0.624815047
     0.349735826         0.768551767         0.624815047
     0.849735856         0.268551767         0.624815047
     0.849735856         0.768551767         0.624815047
     0.284564942         0.209066227         0.875004709
     0.284564942         0.709066212         0.875004709
     0.784564972         0.209066227         0.875004709
     0.784564972         0.709066212         0.875004709
     0.215387821         0.290935844         0.124952450
     0.215387821         0.790935874         0.124952450
     0.715387821         0.290935844         0.124952450
     0.715387821         0.790935874         0.124952450
     0.150279284         0.231441006         0.375149488
     0.150279284         0.731441021         0.375149488
     0.650279284         0.231441006         0.375149488
     0.650279284         0.731441021         0.375149488
     0.293901145         0.245189413         0.349157393
     0.293901145         0.745189428         0.349157393
     0.793901145         0.245189413         0.349157393
     0.793901145         0.745189428         0.349157393
     0.043860897         0.254781544         0.150907740
     0.043860897         0.754781544         0.150907740
     0.543860912         0.254781544         0.150907740
     0.543860912         0.754781544         0.150907740
     0.400289804         0.268544018         0.124843039
     0.400289804         0.768544018         0.124843039
     0.900289774         0.268544018         0.124843039
     0.900289774         0.768544018         0.124843039
     0.465414733         0.209063172         0.374996036
     0.465414733         0.709063172         0.374996036
     0.965414762         0.209063172         0.374996036
     0.965414762         0.709063172         0.374996036
     0.031173766         0.111586183         0.776876926
     0.031173766         0.611586213         0.776876926
     0.531173766         0.111586183         0.776876926
     0.531173766         0.611586213         0.776876926
     0.401780754         0.028154319         0.876144290
     0.401780754         0.528154314         0.876144290
     0.901780725         0.028154319         0.876144290
     0.901780725         0.528154314         0.876144290
     0.267854214         0.072502457         0.643605053
     0.267854214         0.572502434         0.643605053
     0.767854214         0.072502457         0.643605053
     0.767854214         0.572502434         0.643605053
     0.454537243         0.027930230         0.628366113
     0.454537243         0.527930260         0.628366113
     0.954537272         0.027930230         0.628366113
     0.954537272         0.527930260         0.628366113
