Ca V  Fe P  O                           
   1.00000000000000     
    14.8499546051000006    0.0000000000000000    0.0000000000000000
    -0.0125117168000000    8.2040796242000003    0.0000000000000000
     3.6964733550000002   -0.0852234029000000    9.1101353430999996
   Ca   V    Fe   P    O 
     3     4     4    16    56
Selective dynamics
Direct
  0.4921634393831189  0.9173663848013902  0.7541432457004802   T   T   T
  0.2364040201207005  0.9208358005668562  0.2666058274366230   T   T   T
  0.9817543766553831  0.9204267172753360  0.7727847242892005   T   T   T
  0.4840496275078276  0.4972814821810410  0.7640918738468482   T   T   T
  0.9841108137199915  0.4973936792147344  0.7642171809428149   T   T   T
  0.2319067632189663  0.4978243625747024  0.2638022466283909   T   T   T
  0.7363365349305768  0.5092658464778020  0.2596795507263132   T   T   T
  0.0041534046242075  0.0165295941865739  0.2436620297372983   T   T   T
  0.5154110254154338  0.0114573642980889  0.2499329410994373   T   T   T
  0.2585297512262535  0.0142341120693324  0.7438418913686906   T   T   T
  0.7557189253846820  0.0185078828367247  0.7456636847164144   T   T   T
  0.2178352451922921  0.2017042638242820  0.0596984123621825   T   T   T
  0.7206022652434330  0.1959938686364483  0.0644024529441102   T   T   T
  0.4695424303769864  0.2050217432078048  0.5584800133513065   T   T   T
  0.9695761805419933  0.2020970176332634  0.5585251987301251   T   T   T
  0.0880648722989180  0.7673239966633250  0.9448993121837916   T   T   T
  0.5863477568309315  0.7680092969207450  0.9472653235487322   T   T   T
  0.3358868933703003  0.7656405867415224  0.4458124041438822   T   T   T
  0.8358212042128748  0.7723174964454234  0.4407072368648232   T   T   T
  0.4113680450657760  0.2730961038447453  0.0691975624218965   T   T   T
  0.9124122327702195  0.2749619652458139  0.0648871438780177   T   T   T
  0.1623454441873598  0.2741903228759413  0.5647866760177185   T   T   T
  0.6626941163476385  0.2804396514206628  0.5640723843697940   T   T   T
  0.2801692836878204  0.6939553587386632  0.9474293704263149   T   T   T
  0.7791703829379976  0.6911654611016914  0.9481091885560555   T   T   T
  0.0285987690236998  0.6952281935060044  0.4510256533029764   T   T   T
  0.5248117122873567  0.6954867463053149  0.4480898122492015   T   T   T
  0.2103410540398976  0.3140428956773633  0.4006673383368866   T   T   T
  0.7112493967818468  0.3352124794994226  0.4055220431126960   T   T   T
  0.4614636230590824  0.3175066408292623  0.9062257204921491   T   T   T
  0.9651701038950760  0.3228201532753970  0.9016392690470922   T   T   T
  0.2664070867596140  0.6698564502196914  0.3903386248298565   T   T   T
  0.7773236328981902  0.6593582917067565  0.3802944110264765   T   T   T
  0.0201983993705289  0.6679969456145233  0.8890032582752126   T   T   T
  0.5203380881634971  0.6702124663450757  0.8861981601065199   T   T   T
  0.1513120233967229  0.0721660437734297  0.1605803144106153   T   T   T
  0.6519079877242762  0.0701620432090292  0.1624538281260453   T   T   T
  0.4035593655257225  0.0754731501995103  0.6603786025635968   T   T   T
  0.9023681012772596  0.0718542860963319  0.6577287629953361   T   T   T
  0.1951901102831350  0.3752654092893420  0.1208467403467941   T   T   T
  0.6980300162112597  0.3699475284824983  0.1300002362806968   T   T   T
  0.4456708667552252  0.3768438751084204  0.6244926759519513   T   T   T
  0.9464860193908335  0.3743190529556624  0.6235612210555973   T   T   T
  0.2567958788674184  0.6909094197371024  0.1155230852126864   T   T   T
  0.7595684188034012  0.6787050243432980  0.1124940652042884   T   T   T
  0.5059871812646811  0.6848222076503784  0.6157687420830500   T   T   T
  0.0104538610020893  0.6904496881523036  0.6179959125619113   T   T   T
  0.3642935997594832  0.4239185553455170  0.1646967961485374   T   T   T
  0.8682503844982127  0.4224163884788041  0.1639332473573137   T   T   T
  0.1180938220305561  0.4243840916787769  0.6606977603888228   T   T   T
  0.6143017217879478  0.4264831145405074  0.6672978514671891   T   T   T
  0.3206532938897880  0.1503244834005974  0.0787778875634616   T   T   T
  0.8273460747040866  0.1511770544385885  0.0671426017324270   T   T   T
  0.0717683946961501  0.1491860761782185  0.5792428280978204   T   T   T
  0.5733436968166318  0.1557275905568516  0.5746053402394489   T   T   T
  0.1819823205403530  0.6546427554427837  0.9203657495081925   T   T   T
  0.6788184036263780  0.6536446953201187  0.9252874743948194   T   T   T
  0.4247707730426269  0.6439294837662138  0.4283200797016615   T   T   T
  0.9275261455403417  0.6580906891053232  0.4359508742660471   T   T   T
  0.1204318586168929  0.9163938072779468  0.8409239881000441   T   T   T
  0.6198720064558757  0.9183273630202995  0.8447650650557564   T   T   T
  0.3713567348687875  0.9130752008809097  0.3412210970038219   T   T   T
  0.8798488605922060  0.9165898354838347  0.3390618409175199   T   T   T
  0.2308689032433907  0.1859683363701975  0.9005611814562221   T   T   T
  0.7304427073641960  0.1858589241090983  0.9047376982598844   T   T   T
  0.4794402197084646  0.1942794564719132  0.4007148219316677   T   T   T
  0.9835018214251758  0.1907236583632118  0.3990582400544374   T   T   T
  0.3169310168692903  0.8630567537867941  0.8857464195801257   T   T   T
  0.8136682285143526  0.8605625593539199  0.8847737735230637   T   T   T
  0.0660331362498906  0.8640417549522991  0.3894636642696288   T   T   T
  0.5440988982925032  0.8726074101280891  0.4021270476166747   T   T   T
  0.3500331521825941  0.5585045844256477  0.8658044245251251   T   T   T
  0.8501108715776858  0.5591907863087633  0.8577730767612921   T   T   T
  0.0980888518854541  0.5594973145291248  0.3650672505740369   T   T   T
  0.6001167410647746  0.5723913398531051  0.3582415838218340   T   T   T
  0.2274941515954654  0.1689886599795238  0.6140039598848513   T   T   T
  0.7268587652100882  0.1783708542214725  0.6172529358428716   T   T   T
  0.4733858990337934  0.1664673892406853  0.1225408863584747   T   T   T
  0.9803290343497258  0.1704323357723420  0.1103714839836860   T   T   T
  0.2881107275517142  0.8188239224422714  0.6054825296436016   T   T   T
  0.7801647564788879  0.8265019113680867  0.5985897336679977   T   T   T
  0.0421641211739764  0.8164477642896528  0.1046161964012088   T   T   T
  0.5361061157297566  0.8160189123595214  0.1067987650374797   T   T   T
 
  0.00000000E+00  0.00000000E+00  0.00000000E+00
  0.00000000E+00  0.00000000E+00  0.00000000E+00
  0.00000000E+00  0.00000000E+00  0.00000000E+00
  0.00000000E+00  0.00000000E+00  0.00000000E+00
  0.00000000E+00  0.00000000E+00  0.00000000E+00
  0.00000000E+00  0.00000000E+00  0.00000000E+00
  0.00000000E+00  0.00000000E+00  0.00000000E+00
  0.00000000E+00  0.00000000E+00  0.00000000E+00
  0.00000000E+00  0.00000000E+00  0.00000000E+00
  0.00000000E+00  0.00000000E+00  0.00000000E+00
  0.00000000E+00  0.00000000E+00  0.00000000E+00
  0.00000000E+00  0.00000000E+00  0.00000000E+00
  0.00000000E+00  0.00000000E+00  0.00000000E+00
  0.00000000E+00  0.00000000E+00  0.00000000E+00
  0.00000000E+00  0.00000000E+00  0.00000000E+00
  0.00000000E+00  0.00000000E+00  0.00000000E+00
  0.00000000E+00  0.00000000E+00  0.00000000E+00
  0.00000000E+00  0.00000000E+00  0.00000000E+00
  0.00000000E+00  0.00000000E+00  0.00000000E+00
  0.00000000E+00  0.00000000E+00  0.00000000E+00
  0.00000000E+00  0.00000000E+00  0.00000000E+00
  0.00000000E+00  0.00000000E+00  0.00000000E+00
  0.00000000E+00  0.00000000E+00  0.00000000E+00
  0.00000000E+00  0.00000000E+00  0.00000000E+00
  0.00000000E+00  0.00000000E+00  0.00000000E+00
  0.00000000E+00  0.00000000E+00  0.00000000E+00
  0.00000000E+00  0.00000000E+00  0.00000000E+00
  0.00000000E+00  0.00000000E+00  0.00000000E+00
  0.00000000E+00  0.00000000E+00  0.00000000E+00
  0.00000000E+00  0.00000000E+00  0.00000000E+00
  0.00000000E+00  0.00000000E+00  0.00000000E+00
  0.00000000E+00  0.00000000E+00  0.00000000E+00
  0.00000000E+00  0.00000000E+00  0.00000000E+00
  0.00000000E+00  0.00000000E+00  0.00000000E+00
  0.00000000E+00  0.00000000E+00  0.00000000E+00
  0.00000000E+00  0.00000000E+00  0.00000000E+00
  0.00000000E+00  0.00000000E+00  0.00000000E+00
  0.00000000E+00  0.00000000E+00  0.00000000E+00
  0.00000000E+00  0.00000000E+00  0.00000000E+00
  0.00000000E+00  0.00000000E+00  0.00000000E+00
  0.00000000E+00  0.00000000E+00  0.00000000E+00
  0.00000000E+00  0.00000000E+00  0.00000000E+00
  0.00000000E+00  0.00000000E+00  0.00000000E+00
  0.00000000E+00  0.00000000E+00  0.00000000E+00
  0.00000000E+00  0.00000000E+00  0.00000000E+00
  0.00000000E+00  0.00000000E+00  0.00000000E+00
  0.00000000E+00  0.00000000E+00  0.00000000E+00
  0.00000000E+00  0.00000000E+00  0.00000000E+00
  0.00000000E+00  0.00000000E+00  0.00000000E+00
  0.00000000E+00  0.00000000E+00  0.00000000E+00
  0.00000000E+00  0.00000000E+00  0.00000000E+00
  0.00000000E+00  0.00000000E+00  0.00000000E+00
  0.00000000E+00  0.00000000E+00  0.00000000E+00
  0.00000000E+00  0.00000000E+00  0.00000000E+00
  0.00000000E+00  0.00000000E+00  0.00000000E+00
  0.00000000E+00  0.00000000E+00  0.00000000E+00
  0.00000000E+00  0.00000000E+00  0.00000000E+00
  0.00000000E+00  0.00000000E+00  0.00000000E+00
  0.00000000E+00  0.00000000E+00  0.00000000E+00
  0.00000000E+00  0.00000000E+00  0.00000000E+00
  0.00000000E+00  0.00000000E+00  0.00000000E+00
  0.00000000E+00  0.00000000E+00  0.00000000E+00
  0.00000000E+00  0.00000000E+00  0.00000000E+00
  0.00000000E+00  0.00000000E+00  0.00000000E+00
  0.00000000E+00  0.00000000E+00  0.00000000E+00
  0.00000000E+00  0.00000000E+00  0.00000000E+00
  0.00000000E+00  0.00000000E+00  0.00000000E+00
  0.00000000E+00  0.00000000E+00  0.00000000E+00
  0.00000000E+00  0.00000000E+00  0.00000000E+00
  0.00000000E+00  0.00000000E+00  0.00000000E+00
  0.00000000E+00  0.00000000E+00  0.00000000E+00
  0.00000000E+00  0.00000000E+00  0.00000000E+00
  0.00000000E+00  0.00000000E+00  0.00000000E+00
  0.00000000E+00  0.00000000E+00  0.00000000E+00
  0.00000000E+00  0.00000000E+00  0.00000000E+00
  0.00000000E+00  0.00000000E+00  0.00000000E+00
  0.00000000E+00  0.00000000E+00  0.00000000E+00
  0.00000000E+00  0.00000000E+00  0.00000000E+00
  0.00000000E+00  0.00000000E+00  0.00000000E+00
  0.00000000E+00  0.00000000E+00  0.00000000E+00
  0.00000000E+00  0.00000000E+00  0.00000000E+00
  0.00000000E+00  0.00000000E+00  0.00000000E+00
  0.00000000E+00  0.00000000E+00  0.00000000E+00
