Ca V  Fe P  O 
 1.0000000000000000
     2.7315659999999999   -0.0299580000000000    6.7364560000000004
    -0.0637890000000000    8.1696460000000002   -0.0440450000000000
    -7.0520949999999996    0.0306509999999990    6.5522830000000001
 Ca  V   Fe  P   O  
   2   2   2   8  28
Cartesian
 -3.7539162223915858  3.5520314359929550  8.3185538736352491
 -1.5936517223908391  3.5516849359954001  1.6741843736358324
 -2.6229972101255647  4.1443467329325356 11.5034275525028118
 -0.4627327101261281  4.1440002329316865  4.8590580525036700
 -1.6048141120409931 -0.0112319464783708  1.7254892176827132
 -3.7650786120433821 -0.0108854464781966  8.3698587176837194
  0.8324625592747320  1.5726713635674288  3.2725644859424845
 -1.3278019407936845  1.5730178635224530  9.9169339859436327
 -6.2149619512446961  6.3119079667665652  7.2681388472558854
 -1.3231314512979226  6.2816034667442873  7.3602253472631647
  1.9268176459540762  2.1719164454800151  5.9013547797459376
 -2.9650128540559670  2.2022209454695205  5.8092682797766297
 -5.1551701715796412  5.8113264238649043  9.9829488490427476
 -2.9949056716102453  5.8109799238250144  3.3385793490592262
 -1.5436033709437385  2.5437107191097370  5.4092104285330143
 -3.7038678709521595  2.5440572191089754 12.0535799285370508
 -1.3018740513665534  5.3298784606614884  6.1908268948072447
 -6.1937045513695637  5.3601829606595919  6.0987403948067023
 -0.1078837755974501  0.4637196972689211  2.9149475811893910
 -2.2681482755578841  0.4640661973080006  9.5593170812044992
  0.1727945354243364  2.9790423808419151  3.2302505844632190
 -1.9874699645716696  2.9793888808446249  9.8746200844634924
  0.6692490607622061  5.6664839888940000  4.3037463815382209
 -4.2225814392214831  5.6967884888950140  4.2116598815268258
  1.0428910222148073  3.4398180200573951  6.0857012232870371
 -3.8489394777856925  3.4701225200578683  5.9936147232840318
  1.2395748047416746  1.2511474355772507  4.8015590719165582
 -3.6522556952571845  1.2814519355765530  4.7094725719107569
 -5.5657590559182513  5.3424658088485231  8.4492552154327125
 -0.6739285559137360  5.3121613088505431  8.5413417154335480
 -5.3361969013741737  7.5492894327556224  7.1791893036889949
 -0.4443664013514083  7.5189849327800449  7.2712758036892753
 -4.9205533598660089  1.6580764390174068  8.9982613312043984
 -0.0287228598397252  1.6277719390170104  9.0903478311900230
 -4.5902349360285966  7.2064491046403862  9.9068526665042143
 -2.4299704360142451  7.2061026046713810  3.2624831664995848
 -4.1105780809653050  4.7029699619400596 10.2312545061814699
 -1.9503135809683638  4.7026234619451692  3.5868850061786057
 -3.0171215487993663  1.4399121841315854  7.1310556749911980
  1.8747089511972004  1.4096076841185106  7.2231421750113833
 -2.7768847853907443  6.5363595193884931  7.7681802005999172
 -0.6166202854190554  6.5360130193956465  1.1238107006088722
