Ca2 V2 Fe2 P8 O28
1.0
   2.7315659999999999   -0.0299580000000000    6.7364560000000004
  -0.0637890000000000    8.1696460000000002   -0.0440450000000000
  -7.0520949999999996    0.0306509999999990    6.5522830000000001
Ca V Fe P O
2 2 2 8 28
direct
   0.5836540000000000    0.3721750000000000    0.7390310000000000 Ca
   0.0836539999999990    0.3721750000000000    0.2390310000000000 Ca
   0.9730839999999999    0.5126229999999991    0.7507189999999990 V
   0.4730840000000000    0.5126229999999991    0.2507189999999990 V
   0.0326600000000000    0.0027459999999990    0.2346830000000000 Fe
   0.5326600000000000    0.0027459999999990    0.7346830000000000 Fe
   0.4560730000000000    0.1875119999999990    0.0543250000000000 P
   0.9560730000000000    0.1875119999999990    0.5543250000000000 P
   0.1607829999999990    0.7820290000000000    0.9287029999999999 P
   0.6607830000000000    0.7820290000000000    0.4287030000000000 P
   0.8329789999999990    0.2872820000000000    0.0658590000000000 P
   0.3329789999999990    0.2872820000000000    0.5658590000000000 P
   0.5472359999999999    0.6913610000000000    0.9300689999999990 P
   0.0472360000000000    0.6913610000000000    0.4300690000000000 P
   0.4209610000000000    0.3465910000000000    0.4031840000000000 O
   0.9209609999999990    0.3465910000000000    0.9031840000000000 O
   0.5231530000000000    0.6792500000000000    0.3729949999999990 O
   0.0231530000000000    0.6792500000000000    0.8729950000000000 O
   0.3194170000000000    0.0516900000000000    0.1380559999999990 O
   0.8194170000000000    0.0516900000000000    0.6380560000000000 O
   0.3847580000000000    0.3566720000000000    0.1257900000000000 O
   0.8847579999999990    0.3566720000000000    0.6257900000000001 O
   0.5269389999999990    0.6667360000000000    0.0943470000000000 O
   0.0269389999999990    0.6667360000000000    0.5943470000000000 O
   0.7439760000000000    0.4323079999999990    0.1695900000000000 O
   0.2439760000000000    0.4323079999999990    0.6695900000000000 O
   0.6635160000000000    0.1554920000000000    0.0777730000000000 O
   0.1635160000000000    0.1554920000000000    0.5777730000000000 O
   0.3341150000000000    0.6507729999999990    0.9218949999999990 O
   0.8341149999999991    0.6507729999999990    0.4218949999999990 O
   0.2541239999999990    0.9287209999999990    0.8299369999999990 O
   0.7541240000000000    0.9287209999999990    0.3299370000000000 O
   0.4980790000000000    0.1952509999999990    0.8871559999999999 O
   0.9980789999999991    0.1952509999999990    0.3871560000000000 O
   0.6081949999999990    0.8647020000000000    0.8786419999999990 O
   0.1081950000000000    0.8647020000000000    0.3786420000000000 O
   0.6793310000000000    0.5595350000000000    0.8302700000000001 O
   0.1793310000000000    0.5595350000000000    0.3302700000000000 O
   0.4844949999999991    0.2022840000000000    0.6149890000000000 O
   0.9844950000000000    0.2022840000000000    0.1149890000000000 O
   0.5557569999999999    0.8241700000000001    0.5907780000000000 O
   0.0557569999999990    0.8241700000000001    0.0907780000000000 O
