Ca Mn P  O 
1.0
        8.2433061600         0.0000000000         0.0000000000
       -0.0000009991         7.5031194687         0.0000000000
        0.0000000000         3.7455137083         9.1865460338
   Ca   Mn    P    O
    3    4    8   28
Direct
     0.495855302         0.262060910         0.741887331
     0.995856702         0.737940550         0.758113384
     0.004148555         0.262066126         0.241886213
     0.492968261         0.251941919         0.252048671
     0.007027766         0.251934141         0.752051532
     0.992968500         0.748055995         0.247947603
     0.507026553         0.748062551         0.747945487
     0.760447145         0.350126803         0.460192055
     0.751122057         0.930888176         0.458047509
     0.239581317         0.649893045         0.539838970
     0.260396570         0.649855971         0.039820358
     0.748880386         0.930883884         0.958022892
     0.248835295         0.069104269         0.541987360
     0.251138270         0.069117479         0.041977473
     0.739557207         0.350057662         0.960204780
     0.906162381         0.416285992         0.888623357
     0.902416408         0.468132377         0.372714490
     0.411607027         0.053945325         0.620832264
     0.739824772         0.311078995         0.122815974
     0.260174483         0.688934445         0.877157271
     0.597580552         0.468139440         0.872712970
     0.199559510         0.850500524         0.560495555
     0.395366013         0.112286702         0.120333619
     0.104671203         0.112282783         0.620311141
     0.239824608         0.688927650         0.377164781
     0.743836343         0.810047925         0.621301413
     0.093860433         0.583734930         0.111370042
     0.097587839         0.531867981         0.627281129
     0.699560344         0.149533316         0.939503491
     0.593840778         0.416275412         0.388623476
     0.088378496         0.053933624         0.120843723
     0.300444096         0.850529969         0.060496874
     0.911574900         0.946046233         0.879182637
     0.760170996         0.311073452         0.622823477
     0.604662716         0.887714028         0.879686058
     0.800439775         0.149483204         0.439503312
     0.895375729         0.887707770         0.379661232
     0.588384330         0.946058750         0.379158527
     0.406132489         0.583728969         0.611362636
     0.756161988         0.810058773         0.121276177
     0.256168753         0.189954326         0.378700048
     0.402441531         0.531848252         0.127300292
     0.243833259         0.189963296         0.878678024
