Ca Sc Mn O                              
   1.00000000000000     
    11.5374555587999996    0.0000000000000000    0.0000000000000000
    -8.6585401879999999    7.6251270536000000    0.0000000000000000
     0.0000000000000000    0.0000000000000000   10.1281061171999998
   Ca   Sc   Mn   O 
     7     8    16    40
Selective dynamics
Direct
  0.2264297913079069  0.2612349730838943  0.3458200208631242   T   T   T
  0.2370195736448532  0.7580666010813103  0.2502533266785956   T   T   T
  0.7422021545016643  0.2625364405897201  0.2510732277285073   T   T   T
  0.7419366794871923  0.7621122925686674  0.2692252986968124   T   T   T
  0.2570307316122307  0.7429413062048992  0.7423018417530163   T   T   T
  0.7587020930151411  0.2418254411326995  0.7414190003902874   T   T   T
  0.7630000116798414  0.7372196034918391  0.7569136766544734   T   T   T
  0.3851350879849439  0.1156904363779322  0.2476045014750932   T   T   T
  0.3835260948351568  0.6123832631313484  0.2436272836538246   T   T   T
  0.8860448749644345  0.1150988430870472  0.2454073164841197   T   T   T
  0.8856070144557443  0.6120735661013890  0.2419060684893541   T   T   T
  0.1172729550398556  0.3836050372444490  0.7439127558219086   T   T   T
  0.1234186325507317  0.9074402971860234  0.7589656407978225   T   T   T
  0.5934960443340064  0.3769122921486667  0.7560255487711350   T   T   T
  0.6164227397101556  0.8848630618904513  0.7547708267957020   T   T   T
  0.4326941824981053  0.0677453609097078  0.5583761337769986   T   T   T
  0.4429641465995268  0.5639395668656726  0.5680235565296217   T   T   T
  0.9305514723822760  0.0597104648507680  0.5714353021689440   T   T   T
  0.9330624752511517  0.5659184708232878  0.5573594973149770   T   T   T
  0.4381593051267667  0.0633256712592851  0.9394082313684593   T   T   T
  0.4324036096638100  0.5641962054469946  0.9337403548732233   T   T   T
  0.9553001260364765  0.0731431383595289  0.9434033332694788   T   T   T
  0.9323853055217288  0.5663874692534122  0.9271637072398344   T   T   T
  0.0677533100278200  0.4332340736579848  0.0395819724542069   T   T   T
  0.0633599972117829  0.9389009915398825  0.0771232341329701   T   T   T
  0.5527249589155804  0.4371181561267145  0.0687196771646373   T   T   T
  0.5668849177984590  0.9334611621644333  0.0667952221760451   T   T   T
  0.0719486707145842  0.4295806108231382  0.4381753961353675   T   T   T
  0.0726645857355317  0.9103988570735116  0.4559958322379560   T   T   T
  0.5875822460554401  0.4264619291144405  0.4491636078371757   T   T   T
  0.5636399519045519  0.9344101897537536  0.4367899259026337   T   T   T
  0.4649048031660491  0.0375721449998744  0.1236755825524419   T   T   T
  0.4702716538627865  0.5468619819169338  0.1153272635755957   T   T   T
  0.9639565889257595  0.0318776240784593  0.1359689808293637   T   T   T
  0.9612394745130560  0.5367020485299724  0.1090583981526772   T   T   T
  0.4640411932010606  0.0338258785901185  0.3806747136140393   T   T   T
  0.4729213402481236  0.5521640719234790  0.3830094812670539   T   T   T
  0.9396443444876691  0.0228309078191551  0.3931061094598182   T   T   T
  0.9647727757768186  0.5366447509257931  0.3730336484342310   T   T   T
  0.3351073669299844  0.1707899738094421  0.4292065783074036   T   T   T
  0.3209837253365013  0.6787389217148907  0.4073510700699338   T   T   T
  0.8203101549770084  0.1788647296186046  0.4093905751013954   T   T   T
  0.8274408921446841  0.6671711127648779  0.4171448517704129   T   T   T
  0.3194688502452580  0.1704305737334233  0.0902711581363029   T   T   T
  0.3287159037595311  0.6877681490167491  0.0910307410702809   T   T   T
  0.8140622809435233  0.1703975649429310  0.0903466688588737   T   T   T
  0.8219679119668621  0.6863731751095211  0.1019665126898448   T   T   T
  0.1196406921286778  0.3795401271896405  0.2687506189293082   T   T   T
  0.1157228637713404  0.8839871626021151  0.2570503862573402   T   T   T
  0.6166418990493732  0.3826641920690609  0.2595707956001104   T   T   T
  0.6108434865507264  0.8882139619283678  0.2492155089980112   T   T   T
  0.0395936455574465  0.4670320301848970  0.6107973719012612   T   T   T
  0.0208386748847602  0.9457390580107841  0.6213583938887939   T   T   T
  0.5556583083240992  0.4789674041242479  0.6131068466408763   T   T   T
  0.5341407183650683  0.9600981261367463  0.6214236920818935   T   T   T
  0.1674794487088932  0.3258160856891359  0.5619417856326296   T   T   T
  0.1724132118070983  0.8312447636385074  0.5803925707618323   T   T   T
  0.6701901536739848  0.3260542088671426  0.5805578495111248   T   T   T
  0.6804448641553676  0.8226959867902964  0.5963453564224633   T   T   T
  0.3975225905696778  0.1018073883145516  0.7490804722051153   T   T   T
  0.3885470982450513  0.6069042691510734  0.7474977735180776   T   T   T
  0.8880591066898396  0.1166002675665025  0.7437147538112984   T   T   T
  0.8847981769461674  0.6158199243566316  0.7525389942290127   T   T   T
  0.0316642931848993  0.4683780248115195  0.8569630926868774   T   T   T
  0.0254176007678316  0.9524114092432603  0.8946999191949960   T   T   T
  0.5448479752645518  0.4747565048415449  0.8827128281614224   T   T   T
  0.5370738795547357  0.9618527661296419  0.8850086267787689   T   T   T
  0.1700762454618027  0.3543536335956078  0.9351093137059083   T   T   T
  0.1738469790927913  0.8175721071222664  0.9073287818981129   T   T   T
  0.6820499287598792  0.3258565630286371  0.9058222378294949   T   T   T
  0.6685610804930419  0.8134770370016916  0.9094854340582844   T   T   T
 
             NaN             NaN             NaN
             NaN             NaN             NaN
             NaN             NaN             NaN
             NaN             NaN             NaN
             NaN             NaN             NaN
             NaN             NaN             NaN
             NaN             NaN             NaN
             NaN             NaN             NaN
             NaN             NaN             NaN
             NaN             NaN             NaN
             NaN             NaN             NaN
             NaN             NaN             NaN
             NaN             NaN             NaN
             NaN             NaN             NaN
             NaN             NaN             NaN
             NaN             NaN             NaN
             NaN             NaN             NaN
             NaN             NaN             NaN
             NaN             NaN             NaN
             NaN             NaN             NaN
             NaN             NaN             NaN
             NaN             NaN             NaN
             NaN             NaN             NaN
             NaN             NaN             NaN
             NaN             NaN             NaN
             NaN             NaN             NaN
             NaN             NaN             NaN
             NaN             NaN             NaN
             NaN             NaN             NaN
             NaN             NaN             NaN
             NaN             NaN             NaN
             NaN             NaN             NaN
             NaN             NaN             NaN
             NaN             NaN             NaN
             NaN             NaN             NaN
             NaN             NaN             NaN
             NaN             NaN             NaN
             NaN             NaN             NaN
             NaN             NaN             NaN
             NaN             NaN             NaN
             NaN             NaN             NaN
             NaN             NaN             NaN
             NaN             NaN             NaN
             NaN             NaN             NaN
             NaN             NaN             NaN
             NaN             NaN             NaN
             NaN             NaN             NaN
             NaN             NaN             NaN
             NaN             NaN             NaN
             NaN             NaN             NaN
             NaN             NaN             NaN
             NaN             NaN             NaN
             NaN             NaN             NaN
             NaN             NaN             NaN
             NaN             NaN             NaN
             NaN             NaN             NaN
             NaN             NaN             NaN
             NaN             NaN             NaN
             NaN             NaN             NaN
             NaN             NaN             NaN
             NaN             NaN             NaN
             NaN             NaN             NaN
             NaN             NaN             NaN
             NaN             NaN             NaN
             NaN             NaN             NaN
             NaN             NaN             NaN
             NaN             NaN             NaN
             NaN             NaN             NaN
             NaN             NaN             NaN
             NaN             NaN             NaN
             NaN             NaN             NaN
