Ca Sc Mn O 
 1.0000000000000000
    11.5374555587999996    0.0000000000000000    0.0000000000000000
    -8.6585401879999999    7.6251270536000000    0.0000000000000000
     0.0000000000000000    0.0000000000000000   10.1281061171999998
 Ca  Sc  Mn  O  
   7   8  16  40
Selective dynamics
Cartesian
  0.4588284004086062  1.9782423123758786  3.2851611963820977   T   T   T
 -3.7361441281501708  5.7629636869933041  2.5461666133442709   T   T   T
  6.3544041668084867  1.9591141850040081  2.5430187252678720   T   T   T
  2.0153196443870613  5.7771899866327132  2.6151958321823914   T   T   T
 -3.5284192556209026  5.6927917804075037  7.5972645164999015   T   T   T
  6.5579198932481813  1.8748444496122718  7.5986198792302169   T   T   T
  2.3241564132768215  5.6688439212225656  7.5757505002840908   T   T   T
  3.5577134154686334  0.8355586231542623  2.5209746456026152   T   T   T
 -0.7626223431367933  4.6189631720256328  2.4773101113292291   T   T   T
  9.3356382318121618  0.8480361534946985  2.4829589534624974   T   T   T
  5.0283625556496698  4.6349593246462772  2.4931798554999802   T   T   T
 -2.0776034927777447  2.9684458412409018  7.5780037300158716   T   T   T
 -6.5113920856784020  6.9537742177366217  7.6303491231844536   T   T   T
  3.4884226840650503  2.9059948908897595  7.6287452497602226   T   T   T
 -0.6873361958645685  6.7895255487197979  7.6171393105574206   T   T   T
  4.4399509913130979  0.5040727628009224  5.6254313357813812   T   T   T
  0.1038579024312826  4.3235482256985387  5.7047054398529911   T   T   T
 10.1003010423246611  0.5359944424442702  5.7178240971688199   T   T   T
  5.8127658980490482  4.3376057040729599  5.6833019826449416   T   T   T
  4.3782294082027748  0.5260502336392834  9.6105655243440555   T   T   T
  0.1313435407098617  4.2570384613578192  9.5091016080282618   T   T   T
 10.2779276757736966  0.5333103233395757  9.5290512363016937   T   T   T
  5.7192624631199198  4.3751183817788695  9.4599000139847274   T   T   T
 -2.9402440540999555  3.2882657617995417  0.4434681634034023   T   T   T
 -7.3170359800345901  7.1341724364308181  0.6139895816738018   T   T   T
  2.7652807819176117  3.3002608848810091  0.6122230558959972   T   T   T
 -1.4454394089255020  7.0793761821439549  0.6031466379751075   T   T   T
 -2.8980336548553609  3.2695713634719668  4.5215209856423515   T   T   T
 -7.0701200764428007  6.9695101825130372  4.5532265705712369   T   T   T
  3.0385511012824922  3.2683757503670678  4.5476161958017407   T   T   T
 -1.4613459218355744  7.0820015710938709  4.4325290254738290   T   T   T
  5.1665183458465380  0.2253244675451608  1.2829409503435047   T   T   T
  0.8303246247190151  4.0642953539751874  1.2733271108351618   T   T   T
 10.9353451900509118  0.2239547165503556  1.3252613200905634   T   T   T
  6.5192656020466071  4.0734094109891448  1.1367905570765131   T   T   T
  5.1646168587585954  0.2252237387155032  3.8009246171473374   T   T   T
  0.8046568613226295  4.1245072323184511  3.8685256697634225   T   T   T
 10.7726213363663330  0.1959701337215095  3.9444164362936545   T   T   T
  6.5823066529546272  4.0496237222622815  3.8217086046736548   T   T   T
  2.4005641221219860  1.2469691507988030  4.2991285424334862   T   T   T
 -2.0143039333447446  5.2037913981101891  4.1478401343221147   T   T   T
  8.0017163177403816  1.2410476493656926  4.1422171387823514   T   T   T
  3.8050090004785289  5.1189499771792208  4.1848625828527775   T   T   T
  2.4967848652857501  1.2331751792720664  0.7833774072697132   T   T   T
 -2.0410424249121921  5.1766687375372218  0.9129671540635156   T   T   T
  8.0187251173779153  1.2732428528510205  0.9114460393781949   T   T   T
  3.7284497264732002  5.1316056578317291  0.9672003967557231   T   T   T
 -1.8636857187098277  2.8801756684209625  2.6649827211098804   T   T   T
 -6.1428918097907541  6.6803996647960249  2.6845771839936465   T   T   T
  3.9486558153409321  2.8597939658339193  2.6734095292381248   T   T   T
 -0.4142073407243597  6.6862070979138242  2.5190856473457264   T   T   T
 -3.7175615847733461  3.5836643282899043  6.2982393518698014   T   T   T
 -7.9780504479864796  7.2484070538364715  6.2113141986088589   T   T   T
  2.1690356030324094  3.6669522525357729  6.2292552557411014   T   T   T
 -2.2344191193442824  7.3773743270428804  6.2725761660208788   T   T   T
 -1.1115222737334109  2.5191844236102634  5.6726861555383126   T   T   T
 -5.2841762640683232  6.2919346385682422  5.9148678442540144   T   T   T
  4.8397788915857323  2.5889712530922360  5.9134616148720776   T   T   T
  0.5827838198827708  6.3809515985468748  5.9626950872047111   T   T   T
  3.6012477761219395  0.8223100467722910  7.6102037066007826   T   T   T
 -1.0250203675394480  4.7282616006962348  7.5162848150710238   T   T   T
  9.0889319371596944  0.9411012606239018  7.4776934745014216   T   T   T
  4.7918114917602388  4.7251899946542588  7.6577744342604745   T   T   T
 -3.7738531385960656  3.5984122355714923  8.7589999487104979   T   T   T
 -8.0809049455345043  7.2797127913015691  8.8925597846125282   T   T   T
  2.1002425813492627  3.7003448066219562  8.8901343669372555   T   T   T
 -2.2380999480477972  7.3840505453452341  8.9114872692220963   T   T   T
 -1.2012833419303757  2.6313041654212026  9.4537429244781013   T   T   T
 -5.2692355758184419  6.2586668898690627  9.2686383381233206   T   T   T
  4.8787506208755538  2.6025822243890167  9.2690709419985389   T   T   T
  0.5293254772653673  6.3393792501271982  9.2334129373651219   T   T   T
