Ca V  P  O 
 1.0000000000000000
    11.1296310424999998    0.0000000000000000    0.0000000000000000
     2.8994549615000000   10.7443060018000001    0.0000000000000000
    -1.6016288384999999    2.0900824976000001   13.7540809288000005
 Ca  V   P   O  
  11  12  24  84
Selective dynamics
Cartesian
  4.2551179247971680  4.8276722189156356  6.0911940872803294   T   T   T
  3.5376006675168954  6.0066091212799764 13.7370907915849685   T   T   T
  5.4819232018142383 10.6868171730717307  9.2155742317400922   T   T   T
  4.9855672246465392 11.3666245302446516 13.7279600607017311   T   T   T
  6.0801550878866921 10.0035968662888468  4.5081144495848955   T   T   T
  9.6346807068238007  5.3630968688394827  9.2414613730171453   T   T   T
  9.1006130438856623  6.0345767751650703 13.7928757914137687   T   T   T
 10.1541123609375834  4.6052691352637156  4.5749726342821377   T   T   T
 11.0765161234027207 10.6914727855923406  9.1865596813788386   T   T   T
 10.5477214423209009 11.3927247857078644 13.7512832906977085   T   T   T
 11.6107620750856046 10.0192514460619488  4.5837840285607854   T   T   T
  0.7838970077413144  0.6034250771369961 -0.0049353573622368   T   T   T
  0.2654286989188531  1.2695866620802587  4.5544127019114029   T   T   T
 -0.2971899039157695  2.0271113266763394  9.2090741748487766   T   T   T
  2.2362900340105019  5.9554313581981679  0.0199643479930593   T   T   T
  1.6763009656601779  6.6723151918734374  4.5742885109997138   T   T   T
  1.2189093095261094  7.3107849325839727  9.1559712961593238   T   T   T
  6.3304252445687554  0.5952087231205100 -0.0205132848000540   T   T   T
  5.7875657264069957  1.3310770301486439  4.5933648126822444   T   T   T
  5.2417798513718354  2.0244668680638855  9.1662319757628445   T   T   T
  7.7742001173396904  5.9507170430690133  0.0053439349302207   T   T   T
  7.1991917500140588  6.6231567666131044  4.5533368258398665   T   T   T
  6.5889704149269619  7.2609915693071798  9.1787473897301819   T   T   T
  3.7078460025234614  1.5118630646750482  1.8894261245570461   T   T   T
  3.1112141774864615  2.0840867150933109  6.4914793231770398   T   T   T
  2.6903755608600091  2.8844982852313432 11.0562494229215638   T   T   T
  5.1640234745981441  6.8196607165522156  1.9285813921607651   T   T   T
  4.6376042174908676  7.6892718857523237  6.5016151514237093   T   T   T
  4.0462354395148523  8.2757657245322402 11.0964878327265435   T   T   T
  9.3009090533821954  1.5100300308793433  1.8752760671749706   T   T   T
  8.8012208049354399  2.1890172109961110  6.4851438182159029   T   T   T
  8.1932801669248700  2.8866923594230518 11.0825604429297595   T   T   T
 10.7246079624010342  6.8680357442055930  1.9040939512052470   T   T   T
 10.1788799555893892  7.5551168159628093  6.4833320489359485   T   T   T
  9.6713308374184255  8.2390583942581817 11.0628323418529071   T   T   T
  1.9100314067240980  3.9287552324578292  2.7343629789887185   T   T   T
  1.2585220975583893  4.5954456983026208  7.2999463881956181   T   T   T
  0.8328584545059399  5.2668926412876989 11.8660011333119915   T   T   T
  3.3128667566565606  9.2527223264183505  2.6662883387530401   T   T   T
  2.8047543722222716 10.0229291599879833  7.2907748490203437   T   T   T
  2.2870726834574588 10.6801925695482929 11.8768109951791434   T   T   T
  7.4461010054228058  3.8544922693403576  2.6650227181451154   T   T   T
  6.9937506796701294  4.5562731221489994  7.2604598453768157   T   T   T
  6.3448763710032505  5.3027971338357700 11.8540361032516604   T   T   T
  8.8835953286921345  9.2785349255914316  2.6843323033476754   T   T   T
  8.3278149019694627  9.9558063354502178  7.2843785200436111   T   T   T
  7.8290666295141671 10.6484603117002177 11.8434981890114575   T   T   T
  4.1372701130227476  0.9018848187932598  3.2310110441705313   T   T   T
  3.5541762995278274  1.4968447959482132  7.8350603985115450   T   T   T
  3.0810728418555913  2.2166453284436733 12.3995113797028136   T   T   T
  5.5654620550911043  6.2300287573828745  3.2662013599739139   T   T   T
  5.0644861082298691  6.9008633871674538  7.7313295906562685   T   T   T
  4.5126858639166336  7.6247289031040895 12.4074048737139364   T   T   T
  9.6928978322670556  0.8952703607088357  3.2276177603595104   T   T   T
  9.1703950946886383  1.5781381414079931  7.8430031525449388   T   T   T
  8.6311670433843197  2.2413826917274760 12.4071938614279134   T   T   T
 11.1288127361707669  6.2369310813579748  3.2403107369135244   T   T   T
 10.6176596450538518  6.9207129225567261  7.8100875206444389   T   T   T
 10.0872198750902040  7.6250703987883526 12.4061767427084551   T   T   T
  2.5903842951485880  4.9530546102769719  3.6468576669972994   T   T   T
  2.0542621727208097  5.6228688876834241  8.0833816957624638   T   T   T
  1.4773780689876712  6.3399142583745238 12.7672041325948378   T   T   T
  3.9979524186877304 10.3242759516227700  3.5423128643413349   T   T   T
  3.4457270128710982 11.1240324258065399  8.1585870780984049   T   T   T
  2.9231482092542653 11.7837630336830301 12.7529901135653088   T   T   T
  8.1011597288533537  4.9282189642982281  3.5652930037685060   T   T   T
  7.5907007611219584  5.6112471691075330  8.2082615238335510   T   T   T
  7.0534355804073270  6.3473460946339078 12.7630628873182950   T   T   T
  9.5543941319439014 10.3441153118578040  3.5734155993401435   T   T   T
  9.0107469477691460 11.0230785654760854  8.1692673246867304   T   T   T
  8.5077357273612044 11.7151812191365270 12.7269138712692484   T   T   T
  0.8151383926085978  3.1094608371022896  3.4480112848152134   T   T   T
  0.1544558779005829  3.8549778424763268  8.0636784120715372   T   T   T
 -0.2925375499199808  4.5114708264319798 12.5966291007823692   T   T   T
  2.2064555276720195  8.4963485535731067  3.4079843213624508   T   T   T
  1.7347150919824266  9.2102020640799775  8.0202461289916371   T   T   T
  1.2066277351027572  9.8808908479899511 12.6130699423796031   T   T   T
  6.4947822559124022  2.9182572726818634  3.3533230470112776   T   T   T
  5.9239110928782504  3.6550734480030123  7.8532956768226345   T   T   T
  5.2837045374018485  4.5118375124190573 12.6294071544516875   T   T   T
  7.7977996881080447  8.4847720715482833  3.4197137399214763   T   T   T
  7.2495562694575453  9.1542357333060203  8.0256934146681811   T   T   T
  6.7531895680361655  9.8533838657547843 12.5886372649057421   T   T   T
  1.3757745953165057  4.5151506641341097  1.4072266231427557   T   T   T
  0.7932205181709923  5.1392905807889191  5.9323535710501956   T   T   T
  0.3584995256867159  5.8354488874508021 10.5201750278189508   T   T   T
  2.8221606121106100  9.8403088519253110  1.3332984812871724   T   T   T
  2.3252461281788772 10.5216971292497234  5.9211674673686536   T   T   T
  1.7907220131000217 11.2168644625709817 10.5259075090745089   T   T   T
  6.9243355382920138  4.4615719049646021  1.3532481654687405   T   T   T
  6.4820486439704821  5.1734198943457592  5.9481912048812857   T   T   T
  5.8858487225998619  5.8626983226761684 10.5288686487199747   T   T   T
  8.3915777861473231  9.8370265117214721  1.3439566841881110   T   T   T
  7.8433158950172306 10.5340080027108112  5.9467133776653061   T   T   T
  7.3315815333451768 11.2100983514173951 10.5083370184686604   T   T   T
  3.1132647443358752  2.9630442139761568  2.2288717006753309   T   T   T
  2.4196836644143001  3.5041317862083901  6.8729981991811453   T   T   T
  2.0795822091355420  4.3124329414185336 11.5460115946468456   T   T   T
  4.5617995814962926  8.3113525290424555  2.2808422921305653   T   T   T
  4.1510062352173627  9.1463719611057108  7.0009704097115364   T   T   T
  3.6242352918121119  9.8092621645733313 11.5700998879743366   T   T   T
  8.7923755931851044  3.0166026672618749  2.1829542138385452   T   T   T
  8.3064701868856208  3.7076310335555100  6.8096523220183398   T   T   T
  7.6219105740031488  4.3335820214887546 11.4904382698504133   T   T   T
 10.1567646542926191  8.3421857834541076  2.3007566677569402   T   T   T
  9.6012594294458005  9.0200337088821190  6.8939925664502262   T   T   T
  9.1076639599750226  9.7192853818701934 11.4442458827928029   T   T   T
  2.6770165303277564  0.6329818940069546  1.1622178165103221   T   T   T
  2.1326721651868867  1.2031180783318132  5.7158605782242091   T   T   T
  1.6064455493028571  2.0577959802065733 10.3298360832233698   T   T   T
  4.1270822809550847  6.0050932237811718  1.1460646245915167   T   T   T
  3.4886885888137398  6.9700658790995078  5.7811508768556550   T   T   T
  2.8650459307713967  7.6263363772450008 10.4425963183210460   T   T   T
  8.2562856641863966  0.6644835829810462  1.1379593004574620   T   T   T
  7.7389267996608497  1.3687239500883230  5.7508438632990666   T   T   T
  7.1654330117985063  2.0363849057660612 10.3258650262388247   T   T   T
  9.6807158417039876  6.0368924945309725  1.1549148874932353   T   T   T
  9.1309960155833316  6.7229324645469406  5.7354385458893109   T   T   T
  8.6119336702050706  7.4025482505080227 10.3320857364962322   T   T   T
  4.9129285021595717  1.8630002623029509  0.9951144283647410   T   T   T
  4.3037061131583361  2.5640656257762440  5.6405655355299604   T   T   T
  3.8853463619882977  3.2332309093265499 10.1937642256778656   T   T   T
  6.3686686990552168  7.2276370902753468  1.0343247921500189   T   T   T
  5.8182695343627806  8.0002158724675869  5.5586987913861048   T   T   T
  5.2427461369132953  8.5958634923811879 10.1644056647526142   T   T   T
 10.5343760606875136  1.8437870161202972  1.0035745425715212   T   T   T
 10.0260384408456922  2.5212321395988342  5.6088258030290703   T   T   T
  9.4074262786404645  3.2692395267550580 10.2080619891586011   T   T   T
 11.9337324178377067  7.2482074987601353  1.0255928903381559   T   T   T
 11.3773187348530325  7.9505915494237733  5.5951508839577384   T   T   T
 10.8750869317251784  8.6011937546624715 10.1691551237377915   T   T   T
