Ca Mn Te O 
1.0
        9.6767911911         0.0000000000         0.0000000000
        0.0000000000         9.6599130630         0.0000000000
        0.0000000000         0.0000000000        11.3743448257
   Ca   Mn   Te    O
   11   16    8   48
Direct
     0.749999046         0.768793106         0.663005590
     0.081256755         0.740607619         0.654857099
     0.581256151         0.259391814         0.345142603
     0.250000894         0.231206805         0.336994469
     0.749999106         0.268793195         0.836994469
     0.918743253         0.759392381         0.154857129
     0.418743908         0.240608051         0.845142543
     0.081256725         0.240607664         0.845142901
     0.250000864         0.731206834         0.163005501
     0.581256151         0.759391963         0.154857382
     0.918743253         0.259392321         0.345142841
     0.913099408         0.586362779         0.385102391
     0.913099349         0.086362779         0.114897594
     0.083505571         0.412696868         0.112132490
     0.413099736         0.413637191         0.614898026
     0.583503067         0.087302245         0.612132192
     0.586900294         0.086362690         0.114898086
     0.916494370         0.087303266         0.612132549
     0.086900592         0.413637131         0.614897549
     0.583503127         0.587302208         0.887867868
     0.413099736         0.913637221         0.885101914
     0.083505586         0.912696898         0.387867361
     0.916494370         0.587303102         0.887867570
     0.086900592         0.913637221         0.885102510
     0.416496903         0.912697971         0.387867779
     0.586900294         0.586362779         0.385101974
     0.416496754         0.412697881         0.112132110
     0.749998331         0.445981681         0.608910620
     0.250012815         0.568851233         0.896576107
     0.749987125         0.931149364         0.396574259
     0.250001639         0.054018132         0.108910590
     0.749998331         0.945981801         0.891089618
     0.250013530         0.068851426         0.603424489
     0.749987900         0.431148648         0.103424266
     0.250001639         0.554018199         0.391089320
     0.105017968         0.618512511         0.013417028
     0.249998689         0.877719223         0.536047339
     0.750000477         0.020278698         0.720680594
     0.095832989         0.414255470         0.422920257
     0.595834434         0.085743591         0.922920346
     0.394977301         0.118511416         0.486585259
     0.904167116         0.585744619         0.577079773
     0.894981980         0.381487548         0.986582935
     0.750000477         0.426987439         0.420272559
     0.750000477         0.520278692         0.779319227
     0.900836408         0.489933908         0.207749233
     0.400831014         0.510067642         0.792253315
     0.249999523         0.979721308         0.279319286
     0.400830775         0.010067677         0.707746446
     0.750001073         0.244646177         0.178833395
     0.605022430         0.881488442         0.513415098
     0.904166996         0.085744508         0.922920167
     0.599169314         0.989932179         0.292253762
     0.249999523         0.573012590         0.579727530
     0.568829238         0.284462154         0.690706789
     0.431170762         0.215537935         0.190706760
     0.394977361         0.618511438         0.013414705
     0.249998733         0.377719402         0.963952601
     0.894982398         0.881487370         0.513417423
     0.099163353         0.510066032         0.792250633
     0.249998868         0.255353898         0.678833425
     0.404165626         0.414256424         0.422920316
     0.431170791         0.715537846         0.309293240
     0.599168897         0.489932388         0.207746685
     0.595834374         0.585743666         0.577079654
     0.099163257         0.010065940         0.707749367
     0.249999553         0.479721308         0.220680758
     0.900836289         0.989933848         0.292251021
     0.095833041         0.914255559         0.077079758
     0.750001073         0.744646013         0.321166694
     0.750001192         0.622280598         0.036047358
     0.931172013         0.784462154         0.809292734
     0.105017774         0.118512489         0.486582816
     0.068828069         0.215537891         0.190707177
     0.404165566         0.914256454         0.077079654
     0.249998912         0.755353928         0.821166515
     0.750000477         0.926987410         0.079727337
     0.249999523         0.073012568         0.920272529
     0.068828031         0.715537906         0.309292853
     0.750001311         0.122280605         0.463952750
     0.931172013         0.284462124         0.690707207
     0.568829238         0.784462094         0.809293151
     0.605022550         0.381488532         0.986585200
