Ca Co C  O 
1.0
       13.0168151855         0.0000000000         0.0000000000
       -1.6351658717        10.4961023545         0.0000000000
        2.0444259146         5.4733804410         7.8388387352
   Ca   Co    C    O
    7    8   16   48
Direct
     0.543732584         0.978488684         0.386094332
     0.043732557         0.978488684         0.386094332
     0.295462757         0.479304790         0.383041590
     0.795462728         0.479304790         0.383041590
     0.063786119         0.706214190         0.884529591
     0.311581254         0.204356804         0.888202429
     0.811581254         0.204356804         0.888202429
     0.478498489         0.976037502         0.994857669
     0.978498459         0.976037502         0.994857669
     0.305763632         0.064355120         0.510807753
     0.805763602         0.064355120         0.510807753
     0.228350878         0.474653721         0.995683432
     0.728350878         0.474653721         0.995683432
     0.056023832         0.562400401         0.511409461
     0.556023836         0.562400401         0.511409461
     0.343307734         0.056701820         0.207490817
     0.843307734         0.056701820         0.207490817
     0.094048999         0.556632996         0.205624953
     0.594048977         0.556632996         0.205624953
     0.435831368         0.990050673         0.746190548
     0.935831368         0.990050673         0.746190548
     0.186960503         0.491910726         0.744282603
     0.686960518         0.491910726         0.744282603
     0.192437455         0.249420851         0.297214717
     0.692437470         0.249420851         0.297214717
     0.444766283         0.750102818         0.295635045
     0.944766283         0.750102818         0.295635045
     0.203906700         0.080976844         0.740675628
     0.703906715         0.080976844         0.740675628
     0.453792274         0.579070389         0.741988301
     0.953792274         0.579070389         0.741988301
     0.424161434         0.110829167         0.066925682
     0.924161434         0.110829167         0.066925682
     0.175340429         0.611736298         0.064834535
     0.675340414         0.611736298         0.064834535
     0.426940829         0.009734064         0.607356131
     0.926940799         0.009734064         0.607356131
     0.178083196         0.509028614         0.606489420
     0.678083181         0.509028614         0.606489420
     0.027726065         0.870501339         0.232322738
     0.527726054         0.870501339         0.232322738
     0.276576161         0.369187981         0.231888816
     0.776576161         0.369187981         0.231888816
     0.275396615         0.209938884         0.605364978
     0.775396585         0.209938884         0.605364978
     0.025064670         0.708144367         0.606540680
     0.525064647         0.708144367         0.606540680
     0.122299515         0.260215372         0.217022702
     0.622299492         0.260215372         0.217022702
     0.375232309         0.760592341         0.214311227
     0.875232339         0.760592341         0.214311227
     0.196716800         0.954426408         0.747737527
     0.696716785         0.954426408         0.747737527
     0.446066797         0.452590495         0.748338342
     0.946066797         0.452590495         0.748338342
     0.244959459         0.048055649         0.202336833
     0.744959474         0.048055649         0.202336833
     0.495876223         0.548085809         0.199614227
     0.995876193         0.548085809         0.199614227
     0.471943885         0.881593704         0.844645917
     0.971943855         0.881593704         0.844645917
     0.219518691         0.380814105         0.847477615
     0.719518661         0.380814105         0.847477615
     0.367991209         0.019223936         0.344933927
     0.867991209         0.019223936         0.344933927
     0.118228123         0.517956674         0.343522489
     0.618228137         0.517956674         0.343522489
     0.412929833         0.078259550         0.796094477
     0.912929833         0.078259550         0.796094477
     0.167453691         0.584498107         0.788814723
     0.667453706         0.584498107         0.788814723
     0.176660225         0.116060823         0.436241895
     0.676660240         0.116060823         0.436241895
     0.428810358         0.616156578         0.433855206
     0.928810358         0.616156578         0.433855206
     0.147304475         0.079441786         0.867541492
     0.647304475         0.079441786         0.867541492
     0.397920758         0.577155769         0.869463623
     0.897920728         0.577155769         0.869463623
