Ca Mn V  P  O 
1.0
        9.8820772171         0.0000000000         0.0000000000
       -4.7596657429         8.6678161174         0.0000000000
        1.3366346086         2.2572955278         6.9456718752
   Ca   Mn    V    P    O
    3    2    2    8   28
Direct
     0.544224262         0.953365982         0.260118663
     0.293858051         0.202015072         0.735930443
     0.797566772         0.702045023         0.736422360
     0.266397506         0.256220877         0.259728998
     0.996009886         0.483075202         0.741355121
     0.758523762         0.750346661         0.268244922
     0.497832239         0.991911769         0.730805159
     0.350692689         0.543055356         0.498775303
     0.844370484         0.036917195         0.497948468
     0.671532333         0.437503159         0.106567442
     0.169736117         0.939130425         0.104847014
     0.312396199         0.583611012         0.896375895
     0.811571836         0.074860394         0.892501593
     0.208261892         0.903640509         0.503612041
     0.711697757         0.401505768         0.499564439
     0.182211161         0.103861481         0.076845720
     0.002838513         0.197061002         0.386166543
     0.197962493         0.050288144         0.523991346
     0.297261804         0.471746683         0.080504589
     0.503103554         0.287578583         0.169473961
     0.341485471         0.391893625         0.464184642
     0.205729157         0.556010246         0.476716280
     0.695295453         0.045077220         0.482864082
     0.550723732         0.242594734         0.613240838
     0.049541447         0.743429482         0.614947140
     0.650233388         0.069925964         0.912994981
     0.146004274         0.567594171         0.924208283
     0.337506443         0.500709951         0.729204059
     0.757779062         0.413311511         0.270159483
     0.252637506         0.916182339         0.273073137
     0.680184782         0.600486755         0.087000988
     0.512029111         0.702185214         0.385849535
     0.701432407         0.549351633         0.515207231
     0.860977113         0.408893853         0.538692296
     0.360088557         0.912431359         0.537924230
     0.962893724         0.242331833         0.830936551
     0.457903802         0.755116522         0.833898544
     0.283740997         0.955406845         0.921863735
     0.783926010         0.461030900         0.917149782
     0.786116183         0.959495425         0.080628633
     0.998471320         0.792683065         0.166212335
     0.837312818         0.887272179         0.458725333
     0.832962811         0.988535523         0.727358460
