V  Cr P  O 
 1.0000000000000000
     4.8865819999999998    0.0249180000000000    0.0548810000000000
     0.0129389999999990    8.0742189999999994   -0.0125880000000000
    -2.1953410000000000    0.0074880000000000    6.6558089999999996
 V   Cr  P   O  
   1   1   4  14
Cartesian
 -0.5323761058664407  4.0899286419381999  4.8348510858240186
  3.2309208751569227  0.0636820420637017  1.8473792726718017
  0.7868497192094102  1.4762288248310431  3.4256425047514152
  0.9391660561636396  6.2673124862402307  0.6495385329026242
  1.8067870031795117  2.2376538855394932  6.0369697969730334
  1.9087326137232998  5.5781950193829140  3.2610519163996674
 -1.6890491643544365  2.7316401528659409  5.5738550625438394
 -1.2006803623754925  5.3677469385871808  6.0330826128713237
 -0.2795742411730086  0.4423410404753929  3.1847626210613518
  0.1464555487980105  2.9141939299605157  3.5497687564004550
  0.6514140475087141  5.4166364895819603  4.1588246500895014
  0.8134873021176673  3.4520253362072566  6.0022904009672864
  1.3016161409568618  1.1937495217750422  4.9419754901781916
  1.4839389681972621  5.1980496047582019  1.7701533124767548
  1.8927587505503369  7.4385243272641990  0.5306124334454536
  1.9848527982519264  1.5307959565520983  2.5086530702516976
  2.4401487994184445  6.9874991982016121  3.2869516330866260
  2.9564842886339533  4.5212695417905957  3.6609268319222372
  4.0315281514580894  1.5084307349211723  0.6876765255748327
  4.4001117966293686  6.6376305112391671  1.0547111729948273
