Ca V  P  O                              
   1.00000000000000     
    10.5155344009000000    0.0000000000000000    0.0000000000000000
     0.0000067011000000    7.1892080306999997    0.0000000000000000
     0.0000045097000000    3.2146597663000001    7.8328516333999998
   Ca   V    P    O 
     3     4     8    28
Selective dynamics
Direct
  0.7875504287671624  0.2530654889682307  0.3924904846830134   T   T   T
  0.2004701277414337  0.6215946263605751  0.8899470349939976   T   T   T
  0.3046078519374432  0.6151126448647168  0.4107631816225338   T   T   T
  0.6130100054635296  0.7234518511445992  0.7367109798453192   T   T   T
  0.8877375583262397  0.7456993578473129  0.2451514985631026   T   T   T
  0.1059964345956969  0.2571840265966347  0.7540475937353937   T   T   T
  0.3930317151467418  0.2691929610917827  0.2575135709855574   T   T   T
  0.8609328975848880  0.9636078617632630  0.7877602201115798   T   T   T
  0.6330891014384482  0.9566456858279572  0.3078504197865056   T   T   T
  0.9059886533928949  0.6284770113121760  0.6822018354081754   T   T   T
  0.5901485536098751  0.6583787708512370  0.1650628862633593   T   T   T
  0.4072214068506664  0.3599206411572576  0.8225024868315393   T   T   T
  0.0933468810149666  0.3712793801685295  0.3156400761811909   T   T   T
  0.3555062836707110  0.0406752823123014  0.6987018860049611   T   T   T
  0.1471131396443113  0.0374990733772482  0.2023773567303297   T   T   T
  0.7279827685517560  0.9851833056101493  0.7024392665969303   T   T   T
  0.8711611970789838  0.8508360000301673  0.9790638851225192   T   T   T
  0.4198365971486029  0.8384384048269454  0.7335098438179279   T   T   T
  0.9451611217267324  0.8447341777882647  0.6899907464173645   T   T   T
  0.7784951778420625  0.9830414697513916  0.2783302181637147   T   T   T
  0.5937807015278825  0.8033629887930901  0.4817021026543309   T   T   T
  0.5979539366528729  0.6734350108164634  0.9843027518241756   T   T   T
  0.0800058490365195  0.8351409266133110  0.2493175953296981   T   T   T
  0.5722290216797715  0.8840545785529249  0.1653632043410347   T   T   T
  0.7776755898680996  0.5705244144047251  0.7723464335842226   T   T   T
  0.9023545436610907  0.6400701484145997  0.5001747028867772   T   T   T
  0.0229787899326882  0.5040276850893887  0.7781516008288121   T   T   T
  0.5252923857574592  0.4697242144062480  0.7359527513078969   T   T   T
  0.7134296596896034  0.5773993075917384  0.2691366661300993   T   T   T
  0.2823935077410121  0.4496878982628526  0.7151038037998860   T   T   T
  0.4701717873894788  0.5433999573184629  0.2584834291441201   T   T   T
  0.9637628525365961  0.4678114715930866  0.2488284076898306   T   T   T
  0.1256894202085914  0.3735281841832967  0.4905299758878108   T   T   T
  0.2093536532365382  0.4674527148131793  0.1983416697337290   T   T   T
  0.4178589272876487  0.1325662288743952  0.8316788349180732   T   T   T
  0.9266019748604069  0.1699221682201996  0.7186298128983680   T   T   T
  0.3810834345894857  0.3660645065671614  0.9978141162208339   T   T   T
  0.3731085064901234  0.2009591860848298  0.5193930898712742   T   T   T
  0.2143510847085663 -0.0030602395945588  0.7578534669579752   T   T   T
  0.0766191351350644  0.1456642720948899  0.3217586381963343   T   T   T
  0.5799630922616420  0.1676535698328530  0.2762192901572589   T   T   T
  0.1331185042609249  0.1795849827462680  0.0173427041049605   T   T   T
  0.2855408664785721 -0.0006731221543411  0.2719194580751529   T   T   T
 
             NaN             NaN             NaN
             NaN             NaN             NaN
             NaN             NaN             NaN
             NaN             NaN             NaN
             NaN             NaN             NaN
             NaN             NaN             NaN
             NaN             NaN             NaN
             NaN             NaN             NaN
             NaN             NaN             NaN
             NaN             NaN             NaN
             NaN             NaN             NaN
             NaN             NaN             NaN
             NaN             NaN             NaN
             NaN             NaN             NaN
             NaN             NaN             NaN
             NaN             NaN             NaN
             NaN             NaN             NaN
             NaN             NaN             NaN
             NaN             NaN             NaN
             NaN             NaN             NaN
             NaN             NaN             NaN
             NaN             NaN             NaN
             NaN             NaN             NaN
             NaN             NaN             NaN
             NaN             NaN             NaN
             NaN             NaN             NaN
             NaN             NaN             NaN
             NaN             NaN             NaN
             NaN             NaN             NaN
             NaN             NaN             NaN
             NaN             NaN             NaN
             NaN             NaN             NaN
             NaN             NaN             NaN
             NaN             NaN             NaN
             NaN             NaN             NaN
             NaN             NaN             NaN
             NaN             NaN             NaN
             NaN             NaN             NaN
             NaN             NaN             NaN
             NaN             NaN             NaN
             NaN             NaN             NaN
             NaN             NaN             NaN
             NaN             NaN             NaN
