Ca V  P  O 
 1.0000000000000000
    10.5155344009000000    0.0000000000000000    0.0000000000000000
     0.0000067011000000    7.1892080306999997    0.0000000000000000
     0.0000045097000000    3.2146597663000001    7.8328516333999998
 Ca  V   P   O  
   3   4   8  28
Selective dynamics
Cartesian
  8.2669017338542670  3.1449519367151395  3.0267619973002957   T   T   T
  2.1758046403701314  7.3580918729672611  6.9978970330330847   T   T   T
  3.1227250737770116  5.7549165274104093  3.1714982023668346   T   T   T
  6.4522274461382958  7.5966474399010107  5.8139373522628777   T   T   T
  9.3537346042950791  6.1547874210807043  1.9172041335121055   T   T   T
  1.0887046111191443  4.2740158909390855  5.8957397099957403   T   T   T
  4.1476685890433238  2.7407291923082293  2.0034156299708203   T   T   T
  9.0577535942058809  9.4382416587592122  6.1638783257674721   T   T   T
  6.7000918317087637  7.8882159179225830  2.4078001257224786   T   T   T
  9.5148921531093436  6.6950011729069026  5.3725721405939453   T   T   T
  6.1793923075241528  5.2840151903462518  1.3269739856559499   T   T   T
  4.2871581136618024  5.2413185964791245  6.4029017695467250   T   T   T
  0.9639488034017856  3.6541817593661885  2.4694228041869390   T   T   T
  3.7332534601151899  2.5460213578154600  5.4994925710347582   T   T   T
  1.5439701471053524  0.9040928067515406  1.5833744389963074   T   T   T
  7.6236634033037376  2.1387282869635214  5.5644215080011232   T   T   T
  9.2247510577194909  9.2428741090957587  7.6481327724218664   T   T   T
  4.3613437145788172  8.3807349153178894  5.8278342423092147   T   T   T
  9.9022626864999346  8.2829633612104736  5.3533335707633221   T   T   T
  8.2229874317796234  0.7490698611113039  2.1248744557413484   T   T   T
  6.3273580347340808  7.3961484007747522  3.7967282303903285   T   T   T
  6.2787303955505065  4.7920893859981266 -0.0833699678231127   T   T   T
  0.8843025806712511  6.7752948921693790  1.9874996221070484   T   T   T
  5.9992037040229427  6.9071536634922470  1.3266636152443980   T   T   T
  8.2147697837355338  6.5978789632017625  6.1639743080785827   T   T   T
  9.4197630123355118  6.1453335888140579  3.9698764023362090   T   T   T
  0.2815605672813792  6.1456231779294477  6.0866120697512747   T   T   T
  5.5074095446072890  5.7885480490843362  5.7083106985376419   T   T   T
  7.4840702444726315  5.0440864000003085  2.1247782524485577   T   T   T
  2.9612389811999829  5.4998048766135055  5.5812225651790852   T   T   T
  4.9263527667542037  4.7679409242927466  2.0581305071875233   T   T   T
 10.1280488140741856  4.1484872153016434  1.9332131715789571   T   T   T
  1.2847428904821088  4.2334638810070180  3.8402547099965023   T   T   T
  2.1874548805539176  3.9651335033326292  1.5676333548484089   T   T   T
  4.4416339448159832  3.6444657892590744  6.4966016304014458   T   T   T
  9.7080174246878670  3.5240243753945677  5.6018792431756701   T   T   T
  4.0235530363515126  5.8623990878956622  7.7638254875645085   T   T   T
  3.9157870809991620  3.0633512588877481  4.0878453638590750   T   T   T
  2.2492564327083859  9.6647196592168019  5.9810875531543832   T   T   T
  0.7863681469886610  2.0574052965699470  2.5162180967873917   T   T   T
  6.1817221328420047  2.1207238633435228  2.1391070181623886   T   T   T
  1.3509682370964093  1.3255295339602493  0.1392527080832658   T   T   T
  3.0018148253779335  8.0535730936887262  2.0958341968105501   T   T   T
