Ca Mn V  P  O 
 1.0000000000000000
     7.1483730000000003    0.0000000000000000    0.0000000000000000
     0.1731300000000000    8.1580110000000001    0.0000000000000000
     0.1151210000000000    0.5057820000000000   18.0516770000000015
 Ca  Mn  V   P   O  
   4   4   4  16  56
Cartesian
  1.1767986833242945  7.6038632780448934  2.1116847843730504
  6.5676054153111085  7.7517302618916393  6.6497385416089845
  4.7709878023530852  7.9674752740238937 11.1390824971063580
  6.4301515092889341  3.9139165466714640 15.8059053895293129
  4.4166166624754783  0.0932216367451176  2.2470315624717103
  2.6451427284737252  0.2210358356332690  6.8190852698849769
  0.8847296588411061  0.4016944035555491 11.3814369230700088
  6.3401790658856667  8.4895592587648636 15.8629048363487843
  1.1771676150130954  4.0352116079282183  2.2642211560408674
  6.5671521285041123  4.2099962511410380  6.7330121498001425
  4.7946043531089186  4.3622363237970516 11.2091576294925819
  3.0332216941641836  4.5572026768003440 15.7884232871162418
  6.3204195673312062  6.1417038550713121  0.4177236529355042
  3.4887669349348984  5.5335440374246465  0.5498138085666726
  6.3448309058481058  2.3016125193231911  4.0476105139163048
  2.0777500049082791  1.6504676163988554  4.0998652329667777
  4.5887527586396208  6.4264712391889756  4.9002863307635431
  1.7097793399183954  5.7521016730208876  4.9932700988053096
  4.6140568689556574  2.4364352061433152  8.5699048336726431
  7.0984566969264424  5.8801568138304825  9.5231670175357834
  0.3395412168688214  1.8027023039986687  8.6026422718658253
  2.8062269721976247  6.5401997895155475  9.4210366351621051
  5.6573419212146137  2.0031684115534483 13.1189858359307223
  2.7824066226823780  2.6939631570298439 13.0626360376255750
  5.3094178342060463  6.1494274280000063 13.9221154656026354
  1.0723364852212025  6.7617818269794894 14.0534860539280206
  3.9794817433255378  1.9300889978619400 17.5215210643400923
  1.1525568250270415  2.6134888341567759 17.6612810316707822
  5.0711003744632253  5.2344980379074180  0.7886612281604192
  6.1933490286170780  7.5175832372191342  1.1226409490378668
  4.1823686866507854  1.4866903898803887  0.9667910419949229
  3.1886183507189827  6.9343689318052579  1.1101881633861828
  2.8542115286163154  4.3929182823255655  1.3156870968453898
  6.6667505905179061  3.5450535842900712  3.2215451422620118
  0.9375102407623603  2.2844357154072448  1.1194963831092528
  0.3855398104700627  5.4443720159409850  1.0155349967723106
  5.2169521679292030  1.4466842773718347  3.5427151571979025
  4.8837646942957837  6.7542203149797837  3.4340262282462128
  2.6626081053036588  0.4992819385760815  3.2641265140707922
  2.3072045438404154  3.0402202792465665  3.5649551613253285
  1.3525822459327055  5.7391058058000599  3.4924044402568906
  6.2493679321599389  2.5674946581260749  5.5525014528647993
  5.7581196733255382  5.6663751202167907  5.5030483362411413
  0.4902071535571508  1.2620797866804134  3.8931556368063434
  3.3129586025566073  5.5053205875198357  5.0546391412904423
  4.4028870153257875  7.7155101871928604  5.7491565422596906
  2.4111888841730913  1.6275251868119143  5.5852172935267470
  1.4174981203125088  7.1460042239022430  5.5707830381456915
  1.1306462424822232  4.6152822290739417  5.7957278778573107
  6.7574063222111729  5.8888476882989167  8.0149428801040763
  4.9239429563859396  3.6803209463638358  7.7476910568437374
  5.9057805906541692  1.3954412883152707  8.3863003641888039
  3.4722363858876446  1.5697282685818053  8.1203072526784545
  3.0435883770562331  6.8358907226719126  7.9383556523428016
  0.9248322302434310  0.6263934711473979  7.7921672563230144
  6.8095211010915113  7.2601960148554099 10.1358488280347796
  0.5711781986395351  3.1701250062159723  8.0211373396762013
  6.5076911876888452  4.7195289133863536 10.2829978404050024
  4.5503006762678702  2.6780314309642748 10.0856339987405459
  4.0100893194690279  5.8028252378784000  9.9741430750144815
  1.5455360663324804  5.6032557429664838  9.6135019623085043
  2.6175400490463230  7.8306497101083012 10.2600214736215190
  0.6561576623598301  1.7730314683978767 10.0891516025271777
  6.2441698540620774  0.8403382036048644 12.3043417027121347
  5.9251175839453287  3.3856897137640360 12.5729454764735511
  4.9778763964393864  6.0496526548405649 12.4270875139497576
  3.1293293282951971  3.8908695526660511 12.1758393148904087
  4.0747261895336084  1.6518254472837499 12.9402040776912450
  6.9062974355993454  5.7757138812097750 14.0896612573285189
  1.6377644861499863  1.8374965985590235 12.6116477717722333
  6.0136818001863421  1.9787331608050815 14.6083001856318049
  1.3783221906688607  7.1021391758260721 12.5880856154612086
  5.0698661952412589  7.5282613019748936 14.4558385244632959
  4.7302525259830723  4.9901553573665520 14.7441011196094713
  2.6309875476848594  3.0774851026403716 14.5403121470826786
  2.1400431518186900  5.8769311933824833 14.6206763006255223
  7.0864768762843910  1.9163082466376595 17.0626670819200221
  6.5352635257225913  6.7488038797993850 16.9473794390910832
  0.7633619181166086  8.0030343177164838 14.8933198076026869
  4.5690122660302279  0.7357702752555328 16.7939472282604214
  4.2956177468936936  3.2884236683470940 16.8616034368788554
  3.3706997120410804  5.9857324426129086 17.0959495535072712
  1.3611304940942406  3.9374719059873358 16.8784002070369858
  2.3973197836421969  1.6413329190145380 17.3682773718345906
