Ca Mn P  O 
1.0
        8.4701919556         0.0000000000         0.0000000000
       -3.1630156029         7.8574404847         0.0000000000
        0.6262660703         0.9272146370         8.0482591486
   Ca   Mn    P    O
    1    2    8   24
Direct
     0.460132599         0.180945054         0.196360469
     0.818144202         0.095991306         0.791171432
     0.095983580         0.818136573         0.291214526
     0.758827567         0.447199970         0.845214009
     0.080349073         0.209351212         0.342259824
     0.209367082         0.080470651         0.842370033
     0.959511638         0.798668861         0.686116695
     0.798582256         0.959480762         0.186264724
     0.241632611         0.545017660         0.117378660
     0.447278470         0.758806050         0.345128208
     0.545066774         0.241589174         0.617312968
     0.200924963         0.347099990         0.190207481
     0.347131044         0.200989038         0.690128624
     0.013589263         0.715822816         0.546648443
     0.912168443         0.863267660         0.154205814
     0.374863654         0.894813597         0.305219769
     0.129494116         0.895963550         0.774772406
     0.649624169         0.384133935         0.007606894
     0.863209128         0.912266612         0.654232383
     0.894973099         0.374831736         0.805157244
     0.104523271         0.599970520         0.189785466
     0.847564936         0.651089787         0.834326327
     0.080748744         0.165513203         0.851878107
     0.555681407         0.282187283         0.434252679
     0.651118875         0.847606719         0.334200263
     0.715868175         0.013522744         0.046705350
     0.896131039         0.129519582         0.274815708
     0.384165823         0.649738193         0.507450819
     0.420983136         0.641630948         0.193174779
     0.165471613         0.080852717         0.351905525
     0.600016654         0.104463905         0.689829171
     0.641531110         0.421049505         0.693036914
     0.058048069         0.293560386         0.491963536
     0.282153696         0.555706322         0.934267282
     0.293634266         0.058022022         0.992068231
