Ca Cr P  O                              
   1.00000000000000     
     8.7485284804999992    0.0000000000000000    0.0000000000000000
     0.0000065873000000    9.8939285278000000    0.0000000000000000
    -0.0000058994000000    2.4026902022000001    6.9821501365999996
   Ca   Cr   P    O 
     3     4     8    28
Selective dynamics
Direct
  0.3317054586401393  0.3970116225932278  0.6705005847334270   T   T   T
  0.8637273559060827  0.3814834643842833  0.2312696857586994   T   T   T
  0.8627645590616280  0.8694017556474354  0.2270117425548651   T   T   T
  0.7443513191527185  0.1066627656027068  0.7634991799127751   T   T   T
  0.7399932443257083  0.6135632557101288  0.7763668786870229   T   T   T
  0.2686121260743022  0.3990989354099760  0.2122846155648619   T   T   T
  0.2660996810775896  0.8994017198180883  0.2216280434371608   T   T   T
  0.0603112959360776  0.1843468355052932  0.0115289675915282   T   T   T
  0.0648639437534057  0.6882027117792997  0.9925681689701933   T   T   T
  0.5697805863500175  0.3051169363110016  0.0020213135519511   T   T   T
  0.5603017181734865  0.8096528251600701  0.0037428317623162   T   T   T
  0.9646169833621441  0.3882881062628898  0.6217410936506650   T   T   T
  0.9670918710118644  0.8840112653082406  0.6087630508775306   T   T   T
  0.4806588320662336  0.1195295931974808  0.4000405969874110   T   T   T
  0.4832788895530667  0.6291605895674007  0.3938489287050738   T   T   T
  0.0843594270240711  0.2906955093375430  0.7862482030660637   T   T   T
  0.0812153337431539  0.7837332259830455  0.7690075806112540   T   T   T
  0.6020425806252421  0.2115581780320869  0.2226871355067572   T   T   T
  0.6075866897750026  0.7135284389329732  0.2332056733388490   T   T   T
  0.0718788813447105  0.2847421943040964  0.1337546538169143   T   T   T
  0.0800988639018196  0.7862780512962141  0.1180400559151927   T   T   T
  0.5883183020023699  0.2221524671133312  0.8610700556083364   T   T   T
  0.5808207490922910  0.7132966992900408  0.8831152851406873   T   T   T
  0.3553452821060027  0.2262863623567069  0.4124077993130440   T   T   T
  0.3469982764557710  0.7227572054669219  0.4048606356174247   T   T   T
  0.8369768936351292  0.2929072694231382  0.5819073846021776   T   T   T
  0.8284238824617679  0.7915504113565544  0.5822287778338778   T   T   T
  0.5878409272174782  0.0774311991708883  0.5708831401813158   T   T   T
  0.5684027406056871  0.5724006644108594  0.5856012761466388   T   T   T
  0.0704512622897904  0.4365531061536357  0.4463205786824336   T   T   T
  0.0552860081281457  0.9258135301814695  0.4181540496866920   T   T   T
  0.4236753436727739  0.4963424517848371  0.3476985283637309   T   T   T
  0.4230613725574944  0.9972549361161543  0.3371356602267256   T   T   T
  0.9167589685598366  0.0076798352872499  0.6746192230417060   T   T   T
  0.9077725121714978  0.5075421313435181  0.6896306914239133   T   T   T
  0.4051894845127972  0.3636184780080814  0.9825836563812625   T   T   T
  0.3997563258382694  0.8633273172495699  0.0141143432766802   T   T   T
  0.9002242846639186  0.1188202386970978  1.0189426689767715   T   T   T
  0.9008820326882476  0.6225381628608253  1.0184449262703545   T   T   T
  0.6917639669140546  0.4229247608303132  0.9797709779683159   T   T   T
  0.6881963440532262  0.9239573491255654  0.9728852275386723   T   T   T
  0.1934528616858004  0.0827415112260585  0.0368834914339098   T   T   T
  0.1899039118295395  0.5766683546677790  0.0212394432864372   T   T   T
 
             NaN             NaN             NaN
             NaN             NaN             NaN
             NaN             NaN             NaN
             NaN             NaN             NaN
             NaN             NaN             NaN
             NaN             NaN             NaN
             NaN             NaN             NaN
             NaN             NaN             NaN
             NaN             NaN             NaN
             NaN             NaN             NaN
             NaN             NaN             NaN
             NaN             NaN             NaN
             NaN             NaN             NaN
             NaN             NaN             NaN
             NaN             NaN             NaN
             NaN             NaN             NaN
             NaN             NaN             NaN
             NaN             NaN             NaN
             NaN             NaN             NaN
             NaN             NaN             NaN
             NaN             NaN             NaN
             NaN             NaN             NaN
             NaN             NaN             NaN
             NaN             NaN             NaN
             NaN             NaN             NaN
             NaN             NaN             NaN
             NaN             NaN             NaN
             NaN             NaN             NaN
             NaN             NaN             NaN
             NaN             NaN             NaN
             NaN             NaN             NaN
             NaN             NaN             NaN
             NaN             NaN             NaN
             NaN             NaN             NaN
             NaN             NaN             NaN
             NaN             NaN             NaN
             NaN             NaN             NaN
             NaN             NaN             NaN
             NaN             NaN             NaN
             NaN             NaN             NaN
             NaN             NaN             NaN
             NaN             NaN             NaN
             NaN             NaN             NaN
