Ca Cr P  O 
 1.0000000000000000
     8.7485284804999992    0.0000000000000000    0.0000000000000000
     0.0000065873000000    9.8939285278000000    0.0000000000000000
    -0.0000058994000000    2.4026902022000001    6.9821501365999996
 Ca  Cr  P   O  
   3   4   8  28
Selective dynamics
Cartesian
  2.9589586066554094  5.4651180056907274  4.7697037033557343   T   T   T
  7.4982840869684608  4.3551487272786904  1.6175413457498840   T   T   T
  7.4956524461372807  9.1535025659793199  1.5993771301550048   T   T   T
  6.5417507849408123  2.8979380992316983  5.3534583354803793   T   T   T
  6.5206477816956241  7.9404702318264198  5.4138370943701224   T   T   T
  2.3280687547151384  4.4722753367297470  1.5364544388295442   T   T   T
  2.3214792566747722  9.4286950420342048  1.5939161786940488   T   T   T
  0.4629914012001708  1.8051916200793292  0.0045827928792671   T   T   T
  0.5197359684184157  6.7743953694794463 -0.0977842702606308   T   T   T
  4.9928842022175317  5.4302975874901627  7.0281357175954060   T   T   T
  4.8924182257828370 10.4045459206456972  7.0273998250935570   T   T   T
  8.4446554484760448  5.3271533807211613  4.2898651040041971   T   T   T
  8.4774803248461748 10.2277094489414022  4.2199552048025524   T   T   T
  4.2573839834666005  2.1635306612410128  2.8318618955713810   T   T   T
  4.2897884984131318  7.1982537520907384  2.8319125184176626   T   T   T
  0.7300699670975923  4.7536396707477619  5.4394119424047540   T   T   T
  0.7209041750144789  9.6454040507205452  5.3462299919175900   T   T   T
  5.3157773858905095  2.6865546985012427  1.5899179165785402   T   T   T
  5.3238578186096666  7.6494316768432205  1.6539073945650906   T   T   T
  0.4233750146870497  3.0400641136337385  0.8986021840546361   T   T   T
  0.5568761782424485  8.0107317038309933  0.8159266270232652   T   T   T
  5.1259488928902623  4.2425740821104325  6.0634079954619438   T   T   T
  5.1138743438848717  9.1471911189939483  6.2114541545535351   T   T   T
  3.1128638524144079  3.1836795099603772  2.9368069940316830   T   T   T
  3.0536918713947778  8.0908105311040597  2.9042867616542667   T   T   T
  7.2825343032982444  4.3143243965901812  4.0945526270715709   T   T   T
  7.2514042601950983  9.2567681680106162  4.0726439002764590   T   T   T
  5.1951481576231142  2.2429746714284589  4.0312889386078128   T   T   T
  5.0955855883810663  7.2195414731480723  4.1474068082259077   T   T   T
  0.5674351924015181  5.3026893447358630  3.0336713787539966   T   T   T
  0.4845049120588609 10.1405319487355214  2.8871449949514152   T   T   T
  3.8513724975059866  5.7414161749850336  2.6079059760662400   T   T   T
  3.8439147306838342 10.6722720279152483  2.3982655550689684   T   T   T
  8.0258105507896023  1.7284991311303859  4.6300802200020801   T   T   T
  7.9859727145027071  6.6993776257520130  4.7251897342238989   T   T   T
  3.5606650362269892  5.9584472491930356  6.9031033573312000   T   T   T
  3.4883421745130665 10.9354432005515694  7.0822393447202305   T   T   T
  7.8285529008205854  1.0980625376074524 -0.0711630485688347   T   T   T
  7.8290039560673739  6.1308915162971491 -0.0492027275551285   T   T   T
  6.0666088970068230  6.5224170454746035  6.7918408828699519   T   T   T
  6.0056160021053664 11.4665915425754097  6.7755147588297993   T   T   T
  1.6488888560785802  0.8984964527845249  0.2175054542325777   T   T   T
  1.6072929001826293  5.7581690738935452  0.1445048273404449   T   T   T
