Ca Mn V  P  O 
1.0
        8.5339021683         0.0000000000         0.0000000000
        0.0000009783         7.3472118378         0.0000000000
        0.0000026772         3.2860149436         9.5006794768
   Ca   Mn    V    P    O
    3    2    2    8   28
Direct
     0.404507071         0.262795091         0.114574246
     0.904509187         0.737203777         0.885426283
     0.904570162         0.733552575         0.378913045
     0.488818884         0.738577962         0.889756620
     0.988817096         0.261423737         0.110242270
     0.992355943         0.266868323         0.609756052
     0.492356569         0.733131170         0.390245050
     0.191093102         0.499459177         0.805353820
     0.765466511         0.108535096         0.890601993
     0.270444423         0.898484886         0.605486631
     0.693668962         0.501675010         0.690637589
     0.193659350         0.498312980         0.309353679
     0.770446122         0.101508446         0.394511819
     0.265438199         0.891491294         0.109392464
     0.691125631         0.500544548         0.194654062
     0.283308595         0.827076197         0.981976151
     0.675601780         0.919764280         0.917007029
     0.050518733         0.467126280         0.904069066
     0.349710464         0.474299848         0.880975604
     0.697103679         0.613866687         0.793923378
     0.420930892         0.925700068         0.682282865
     0.163714826         0.729685545         0.717270434
     0.656712532         0.272107869         0.775710106
     0.920291066         0.086812139         0.816482782
     0.186024860         0.385877967         0.701721668
     0.849306762         0.514481902         0.611405909
     0.550694883         0.541691303         0.593602538
     0.297121584         0.837701440         0.477279037
     0.673613310         0.917923331         0.421710223
     0.173610374         0.082083017         0.578289151
     0.797121465         0.162299186         0.522721231
     0.050697420         0.458308369         0.406397492
     0.349312663         0.485517472         0.388597518
     0.686023295         0.614118516         0.298274904
     0.420299858         0.913189650         0.183519617
     0.156715602         0.727899075         0.224285975
     0.663713276         0.270312876         0.282729894
     0.920926929         0.074300297         0.317719489
     0.197105080         0.386141092         0.206083924
     0.849696398         0.525698662         0.119029947
     0.550503790         0.532878339         0.095920041
     0.175620168         0.080202483         0.082996346
     0.783308029         0.172924817         0.018025305
