Ca V  Cr Cu O 
1.0
       13.9813404083         0.0000000000         0.0000000000
       -2.9533142513        13.6673851827         0.0000000000
       -3.0751748062         2.4802612963        10.1880965557
   Ca    V   Cr   Cu    O
   15   32    8    8   96
Direct
     0.337837487         0.837833464         0.375054419
     0.158997267         0.159041122         0.124991089
     0.158997267         0.159041122         0.624991059
     0.158997267         0.659041107         0.124991089
     0.158997267         0.659041107         0.624991059
     0.658997297         0.159041122         0.124991089
     0.658997297         0.159041122         0.624991059
     0.658997297         0.659041107         0.124991089
     0.658997297         0.659041107         0.624991059
     0.337837487         0.337833464         0.375054419
     0.337837487         0.337833464         0.875054419
     0.837837458         0.337833464         0.375054419
     0.837837458         0.337833464         0.875054419
     0.837837458         0.837833464         0.375054419
     0.837837458         0.837833464         0.875054419
     0.081527576         0.318028897         0.310147226
     0.081527576         0.318028897         0.810147226
     0.081527576         0.818028927         0.310147226
     0.081527576         0.818028927         0.810147226
     0.581527591         0.318028897         0.310147226
     0.581527591         0.318028897         0.810147226
     0.581527591         0.818028927         0.310147226
     0.581527591         0.818028927         0.810147226
     0.175597265         0.415737569         0.041286770
     0.175597265         0.415737569         0.541286767
     0.175597265         0.915737569         0.041286770
     0.175597265         0.915737569         0.541286767
     0.675597250         0.415737569         0.041286770
     0.675597250         0.415737569         0.541286767
     0.675597250         0.915737569         0.041286770
     0.675597250         0.915737569         0.541286767
     0.318032384         0.081547372         0.439851463
     0.318032384         0.081547372         0.939851463
     0.318032384         0.581547379         0.439851463
     0.318032384         0.581547379         0.939851463
     0.818032384         0.081547372         0.439851463
     0.818032384         0.081547372         0.939851463
     0.818032384         0.581547379         0.439851463
     0.818032384         0.581547379         0.939851463
     0.415834725         0.175470993         0.208890885
     0.415834725         0.175470993         0.708890915
     0.415834725         0.675471008         0.208890885
     0.415834725         0.675471008         0.708890915
     0.915834725         0.175470993         0.208890885
     0.915834725         0.175470993         0.708890915
     0.915834725         0.675471008         0.208890885
     0.915834725         0.675471008         0.708890915
     0.037480399         0.037465531         0.375007421
     0.037480399         0.037465531         0.875007391
     0.037480399         0.537465513         0.375007421
     0.037480399         0.537465513         0.875007391
     0.537480414         0.037465531         0.375007421
     0.537480414         0.037465531         0.875007391
     0.537480414         0.537465513         0.375007421
     0.537480414         0.537465513         0.875007391
     0.462508947         0.462536722         0.125032052
     0.462508947         0.462536722         0.625032067
     0.462508947         0.962536693         0.125032052
     0.462508947         0.962536693         0.625032067
     0.962508917         0.462536722         0.125032052
     0.962508917         0.462536722         0.625032067
     0.962508917         0.962536693         0.125032052
     0.962508917         0.962536693         0.625032067
     0.523254812         0.388073802         0.385407448
     0.523254812         0.388073802         0.885407448
     0.523254812         0.888073802         0.385407448
     0.523254812         0.888073802         0.885407448
     0.023254812         0.388073802         0.385407448
     0.023254812         0.388073802         0.885407448
     0.023254812         0.888073802         0.385407448
     0.023254812         0.888073802         0.885407448
     0.033551417         0.182572067         0.375734627
     0.033551417         0.182572067         0.875734627
     0.033551417         0.682572067         0.375734627
     0.033551417         0.682572067         0.875734627
     0.533551395         0.182572067         0.375734627
     0.533551395         0.182572067         0.875734627
     0.533551395         0.682572067         0.375734627
     0.533551395         0.682572067         0.875734627
     0.098031797         0.499809653         0.070081338
     0.098031797         0.499809653         0.570081353
     0.098031797         0.999809623         0.070081338
     0.098031797         0.999809623         0.570081353
     0.598031819         0.499809653         0.070081338
     0.598031819         0.499809653         0.570081353
     0.598031819         0.999809623         0.070081338
     0.598031819         0.999809623         0.570081353
     0.173540831         0.326844424         0.216241091
     0.173540831         0.326844424         0.716241121
     0.173540831         0.826844454         0.216241091
     0.173540831         0.826844454         0.716241121
     0.673540831         0.326844424         0.216241091
     0.673540831         0.326844424         0.716241121
     0.673540831         0.826844454         0.216241091
     0.673540831         0.826844454         0.716241121
     0.182490036         0.033565946         0.374276876
     0.182490036         0.033565946         0.874276876
     0.182490036         0.533565938         0.374276876
     0.182490036         0.533565938         0.874276876
     0.682490051         0.033565946         0.374276876
     0.682490051         0.033565946         0.874276876
     0.682490051         0.533565938         0.374276876
     0.682490051         0.533565938         0.874276876
     0.193030626         0.315911800         0.971856117
     0.193030626         0.315911800         0.471856117
     0.193030626         0.815911770         0.971856117
     0.193030626         0.815911770         0.471856117
     0.693030596         0.315911800         0.971856117
     0.693030596         0.315911800         0.471856117
     0.693030596         0.815911770         0.971856117
     0.693030596         0.815911770         0.471856117
     0.326720595         0.173478931         0.533879936
     0.326720595         0.173478931         0.033879936
     0.326720595         0.673478961         0.533879936
     0.326720595         0.673478961         0.033879936
     0.826720595         0.173478931         0.533879936
     0.826720595         0.173478931         0.033879936
     0.826720595         0.673478961         0.533879936
     0.826720595         0.673478961         0.033879936
     0.312907457         0.464912832         0.092694275
     0.312907457         0.464912832         0.592694283
     0.312907457         0.964912832         0.092694275
     0.312907457         0.964912832         0.592694283
     0.812907457         0.464912832         0.092694275
     0.812907457         0.464912832         0.592694283
     0.812907457         0.964912832         0.092694275
     0.812907457         0.964912832         0.592694283
     0.315907031         0.193097115         0.278265893
     0.315907031         0.193097115         0.778265893
     0.315907031         0.693097115         0.278265893
     0.315907031         0.693097115         0.778265893
     0.815907001         0.193097115         0.278265893
     0.815907001         0.193097115         0.778265893
     0.815907001         0.693097115         0.278265893
     0.815907001         0.693097115         0.778265893
     0.388013572         0.523271143         0.364296734
     0.388013572         0.523271143         0.864296734
     0.388013572         0.023271143         0.364296734
     0.388013572         0.023271143         0.864296734
     0.888013601         0.523271143         0.364296734
     0.888013601         0.523271143         0.864296734
     0.888013601         0.023271143         0.364296734
     0.888013601         0.023271143         0.864296734
     0.464920878         0.312737405         0.157187685
     0.464920878         0.312737405         0.657187700
     0.464920878         0.812737405         0.157187685
     0.464920878         0.812737405         0.657187700
     0.964920878         0.312737405         0.157187685
     0.964920878         0.312737405         0.657187700
     0.964920878         0.812737405         0.157187685
     0.964920878         0.812737405         0.657187700
     0.499816954         0.098064311         0.179816067
     0.499816954         0.098064311         0.679816067
     0.499816954         0.598064303         0.179816067
     0.499816954         0.598064303         0.679816067
     0.999816954         0.098064311         0.179816067
     0.999816954         0.098064311         0.679816067
     0.999816954         0.598064303         0.179816067
     0.999816954         0.598064303         0.679816067
