Ca Ti O 
 1.0000000000000000
    14.6439819335999992    0.0000000000000000    0.0000000000000000
    13.3873346942999998    5.9351054458999997    0.0000000000000000
     6.3008069636000004    1.3340776753000001    7.1998947533999997
 Ca  Ti  O  
   3  16  32
Selective dynamics
Cartesian
 20.6273297341117825  4.3674501153061387  6.8711293165277079   T   T   T
 14.0060813223731593  2.9655249746167631  6.3633458398215934   T   T   T
 28.0994652174359203  5.9495346312843544  6.2757447875190646   T   T   T
  7.9154592048726231  1.6759499975303167  3.1739651438792573   T   T   T
 14.6077964196613834  4.6565019802555456  3.1675194130280739   T   T   T
 15.2415026930879005  1.6635271525600572  3.1675194130263598   T   T   T
 21.9293569790221810  4.6431299592045949  3.1300828275989070   T   T   T
 16.9918569150656005  3.5977069450842558  5.6524486628192214   T   T   T
 23.5819848376603218  6.5655126202955696  5.6766619591047673   T   T   T
 24.2192960285156822  3.5555118807877633  5.6766619591057257   T   T   T
 31.0973395719137500  6.5842782875944526  5.6421133215240058   T   T   T
  3.3013334251118995  0.6989954218040342  1.0844195316740948   T   T   T
 10.0625190064014891  3.6722380440219706  1.1091043076366618   T   T   T
 10.6873547461378422  0.7211584683617092  1.1091043076351184   T   T   T
 17.4708002825784590  3.6991142184923715  1.1109065111776040   T   T   T
 12.3268191110259480  2.6099727033086628  3.5989006574751632   T   T   T
 19.1046597721791436  5.6296111854665405  3.5481034598791732   T   T   T
 19.7468702097371782  2.5964714576561017  3.5481034598770758   T   T   T
 26.2900144693526343  5.5664173795799750  3.6090962328491929   T   T   T
  4.4712095266378009  0.9466947401452557  2.6537872232246200   T   T   T
 11.1742331832371988  3.9209266452479228  2.6768669498275113   T   T   T
 11.8044609345654088  0.9443807681768456  2.6768669498269233   T   T   T
 18.5043431332682751  3.9179475284952954  2.6789410403150429   T   T   T
  9.1737450351267427  1.9423684174359495  1.6631995193199853   T   T   T
 15.8731946469759944  4.8973498820763846  1.7662466103885179   T   T   T
 16.4959270271024572  1.9562044078093597  1.7662466103910104   T   T   T
 23.1801455647258301  4.9079609782199789  1.6597921499982253   T   T   T
 11.0090150157567521  2.3309524072968881  5.0713062069270478   T   T   T
 17.7278097702071555  5.2949499667994306  5.0337445547470479   T   T   T
 18.3525362427699434  2.3443864565766468  5.0337445547474511   T   T   T
 25.0138023245144012  5.2962033988298511  5.0841809429455447   T   T   T
 15.6679414101593029  3.3173926727531597  4.2463158430463457   T   T   T
 22.4747357040222688  6.3080450849551335  4.1152719640638988   T   T   T
 23.1027136817659766  3.3421248178712029  4.1152719640636182   T   T   T
 29.6948828867010128  6.2873343937170416  4.2848217539672762   T   T   T
 13.9010624306324129  2.9432891943894934  2.3486356321119732   T   T   T
 20.6201033815179571  5.9014712057279048  2.3179507793529033   T   T   T
 21.2424517253844733  2.9621395226497378  2.3179507793516230   T   T   T
 27.9021936090595517  5.9077660689106901  2.4800231864535816   T   T   T
  8.8286398046267109  1.8692988588134751  6.5054306907656843   T   T   T
 15.4367377478258376  4.7876912468758910  6.5264373135132061   T   T   T
 16.0524800069592501  1.8795598945238052  6.5264373135127833   T   T   T
 22.7823301851691618  4.8237310343445934  6.5136922864773048   T   T   T
  6.3546012067803268  1.3454675971612893  4.4222072037617401   T   T   T
 13.0423414650764169  4.2875601735405438  4.6478364341074014   T   T   T
 13.6608548845135385  1.3663407180922418  4.6478364341057006   T   T   T
 20.3699778890014720  4.3129606898743571  4.5130959126500718   T   T   T
 11.4462149240363154  2.4235212862987874  0.2528007655025393   T   T   T
 18.0594233401478128  5.3614727423162662  0.3076319267174477   T   T   T
 18.6826542092505967  2.4179729202562830  0.3076319267177510   T   T   T
 25.3677443626985699  5.3711439857061363  0.2607467289256314   T   T   T
