Ca Mn V  P  O 
1.0
        8.5008630753         0.0000000000         0.0000000000
        0.0000000000        10.0485792160         0.0000000000
        0.0000000000         0.2291831998        13.8688044683
   Ca   Mn    V    P    O
    7    4    4   16   56
Direct
     0.409221143         0.693300068         0.382623076
     0.909221232         0.306699902         0.617376983
     0.909221232         0.806699872         0.617376983
     0.403797626         0.439435482         0.880066752
     0.403797626         0.939435482         0.880066752
     0.903797567         0.060564499         0.119933262
     0.903797567         0.560564518         0.119933262
     0.989452660         0.198162928         0.379541397
     0.989452660         0.698162913         0.379541397
     0.489452541         0.301836938         0.620458603
     0.489452541         0.801836967         0.620458603
     0.992237329         0.446275860         0.885664463
     0.992237329         0.946275830         0.885664463
     0.492237389         0.053724173         0.114335537
     0.492237389         0.553724170         0.114335537
     0.191219911         0.192776754         0.999577641
     0.191219911         0.692776740         0.999577641
     0.771138012         0.204829693         0.804159522
     0.771138012         0.704829693         0.804159522
     0.271137536         0.295169502         0.195841059
     0.271137536         0.795169473         0.195841059
     0.691220582         0.307222992         0.000422359
     0.691220582         0.807222962         0.000422359
     0.193383008         0.443504006         0.497578919
     0.193383008         0.943503976         0.497578919
     0.763893604         0.454424709         0.302066535
     0.763893604         0.954424739         0.302066535
     0.263893992         0.045577507         0.697932422
     0.263893992         0.545577526         0.697932422
     0.693380654         0.056497443         0.502420843
     0.693380654         0.556497455         0.502420843
     0.850126088         0.131081998         0.511057913
     0.850126088         0.631081998         0.511057913
     0.549115360         0.143061757         0.520712376
     0.549115360         0.643061757         0.520712376
     0.688930273         0.175822586         0.057659451
     0.688930273         0.675822616         0.057659451
     0.423095286         0.211574420         0.206813812
     0.423095286         0.711574435         0.206813812
     0.280470073         0.190686092         0.669257164
     0.280470073         0.690686107         0.669257164
     0.159039766         0.223150134         0.113959357
     0.159039766         0.723150134         0.113959357
     0.678633809         0.222381964         0.710538089
     0.678633809         0.722381949         0.710538089
     0.659039676         0.276849896         0.886040568
     0.659039676         0.776849866         0.886040568
     0.178634137         0.277618140         0.289461523
     0.178634137         0.777618170         0.289461523
     0.923095345         0.288425654         0.793186128
     0.923095345         0.788425684         0.793186128
     0.780470252         0.309312403         0.330743194
     0.780470252         0.809312403         0.330743194
     0.188930318         0.324177563         0.942340434
     0.188930318         0.824177563         0.942340434
     0.049113937         0.356937438         0.479287446
     0.049113937         0.856937408         0.479287446
     0.850114822         0.378202379         0.010496140
     0.850114822         0.878202379         0.010496140
     0.350125432         0.368918240         0.488942146
     0.350125432         0.868918240         0.488942146
     0.550203264         0.397756130         0.017781064
     0.550203264         0.897756100         0.017781064
     0.695336759         0.424504220         0.558387816
     0.695336759         0.924504220         0.558387816
     0.294693321         0.438017458         0.162620202
     0.294693321         0.938017488         0.162620202
     0.420601130         0.468699276         0.710596561
     0.420601130         0.968699276         0.710596561
     0.670018256         0.479639590         0.209232181
     0.670018256         0.979639590         0.209232181
     0.160858363         0.472224087         0.613572419
     0.160858363         0.972224116         0.613572419
     0.170017719         0.020360142         0.790768385
     0.170017719         0.520360112         0.790768385
     0.660858572         0.027775770         0.386427671
     0.660858572         0.527775764         0.386427671
     0.794693232         0.061983168         0.837379575
     0.794693232         0.561983168         0.837379575
     0.920600653         0.031300433         0.289403498
     0.920600653         0.531300426         0.289403498
     0.195336580         0.075495027         0.441612482
     0.195336580         0.575495005         0.441612482
     0.050203618         0.102244079         0.982218981
     0.050203618         0.602244079         0.982218981
     0.350115001         0.121797539         0.989503860
     0.350115001         0.621797562         0.989503860
