Ca Ti Mn Si O  F 
 1.0000000000000000
     9.9872684479000000    0.0000000000000000    0.0000000000000000
     0.0000000000000000   10.9652748108000004    0.0000000000000000
     0.0000000000000000   -4.3438069094999996   13.5038650633999993
 Ca  Ti  Mn  Si  O   F  
  11   8  12  16  64   8
Selective dynamics
Cartesian
  1.6788512676065963  1.9022102521414144  6.2723900219608906   T   T   T
  6.0106020672376301 -2.1547563904855318 13.2987087520237957   T   T   T
  3.9866736809153229  8.7650404326997329  0.2513786287144264   T   T   T
  8.9675104237219756  5.4711149050009471  6.6184601738914655   T   T   T
  3.6720744682543685  0.6951369103312419 12.3749696817511197   T   T   T
  6.3348908213085586  5.8611786087713931  1.2229295983074495   T   T   T
  8.7252785093146006 -1.6168436502797872  7.8712351876836193   T   T   T
  1.3282464450803799  8.3291708307178105  5.5668492874433451   T   T   T
  1.2201149464241503  6.1011462325640480 12.2890799662173436   T   T   T
  8.7165343204793668  0.4577838705919152  1.1543619860797261   T   T   T
  6.1303888506686324  3.7342997666835762  7.8276734684053553   T   T   T
  4.0915835894480619  5.2785442527460127 10.1491903367269458   T   T   T
  5.8838649205837399  1.3764908662223065  3.3644532313186408   T   T   T
  9.0129663988247124  4.7259857845191737 10.1086620551926316   T   T   T
  0.9364419118005599  1.9200023816424960  3.2796078871348473   T   T   T
  0.9244477385160091 -0.3062954304156130 10.3021440959175816   T   T   T
  9.0961006091753998  6.9659484841412525  3.2366865464891150   T   T   T
  5.9153167520370369 -0.6613771581740417  9.9156227911351085   T   T   T
  4.0886852636643445  7.2899565207483263  3.5843010238722650   T   T   T
  3.9966178195319446  6.6976690426887453  6.9592731877665708   T   T   T
  5.9719952363819804  0.0084795541212485  6.5168460757304141   T   T   T
  9.0244029775876378  3.1878436697167141 13.3114531705450201   T   T   T
  1.0228946034458013  3.3817765448890724  0.2158918623612839   T   T   T
  3.5966404007582322  1.7675638294553679  9.2193610717287537   T   T   T
  6.2819147817903520  4.6566998761607046  4.4124582084257735   T   T   T
  8.5928001025453593 -2.8268775322651072 11.0541184348752406   T   T   T
  1.4136502776460904  9.5454339332739018  2.4544032042869008   T   T   T
  1.4468982192315867  7.4307789369784114  9.1191920213973940   T   T   T
  8.5978908362321160 -0.6556710277976756  4.3730907376535590   T   T   T
  6.4354283877799476  2.6263371712437853 11.0669843348215711   T   T   T
  3.5623520513838804  3.9352337776837016  2.5073121828674227   T   T   T
  3.3376814310067813 -2.3456184688279360 11.5649402556763832   T   T   T
  6.6888965996366352  8.9279168876882231  1.9200190081807651   T   T   T
  8.3806574819577104  1.3768902196425661  8.6717104287107762   T   T   T
  1.6573994810687358  5.2154542738287288  4.8401031636282692   T   T   T
  6.7274996097782545  6.8095001956433334  8.6434738371011530   T   T   T
  3.3430658393807291 -0.1983264754986687  4.7661081176909779   T   T   T
  1.7343313159241565  3.1547162901022525 11.6030439955217233   T   T   T
  8.2026412741618131  3.4336532367670083  1.9191464185222458   T   T   T
  1.6917784900258681  4.3984408760242628  8.0243180942839327   T   T   T
  8.3826081707934001  2.2765621913723355  5.6107689753547954   T   T   T
  6.6706685988655368  5.6298142085422445 12.3432587054965524   T   T   T
  3.3016959691393648  0.9916838998446309  1.1198455062287960   T   T   T
  3.2740235873813903 -1.0832435420213125  7.8612078493122963   T   T   T
  6.7192086915802847  7.8363861015062595  5.5834378631602863   T   T   T
  8.2662668510246711  0.1423449514921939 12.3374404104382034   T   T   T
  1.7342093352491337  6.4737070010497950  1.1871266127898186   T   T   T
  5.2073631698554612  2.9421885628658835  3.6841941311135233   T   T   T
  4.8164728621257531  3.6996283364472782  9.7556445076579497   T   T   T
  0.1819004264431890  0.3224075944753384  2.9108694625772755   T   T   T
  9.6923285696579136  6.3127598629057244 10.5726711246001681   T   T   T
  2.2247481294928835  1.7823154063507316 10.9067861837860125   T   T   T
  7.7178993415423900  4.7233904522947157  2.7634365044924873   T   T   T
  7.2488403566046244 -2.8113757330311508  9.3801104863891123   T   T   T
  2.8285404779291867  9.3686914756735327  4.1086612365303443   T   T   T
  0.1918786629326444 -1.8767188967003665  9.7791491576188694   T   T   T
  9.8484494644609128  8.5245079636261156  3.6698278926242298   T   T   T
  5.2018965341853010  0.8859468465080237 10.4907394211064311   T   T   T
  4.8041523841264819  5.7263506700493618  3.0725265555483006   T   T   T
  5.1542861931461870  6.3834298983263507  8.8034840544565967   T   T   T
  4.9254232731228997  0.1584305053967328  4.6263655673712591   T   T   T
  0.1818601229781829  3.6631846886692023 11.4745269963633252   T   T   T
  9.7653582684661533  2.9518307469022269  1.9610993303654640   T   T   T
  2.2854032919875844 -1.0830413863993207 11.7351383031638878   T   T   T
  7.7383527512819272  7.6532493368960655  1.7707599898638540   T   T   T
  7.3007625305183250  0.1122115549756701  8.5709025587333336   T   T   T
  2.7310263497844152  6.4764792949043919  4.9672602190604156   T   T   T
  7.3751133951283423 -3.8767728788094069 12.5728933973575110   T   T   T
  2.5868122658326729 10.4958858368377683  0.8959426572236882   T   T   T
  2.3391649434567761  2.9373120023862609  8.0760706636592818   T   T   T
  7.6686689087764028  3.7332056515502652  5.8550502840724521   T   T   T
  7.6331365092541112  5.4438490832502620  8.8529980464047249   T   T   T
  2.3959742506988988  1.0507993466112611  4.2923509574870469   T   T   T
  2.6950937368578125  4.4857291977289444 11.3800855021490186   T   T   T
  7.2717538033596583  2.0697587144180782  2.0416515842937524   T   T   T
  2.7231868417079155  8.3596581525275209  7.5813292066078954   T   T   T
  7.2668287988466567 -1.6104281429255838  5.8534581315126921   T   T   T
  7.7339141855595175  1.6795336565556420 12.5272712499861267   T   T   T
  2.3096756517498864  4.9646633255150494  0.9443660471318697   T   T   T
  3.7204730917277038 -2.7787658238739024 13.1237955328701439   T   T   T
  6.3354016020237038  9.3528658835061957  0.3434313751820353   T   T   T
  8.8108745303618718  1.6879737208214491  7.1007821533056159   T   T   T
  1.3759499440306391  4.7122295609179199  6.4104680355677912   T   T   T
  4.7963816600644122 -1.7715164727469017 11.0847204838654196   T   T   T
  5.2213207414851226  8.3513655068131385  2.3699658878628234   T   T   T
  9.7393234846603001  0.7891218898660330  9.3474792625645264   T   T   T
  0.1983869761504109  5.9103089313079007  4.4856198521349144   T   T   T
  1.9986618596851122  2.9469811476254328 13.2515903024420929   T   T   T
  7.8859699338613813  3.7973796844611574  0.3122618483398909   T   T   T
  7.0149159358482809  7.0195257283334618  7.0078496083703845   T   T   T
  3.0245618936197087 -0.2285849951828083  6.4296381795657691   T   T   T
  9.8691033024639179 -0.0426253901842920 12.0809994193449892   T   T   T
  0.1305010390552291  6.5674704806611892  1.5050490430136543   T   T   T
  4.8811622022193797 -1.0108369507924007  8.2063049729843449   T   T   T
  5.1178429180505605  7.6977998833466401  5.2643483343804380   T   T   T
  2.7096443905979850  7.3222159173477488 10.8292533380881206   T   T   T
  7.3185770642018051 -0.7530238667335833  2.6609736025230979   T   T   T
  7.7447332859444433  2.6995096840788730  9.3649902506958327   T   T   T
  2.0755638971611403  3.9183340450961341  3.9881426925665937   T   T   T
  2.6412400600418597  5.5908617546101915  8.6294877079556684   T   T   T
  7.3848747026980845  1.1988818833643802  4.8658198239370005   T   T   T
  7.6062774157973658  4.4993676176508366 11.6054400638038135   T   T   T
  2.3062908565169389  2.1493055591172783  1.7387295553840507   T   T   T
  5.1669299940198465  5.7074999600823659 11.6976306595711783   T   T   T
  4.7716755761529894  0.9101947422398357  1.8220422697657910   T   T   T
  0.1553191406015256  4.4560145076364019  8.5928016538610077   T   T   T
  9.8427560318067329  2.3458594096759531  4.8551838751870422   T   T   T
  2.4356469691875211 -0.2409374205078351  8.9909583923994987   T   T   T
  7.6227804305079170  6.9395625694147256  4.5444597710334875   T   T   T
  7.3742081595951801 -0.8264130695222488 11.3407435722196670   T   T   T
  2.6302068456923271  7.4249752017161583  2.1878922368267144   T   T   T
  0.1042265394856279 -2.9598999643372084 12.9857568498575109   T   T   T
  9.8702255170577864  9.5218314302569222  0.4889488286701747   T   T   T
  5.0601508898658718  1.8105069607653625  7.4074222695100591   T   T   T
  5.0224711351473417  4.8766418681555725  6.2489847614466214   T   T   T
  9.9937350518325250  7.4264594095803078  7.2920524483650206   T   T   T
  0.0358463997100923 -0.8329881893929223  6.1141556960841346   T   T   T
  4.9910510955078591  2.4827287876011535 13.0383650544724272   T   T   T
  4.9898935026922917  4.0979424197094385  0.5404190043941308   T   T   T
