Ca V  O                                 
   1.00000000000000     
    10.9751804643126523    0.0015279680804356    0.0129702026503560
     0.0012679022912802   10.4695454878749761   -0.1648729337820320
     3.6752522792308957   -6.4249755432355196   14.8689110233899111
Ca V  O              
11              36              90
Direct
  0.6649794229190810  0.6316701111415857  0.4741368171938334
  0.0157182331244497  0.6505500977734482  0.4824128394989845
  0.0109100634077691  0.6838752142141106  0.9657079050621018
  0.3440376800441614  0.6898560249049583  0.9707823034754122
  0.6827824040102239  0.6166021221038926  0.9541359446639590
  0.3233848406754873  0.3659272759407355  0.0349688210957943
  0.3278046336698761  0.4147525406001796  0.5301553939639683
  0.6538759169940790  0.3185657006909874  0.0364470968809783
  0.6582926507083142  0.3343076950621464  0.5233998146939065
  0.9861665464999850  0.3652071811573759  0.0327945883029860
  0.9925919042311609  0.3480578817868595  0.5258309502424354
  0.2235063481148665  0.1065142756823708  0.3385161871420261
  0.2221665094958402  0.1253419540082967  0.8342297791698022
  0.5476091391666883  0.1031013667937021  0.3421258826973719
  0.5533714148379457  0.1197056526122273  0.8360693103911487
  0.8886882362251864  0.1012562450261731  0.3339829706441556
  0.8892393685104760  0.1203981975723870  0.8356316927354027
  0.1102344917031433  0.8814263154221803  0.1685216065225135
  0.1186078673607187  0.8991133146448300  0.6591787339332497
  0.4481677277843660  0.8752460140570097  0.1654173756849432
  0.4453087036483507  0.8982627209090636  0.6591706861681960
  0.7753719487729661  0.8750469459593644  0.1650552597291063
  0.7787639271390020  0.8958288310847352  0.6624475894268393
  0.0411420397092889  0.8958997571771091  0.3780301192348430
  0.0476070905807789  0.8990957917833674  0.8620437979089454
  0.3711275754394485  0.8863062167665302  0.3789352152837208
  0.3769438442998149  0.9007925489731394  0.8645868165311539
  0.7052843054601298  0.9014265302650021  0.3819122873245092
  0.7030526522887324  0.9305016871163824  0.8922232599643992
  0.2980737429108374  0.0695516307777420  0.1100965533845700
  0.2957166610274536  0.1095762202678252  0.6152629942096141
  0.6215556555937477  0.0996978264265989  0.1374621202418202
  0.6262781041030113  0.1038109867277389  0.6233025006539870
  0.9632514665632176  0.0657734661137748  0.1067230837532842
  0.9607661915534625  0.0999999280553889  0.6199036352816503
  0.0919286321152987  0.5844121399693120  0.2200686130292182
  0.0939810792448502  0.5948530098642607  0.7099307654664186
  0.4253180539490958  0.5825412881508064  0.2249643731256144
  0.4348483934778172  0.5964379298120382  0.7111657216923388
  0.7557615517508828  0.5855635163699973  0.2252390528733909
  0.7619944343283303  0.5969372245228133  0.7130217860186018
  0.2332856240946671  0.3979833885341441  0.2884414128527127
  0.2428786280408228  0.4171153822270774  0.7736160725592951
  0.5654252126134515  0.4046312252599358  0.2920184428884281
  0.5689254917931206  0.4164727451206220  0.7841295278878890
  0.9033903553207733  0.4056629695327073  0.2939703535071693
  0.9096314652132556  0.4137842976219315  0.7816137320041068
  0.9990448687653584  0.0052054453614599  0.5006229799495967
  0.0025968521702449  0.9473450060016447  0.9929630207453447
  0.3324989826239696  0.9944114382473317  0.4998904293014969
  0.3351882290756504  0.9551723155267942  0.9944260245609416
  0.6675773812621886  0.0153773780193043  0.5021339104495569
  0.6649536733600220  0.0463001575886347  0.0060522372386356
  0.0650734056961512  0.0461134863355285  0.3141448578093920
  0.0603733483797077  0.0690172553068573  0.8178242012288491
  0.3939207901939726  0.0412994653604084  0.3139819653225394
  0.3942532438031202  0.0682692038481168  0.8188568956821402
  0.7221848013678309  0.0519310007383672  0.3237373608306209
  0.7280359146404789  0.0597085388428865  0.8170123842710780
  0.2760407553721986  0.9273107100476853  0.1763472828399370
  0.2729106212424779  0.9625803008146053  0.6852346841249835
  0.6051711236187621  0.9359219820571064  0.1878533984991680
  0.6037787163663639  0.9582727141493027  0.6837267907125092
  0.9355107693389534  0.9386904844914276  0.1855055688506009
  0.9425168891219623  0.9528271851228471  0.6793386167945193
  0.1208819635104794  0.0438643385607482  0.1339094195820320
  0.1223006186960753  0.0739506448972769  0.6351703457280103
  0.4566287697200617  0.0422187170963116  0.1340631580665791
  0.4555142008121011  0.0728331120011956  0.6343930043191602
  0.7884973312753197  0.0407578684368669  0.1337158678149915
  0.7883429028863164  0.0602379536677925  0.6364509573172555
  0.2098962825602431  0.9376787306287914  0.3671509283785716
  0.2114046104895473  0.9595332850666924  0.8649477239807779
  0.5425668809440519  0.9313495259834004  0.3677322105640191
  0.5457321064521589  0.9504257397373537  0.8645772134274102
  0.8795440336971939  0.9394124740722698  0.3642279965887315
  0.8788848823805343  0.9519431759660484  0.8644892624561233
  0.1943370432096382  0.2367882283976720  0.4425689487919120
  0.1870232802497212  0.2594336572008638  0.9393676569001250
  0.5043408332309247  0.2306598526466143  0.4473389804094750
  0.5173168706471237  0.2458192131256577  0.9435299309728136
  0.8572698061506644  0.2312728781084595  0.4404018033144380
  0.8524320455876905  0.2479945743549047  0.9425596703624496
  0.1419829436688963  0.7507006386892295  0.0621445498516656
  0.1551957058586895  0.7790343008642702  0.5550285155505590
  0.4928789753571836  0.7469888812717176  0.0591020518268819
  0.4847503489748112  0.7774395396800615  0.5552829087956322
  0.8063615074384755  0.7460754877219181  0.0594109901527450
  0.8097331794559167  0.7640398883552603  0.5579018110965027
  0.0776072635890938  0.4191692041766946  0.2573236495356629
  0.0869727725798675  0.4343623470454913  0.7450443848543620
  0.4050135259414216  0.4267788608804418  0.2690813698554233
  0.4172663535339659  0.4362915154359798  0.7468857908200133
  0.7448575611492650  0.4381501585138943  0.2771416112356113
  0.7389070549709658  0.4552606921996036  0.7839513206877515
  0.2514451173786015  0.5509696673775077  0.2383224217897993
  0.2662401827569875  0.5546029663367646  0.7059431959782373
  0.5802249136360600  0.5660743384537685  0.2567359420069111
  0.5927703095234900  0.5751479254370545  0.7437079708455970
  0.9190419931846909  0.5557538733079762  0.2405546953969069
  0.9139634843410357  0.5693796573900186  0.7382453338728566
  0.2434100097056825  0.2155606549038533  0.2714983732436641
  0.2451844246070349  0.2406877877689398  0.7669695908711609
  0.5719674286189109  0.2083935322143404  0.2761641750031810
  0.5749078044581690  0.2334559162750453  0.7754859458437333
  0.9058328345135539  0.2271004422105403  0.2750953979422762
  0.9084599586072067  0.2319193975485708  0.7735151611075497
  0.0890855561211444  0.7688949550735279  0.2329001590107193
  0.0936796378337654  0.7909682224638183  0.7229663638511793
  0.4213774506488730  0.7657661843910034  0.2315426377670638
  0.4256240920178732  0.7901909411189176  0.7236159109780689
  0.7552275199443080  0.7688533943400594  0.2333395903040037
  0.7597894402868078  0.7703074370990054  0.7236165765528747
  0.1300457553928616  0.5045439651659085  0.1040784233453092
  0.1105383207433587  0.5258296629423704  0.5923617702391855
  0.4752700937049684  0.4926721033439387  0.1097810005810273
  0.5014939851490782  0.5223087208482990  0.5945844062050043
  0.7845358270899219  0.4938146866470315  0.1106411929298935
  0.7973199811424700  0.5000129598849343  0.5985352173481892
  0.1823781794541790  0.4751226009631377  0.4005014157163433
  0.2045616456882603  0.5193862738503602  0.8862701287581076
  0.5328257455007137  0.4661406139693210  0.4064094416145196
  0.5085047192277197  0.5025348917583712  0.8994304395760534
  0.8744926673406411  0.4911397276716207  0.4087025844631652
  0.8924149675246015  0.5006863173192598  0.8971232963230201
  0.2975862616546622  0.2312576365947892  0.1113473601267457
  0.2978498909167157  0.2662728081376450  0.6104175391616762
  0.6214773532851455  0.2754823937168593  0.1548738298068626
  0.6326097738960006  0.2752365451194984  0.6377573022034608
  0.9613852104886413  0.2242979188461398  0.1047980500091126
  0.9451487076742009  0.2706924966265428  0.6331072633820271
  0.0403356638938037  0.7314838632019229  0.3749336133939316
  0.0595562907927708  0.7207990733008113  0.8431544706592599
  0.3662419125418916  0.7268231808658991  0.3748020343301618
  0.3761073720509913  0.7234362121947226  0.8465918125759473
  0.7127390826172655  0.7389772947036288  0.3805271670434351
  0.7046217411106944  0.7704776623876538  0.8923508253953966
 
  0.00000000E+00  0.00000000E+00  0.00000000E+00
  0.00000000E+00  0.00000000E+00  0.00000000E+00
  0.00000000E+00  0.00000000E+00  0.00000000E+00
  0.00000000E+00  0.00000000E+00  0.00000000E+00
  0.00000000E+00  0.00000000E+00  0.00000000E+00
  0.00000000E+00  0.00000000E+00  0.00000000E+00
  0.00000000E+00  0.00000000E+00  0.00000000E+00
  0.00000000E+00  0.00000000E+00  0.00000000E+00
  0.00000000E+00  0.00000000E+00  0.00000000E+00
  0.00000000E+00  0.00000000E+00  0.00000000E+00
  0.00000000E+00  0.00000000E+00  0.00000000E+00
  0.00000000E+00  0.00000000E+00  0.00000000E+00
  0.00000000E+00  0.00000000E+00  0.00000000E+00
  0.00000000E+00  0.00000000E+00  0.00000000E+00
  0.00000000E+00  0.00000000E+00  0.00000000E+00
  0.00000000E+00  0.00000000E+00  0.00000000E+00
  0.00000000E+00  0.00000000E+00  0.00000000E+00
  0.00000000E+00  0.00000000E+00  0.00000000E+00
  0.00000000E+00  0.00000000E+00  0.00000000E+00
  0.00000000E+00  0.00000000E+00  0.00000000E+00
  0.00000000E+00  0.00000000E+00  0.00000000E+00
  0.00000000E+00  0.00000000E+00  0.00000000E+00
  0.00000000E+00  0.00000000E+00  0.00000000E+00
  0.00000000E+00  0.00000000E+00  0.00000000E+00
  0.00000000E+00  0.00000000E+00  0.00000000E+00
  0.00000000E+00  0.00000000E+00  0.00000000E+00
  0.00000000E+00  0.00000000E+00  0.00000000E+00
  0.00000000E+00  0.00000000E+00  0.00000000E+00
  0.00000000E+00  0.00000000E+00  0.00000000E+00
  0.00000000E+00  0.00000000E+00  0.00000000E+00
  0.00000000E+00  0.00000000E+00  0.00000000E+00
  0.00000000E+00  0.00000000E+00  0.00000000E+00
  0.00000000E+00  0.00000000E+00  0.00000000E+00
  0.00000000E+00  0.00000000E+00  0.00000000E+00
  0.00000000E+00  0.00000000E+00  0.00000000E+00
  0.00000000E+00  0.00000000E+00  0.00000000E+00
  0.00000000E+00  0.00000000E+00  0.00000000E+00
  0.00000000E+00  0.00000000E+00  0.00000000E+00
  0.00000000E+00  0.00000000E+00  0.00000000E+00
  0.00000000E+00  0.00000000E+00  0.00000000E+00
  0.00000000E+00  0.00000000E+00  0.00000000E+00
  0.00000000E+00  0.00000000E+00  0.00000000E+00
  0.00000000E+00  0.00000000E+00  0.00000000E+00
  0.00000000E+00  0.00000000E+00  0.00000000E+00
  0.00000000E+00  0.00000000E+00  0.00000000E+00
  0.00000000E+00  0.00000000E+00  0.00000000E+00
  0.00000000E+00  0.00000000E+00  0.00000000E+00
  0.00000000E+00  0.00000000E+00  0.00000000E+00
  0.00000000E+00  0.00000000E+00  0.00000000E+00
  0.00000000E+00  0.00000000E+00  0.00000000E+00
  0.00000000E+00  0.00000000E+00  0.00000000E+00
  0.00000000E+00  0.00000000E+00  0.00000000E+00
  0.00000000E+00  0.00000000E+00  0.00000000E+00
  0.00000000E+00  0.00000000E+00  0.00000000E+00
  0.00000000E+00  0.00000000E+00  0.00000000E+00
  0.00000000E+00  0.00000000E+00  0.00000000E+00
  0.00000000E+00  0.00000000E+00  0.00000000E+00
  0.00000000E+00  0.00000000E+00  0.00000000E+00
  0.00000000E+00  0.00000000E+00  0.00000000E+00
  0.00000000E+00  0.00000000E+00  0.00000000E+00
  0.00000000E+00  0.00000000E+00  0.00000000E+00
  0.00000000E+00  0.00000000E+00  0.00000000E+00
  0.00000000E+00  0.00000000E+00  0.00000000E+00
  0.00000000E+00  0.00000000E+00  0.00000000E+00
  0.00000000E+00  0.00000000E+00  0.00000000E+00
  0.00000000E+00  0.00000000E+00  0.00000000E+00
  0.00000000E+00  0.00000000E+00  0.00000000E+00
  0.00000000E+00  0.00000000E+00  0.00000000E+00
  0.00000000E+00  0.00000000E+00  0.00000000E+00
  0.00000000E+00  0.00000000E+00  0.00000000E+00
  0.00000000E+00  0.00000000E+00  0.00000000E+00
  0.00000000E+00  0.00000000E+00  0.00000000E+00
  0.00000000E+00  0.00000000E+00  0.00000000E+00
  0.00000000E+00  0.00000000E+00  0.00000000E+00
  0.00000000E+00  0.00000000E+00  0.00000000E+00
  0.00000000E+00  0.00000000E+00  0.00000000E+00
  0.00000000E+00  0.00000000E+00  0.00000000E+00
  0.00000000E+00  0.00000000E+00  0.00000000E+00
  0.00000000E+00  0.00000000E+00  0.00000000E+00
  0.00000000E+00  0.00000000E+00  0.00000000E+00
  0.00000000E+00  0.00000000E+00  0.00000000E+00
  0.00000000E+00  0.00000000E+00  0.00000000E+00
  0.00000000E+00  0.00000000E+00  0.00000000E+00
  0.00000000E+00  0.00000000E+00  0.00000000E+00
  0.00000000E+00  0.00000000E+00  0.00000000E+00
  0.00000000E+00  0.00000000E+00  0.00000000E+00
  0.00000000E+00  0.00000000E+00  0.00000000E+00
  0.00000000E+00  0.00000000E+00  0.00000000E+00
  0.00000000E+00  0.00000000E+00  0.00000000E+00
  0.00000000E+00  0.00000000E+00  0.00000000E+00
  0.00000000E+00  0.00000000E+00  0.00000000E+00
  0.00000000E+00  0.00000000E+00  0.00000000E+00
  0.00000000E+00  0.00000000E+00  0.00000000E+00
  0.00000000E+00  0.00000000E+00  0.00000000E+00
  0.00000000E+00  0.00000000E+00  0.00000000E+00
  0.00000000E+00  0.00000000E+00  0.00000000E+00
  0.00000000E+00  0.00000000E+00  0.00000000E+00
  0.00000000E+00  0.00000000E+00  0.00000000E+00
  0.00000000E+00  0.00000000E+00  0.00000000E+00
  0.00000000E+00  0.00000000E+00  0.00000000E+00
  0.00000000E+00  0.00000000E+00  0.00000000E+00
  0.00000000E+00  0.00000000E+00  0.00000000E+00
  0.00000000E+00  0.00000000E+00  0.00000000E+00
  0.00000000E+00  0.00000000E+00  0.00000000E+00
  0.00000000E+00  0.00000000E+00  0.00000000E+00
  0.00000000E+00  0.00000000E+00  0.00000000E+00
  0.00000000E+00  0.00000000E+00  0.00000000E+00
  0.00000000E+00  0.00000000E+00  0.00000000E+00
  0.00000000E+00  0.00000000E+00  0.00000000E+00
  0.00000000E+00  0.00000000E+00  0.00000000E+00
  0.00000000E+00  0.00000000E+00  0.00000000E+00
  0.00000000E+00  0.00000000E+00  0.00000000E+00
  0.00000000E+00  0.00000000E+00  0.00000000E+00
  0.00000000E+00  0.00000000E+00  0.00000000E+00
  0.00000000E+00  0.00000000E+00  0.00000000E+00
  0.00000000E+00  0.00000000E+00  0.00000000E+00
  0.00000000E+00  0.00000000E+00  0.00000000E+00
  0.00000000E+00  0.00000000E+00  0.00000000E+00
  0.00000000E+00  0.00000000E+00  0.00000000E+00
  0.00000000E+00  0.00000000E+00  0.00000000E+00
  0.00000000E+00  0.00000000E+00  0.00000000E+00
  0.00000000E+00  0.00000000E+00  0.00000000E+00
  0.00000000E+00  0.00000000E+00  0.00000000E+00
  0.00000000E+00  0.00000000E+00  0.00000000E+00
  0.00000000E+00  0.00000000E+00  0.00000000E+00
  0.00000000E+00  0.00000000E+00  0.00000000E+00
  0.00000000E+00  0.00000000E+00  0.00000000E+00
  0.00000000E+00  0.00000000E+00  0.00000000E+00
  0.00000000E+00  0.00000000E+00  0.00000000E+00
  0.00000000E+00  0.00000000E+00  0.00000000E+00
  0.00000000E+00  0.00000000E+00  0.00000000E+00
  0.00000000E+00  0.00000000E+00  0.00000000E+00
  0.00000000E+00  0.00000000E+00  0.00000000E+00
  0.00000000E+00  0.00000000E+00  0.00000000E+00
  0.00000000E+00  0.00000000E+00  0.00000000E+00
  0.00000000E+00  0.00000000E+00  0.00000000E+00
  0.00000000E+00  0.00000000E+00  0.00000000E+00
