Ca V  P  O 
 1.0000000000000000
    10.5155344009000000    0.0000000000000000    0.0000000000000000
     0.0000067011000000    7.1892080306999997    0.0000000000000000
     0.0000045097000000    3.2146597663000001    7.8328516333999998
 Ca  V   P   O  
   3   4   8  28
Selective dynamics
Cartesian
  8.1321843484723662  3.6677572459008627  3.6811307959219395   T   T   T
  2.1831436679331473  7.3352522303185408  7.0053316009114006   T   T   T
  3.1011739733412704  5.7469529315265744  3.1387589657134920   T   T   T
  6.4288540894829955  7.5888777220555115  5.8168443858416703   T   T   T
  9.3543067716329755  6.1517789614520453  1.8922907462867808   T   T   T
  1.1190841794232085  4.2709316190534485  5.8868043599674813   T   T   T
  4.1744108696267848  2.7172248127330443  1.9997846581813474   T   T   T
  9.0602513856338156  9.4180725158056156  6.1641758509001949   T   T   T
  6.7498099916249963  7.9082424885752509  2.4212431536445629   T   T   T
  9.5039514802856981  6.6830803086136266  5.3516140585323901   T   T   T
  6.1705811226395957  5.3073976535501783  1.3254466581054609   T   T   T
  4.3035549680510172  5.2188192770436865  6.3945472135820447   T   T   T
  0.9400224993005980  3.6553986664918976  2.4636964895490054   T   T   T
  3.7333113073845197  2.5227973955034595  5.4881318499377088   T   T   T
  1.5352781512017930  0.9173479606859020  1.5837249041134265   T   T   T
  7.6029419253622201  2.1729947602996069  5.6109129337027337   T   T   T
  9.2791166664747013  9.2077001535659324  7.6337787824477292   T   T   T
  4.3664449141164470  8.3556407218408637  5.8093945758408010   T   T   T
  9.8522485783183047  8.2762172009095742  5.2865913256094084   T   T   T
  8.2481437908496105  0.6786682340475402  2.0789737340060803   T   T   T
  6.4113036555327145  7.3835064817859868  3.8179226680904184   T   T   T
  6.2732050303820639  4.8310088851509887 -0.0926983299984090   T   T   T
  0.8739658695070258  6.7825672282427218  1.9832743589812203   T   T   T
  5.9734930738023175  6.9190997823785452  1.3681917576532703   T   T   T
  8.1973097346401378  6.5706248037624153  6.1258250164845531   T   T   T
  9.3737543491663740  6.0608196172235465  3.9594711045042290   T   T   T
  0.2757655818618769  6.1660504768597884  6.0540922851529757   T   T   T
  5.5425189149053766  5.7379343307821653  5.7003258338490577   T   T   T
  7.4811842409900642  5.0674257860557166  2.1107807085806165   T   T   T
  2.9871010598027983  5.4999499169095234  5.5711272619309513   T   T   T
  4.9293926227675593  4.7530072333728537  2.0564671539504333   T   T   T
 10.0998578247386508  4.1609855934566200  1.9654062817625413   T   T   T
  1.2931180712091770  4.2344969288276868  3.8297559270083306   T   T   T
  2.1711825895444292  3.9619707970877345  1.5563143719880745   T   T   T
  4.4407963152473799  3.6197543731336919  6.4880761368844313   T   T   T
  9.6766328469546892  3.5222528402751734  5.5934045445122260   T   T   T
  4.0508988836394515  5.8437132210894154  7.7582798274100053   T   T   T
  3.9224905541662474  3.0422313124518454  4.0777586192924744   T   T   T
  2.2545932005285834  9.6320098347150740  5.9728443659387604   T   T   T
  0.7913674748339262  2.0589909855804818  2.5175168481505348   T   T   T
  6.1923499799593689  2.1263636785454967  2.1945022668880458   T   T   T
  1.3508963000086120  1.3389689294637186  0.1392919283861923   T   T   T
  2.9987054505906077  8.0483840581537134  2.0889665925180774   T   T   T
