Ca Sr Cr F 
1.0
       12.9185142517         0.0000000000         0.0000000000
        0.0000000000        15.2176961899         0.0000000000
        0.0000039991         4.6333643095        14.2837636537
   Ca   Sr   Cr    F
   15   32   16  128
Direct
     0.652232587         0.920429289         0.449146360
     0.097766146         0.420424968         0.949146926
     0.097766146         0.920424938         0.949146926
     0.597766161         0.420424968         0.949146926
     0.597766161         0.920424938         0.949146926
     0.402233839         0.079575315         0.050852455
     0.402233839         0.579575300         0.050852455
     0.902233839         0.079575315         0.050852455
     0.902233839         0.579575300         0.050852455
     0.152232572         0.420429289         0.449146360
     0.152232572         0.920429289         0.449146360
     0.652232587         0.420429289         0.449146360
     0.347771794         0.079569630         0.550855577
     0.347771794         0.579569638         0.550855577
     0.847771764         0.079569630         0.550855577
     0.407835901         0.295840144         0.350358099
     0.407835901         0.795840144         0.350358099
     0.907835901         0.295840144         0.350358099
     0.907835901         0.795840144         0.350358099
     0.342166901         0.295843124         0.850358367
     0.342166901         0.795843124         0.850358367
     0.842166901         0.295843124         0.850358367
     0.842166901         0.795843124         0.850358367
     0.122307099         0.443445027         0.197192207
     0.122307099         0.943445027         0.197192207
     0.622307122         0.443445027         0.197192207
     0.622307122         0.943445027         0.197192207
     0.157832414         0.204156652         0.149641529
     0.157832414         0.704156637         0.149641529
     0.657832384         0.204156652         0.149641529
     0.657832384         0.704156637         0.149641529
     0.127692223         0.443442971         0.697194576
     0.127692223         0.943442941         0.697194576
     0.627692223         0.443442971         0.697194576
     0.627692223         0.943442941         0.697194576
     0.377692759         0.056555320         0.802807510
     0.377692759         0.556555331         0.802807510
     0.877692759         0.056555320         0.802807510
     0.877692759         0.556555331         0.802807510
     0.092166565         0.204157770         0.649643362
     0.092166565         0.704157770         0.649643362
     0.592166543         0.204157770         0.649643362
     0.592166543         0.704157770         0.649643362
     0.372310281         0.056556113         0.302806139
     0.372310281         0.556556106         0.302806139
     0.872310281         0.056556113         0.302806139
     0.872310281         0.556556106         0.302806139
     0.126515299         0.161036804         0.404802948
     0.126515299         0.661036789         0.404802948
     0.626515269         0.161036804         0.404802948
     0.626515269         0.661036789         0.404802948
     0.373391330         0.338952124         0.595185339
     0.373391330         0.838952124         0.595185339
     0.873391330         0.338952124         0.595185339
     0.873391330         0.838952124         0.595185339
     0.123378128         0.161058426         0.904820383
     0.123378128         0.661058426         0.904820383
     0.623378158         0.161058426         0.904820383
     0.623378158         0.661058426         0.904820383
     0.376622796         0.338941246         0.095178708
     0.376622796         0.838941216         0.095178708
     0.876622796         0.338941246         0.095178708
     0.876622796         0.838941216         0.095178708
     0.099008679         0.257906765         0.468304574
     0.099008679         0.757906795         0.468304574
     0.599008679         0.257906765         0.468304574
     0.599008679         0.757906795         0.468304574
     0.400995106         0.242092967         0.531693518
     0.400995106         0.742092967         0.531693518
     0.900995135         0.242092967         0.531693518
     0.900995135         0.742092967         0.531693518
     0.087721676         0.026899511         0.030794317
     0.087721676         0.526899517         0.030794317
     0.587721705         0.026899511         0.030794317
     0.587721705         0.526899517         0.030794317
     0.473906308         0.128115043         0.408920139
     0.473906308         0.628115058         0.408920139
     0.973906279         0.128115043         0.408920139
     0.973906279         0.628115058         0.408920139
     0.015427197         0.432598293         0.345768064
     0.015427197         0.932598293         0.345768064
     0.515427172         0.432598293         0.345768064
     0.515427172         0.932598293         0.345768064
     0.169828042         0.274708986         0.768559575
     0.169828042         0.774708986         0.768559575
     0.669828057         0.274708986         0.768559575
     0.669828057         0.774708986         0.768559575
     0.473409444         0.178089485         0.919049919
     0.473409444         0.678089499         0.919049919
     0.973409414         0.178089485         0.919049919
     0.973409414         0.678089499         0.919049919
     0.332271069         0.424138993         0.672765732
     0.332271069         0.924139023         0.672765732
     0.832271099         0.424138993         0.672765732
     0.832271099         0.924139023         0.672765732
     0.162279502         0.026900684         0.530792952
     0.162279502         0.526900709         0.530792952
     0.662279487         0.026900684         0.530792952
     0.662279487         0.526900709         0.530792952
     0.349004239         0.242098659         0.031698599
     0.349004239         0.742098689         0.031698599
     0.849004269         0.242098659         0.031698599
     0.849004269         0.742098689         0.031698599
     0.492861956         0.405249327         0.828840971
     0.492861956         0.905249357         0.828840971
     0.992861986         0.405249327         0.828840971
     0.992861986         0.905249357         0.828840971
     0.026590522         0.321910411         0.080950312
     0.026590522         0.821910381         0.080950312
     0.526590526         0.321910411         0.080950312
     0.526590526         0.821910381         0.080950312
     0.330170810         0.225290850         0.231441587
     0.330170810         0.725290835         0.231441587
     0.830170810         0.225290850         0.231441587
     0.830170810         0.725290835         0.231441587
     0.337719470         0.473099768         0.469206691
     0.337719470         0.973099768         0.469206691
     0.837719440         0.473099768         0.469206691
     0.837719440         0.973099768         0.469206691
     0.484572232         0.067400724         0.654231906
     0.484572232         0.567400694         0.654231906
     0.984572232         0.067400724         0.654231906
     0.984572232         0.567400694         0.654231906
     0.080172971         0.274708092         0.268562794
     0.080172971         0.774708092         0.268562794
     0.580172956         0.274708092         0.268562794
     0.580172956         0.774708092         0.268562794
     0.234572664         0.432600498         0.845767677
     0.234572664         0.932600498         0.845767677
     0.734572649         0.432600498         0.845767677
     0.734572649         0.932600498         0.845767677
     0.265426964         0.067399479         0.154231980
     0.265426964         0.567399502         0.154231980
     0.765426993         0.067399479         0.154231980
     0.765426993         0.567399502         0.154231980
     0.223882586         0.371892303         0.091079645
     0.223882586         0.871892333         0.091079645
     0.723882556         0.371892303         0.091079645
     0.723882556         0.871892333         0.091079645
     0.419828594         0.225290522         0.731439412
     0.419828594         0.725290537         0.731439412
     0.919828594         0.225290522         0.731439412
     0.919828594         0.725290537         0.731439412
     0.257137716         0.405247241         0.328841984
     0.257137716         0.905247211         0.328841984
     0.757137716         0.405247241         0.328841984
     0.757137716         0.905247211         0.328841984
     0.167729750         0.075865984         0.327238202
     0.167729750         0.575865984         0.327238202
     0.667729735         0.075865984         0.327238202
     0.667729735         0.575865984         0.327238202
     0.276116371         0.128107861         0.908920467
     0.276116371         0.628107846         0.908920467
     0.776116371         0.128107861         0.908920467
     0.776116371         0.628107846         0.908920467
     0.242861584         0.094752073         0.671158075
     0.242861584         0.594752073         0.671158075
     0.742861569         0.094752073         0.671158075
     0.742861569         0.594752073         0.671158075
     0.276664764         0.178100631         0.419054806
     0.276664764         0.678100646         0.419054806
     0.776664734         0.178100631         0.419054806
     0.776664734         0.678100646         0.419054806
     0.417729318         0.424140155         0.172768578
     0.417729318         0.924140155         0.172768578
     0.917729318         0.424140155         0.172768578
     0.917729318         0.924140155         0.172768578
     0.150995821         0.257901460         0.968301713
     0.150995821         0.757901430         0.968301713
     0.650995851         0.257901460         0.968301713
     0.650995851         0.757901430         0.968301713
     0.026110973         0.371889293         0.591079473
     0.026110973         0.871889293         0.591079473
     0.526110947         0.371889293         0.591079473
     0.526110947         0.871889293         0.591079473
     0.223400176         0.321908057         0.580949306
     0.223400176         0.821908057         0.580949306
     0.723400176         0.321908057         0.580949306
     0.723400176         0.821908057         0.580949306
     0.007138240         0.094750568         0.171158701
     0.007138240         0.594750583         0.171158701
     0.507138252         0.094750568         0.171158701
     0.507138252         0.594750583         0.171158701
     0.082270823         0.075859912         0.827231944
     0.082270823         0.575859904         0.827231944
     0.582270801         0.075859912         0.827231944
     0.582270801         0.575859904         0.827231944
     0.412278384         0.473100483         0.969205856
     0.412278384         0.973100483         0.969205856
     0.912278414         0.473100483         0.969205856
     0.912278414         0.973100483         0.969205856
