Ca Co P  O 
1.0
       13.1658210754         0.0000000000         0.0000000000
       -1.2903067927        11.0192800096         0.0000000000
       -2.8941822324         4.1400166522         8.1694354818
   Ca   Co    P    O
    7    8   16   56
Direct
     0.726203680         0.658781230         0.854877114
     0.262953043         0.022393690         0.487817973
     0.762953043         0.022393690         0.487817973
     0.226203695         0.658781230         0.854877114
     0.006309228         0.528308868         0.218534008
     0.506309211         0.528308868         0.218534008
     0.482976526         0.450223446         0.816959620
     0.368695706         0.809598804         0.100339927
     0.868695736         0.809598804         0.100339927
     0.323078901         0.739061892         0.486813545
     0.823078871         0.739061892         0.486813545
     0.137482330         0.198752254         0.910923600
     0.637482345         0.198752254         0.910923600
     0.174146250         0.261929959         0.505716681
     0.674146235         0.261929959         0.505716681
     0.144676700         0.959959626         0.809205949
     0.644676685         0.959959626         0.809205949
     0.203952998         0.460174859         0.686354101
     0.703953028         0.460174859         0.686354101
     0.353948116         0.051886849         0.184274822
     0.853948116         0.051886849         0.184274822
     0.433913827         0.303980142         0.544208527
     0.933913827         0.303980142         0.544208527
     0.037695736         0.234100401         0.176749095
     0.537695765         0.234100401         0.176749095
     0.468599677         0.766341031         0.823790669
     0.968599677         0.766341031         0.823790669
     0.063878611         0.697202563         0.454310507
     0.563878596         0.697202563         0.454310507
     0.284644455         0.544791698         0.292794257
     0.784644485         0.544791698         0.292794257
     0.309825063         0.558473706         0.139530838
     0.809825063         0.558473706         0.139530838
     0.141673163         0.203047842         0.315331906
     0.641673148         0.203047842         0.315331906
     0.308605373         0.536612928         0.672933102
     0.808605373         0.536612928         0.672933102
     0.286511481         0.686416864         0.287650347
     0.786511481         0.686416864         0.287650347
     0.161539882         0.776506782         0.501072943
     0.661539912         0.776506782         0.501072943
     0.012040477         0.307284594         0.452388912
     0.512040496         0.307284594         0.452388912
     0.209095508         0.316043645         0.705499232
     0.709095478         0.316043645         0.705499232
     0.047153085         0.223292276         0.027940581
     0.547153115         0.223292276         0.027940581
     0.482130259         0.677931309         0.546595037
     0.982130289         0.677931309         0.546595037
     0.040421896         0.647998095         0.865613103
     0.540421903         0.647998095         0.865613103
     0.185124680         0.465584695         0.325852722
     0.685124695         0.465584695         0.325852722
     0.486571699         0.292560965         0.714293778
     0.986571670         0.292560965         0.714293778
     0.462666065         0.112787835         0.261946231
     0.962666035         0.112787835         0.261946231
     0.027370477         0.905457139         0.741172194
     0.527370453         0.905457139         0.741172194
     0.167452887         0.463727385         0.822874725
     0.667452872         0.463727385         0.822874725
     0.359318703         0.786650479         0.693226159
     0.859318733         0.786650479         0.693226159
     0.113484032         0.543522120         0.518954396
     0.613484025         0.543522120         0.518954396
     0.324441850         0.946310818         0.341773421
     0.824441850         0.946310818         0.341773421
     0.016282836         0.732866585         0.273800254
     0.516282856         0.732866585         0.273800254
     0.380136877         0.987204134         0.089918084
     0.880136847         0.987204134         0.089918084
     0.221186906         0.834763885         0.910991609
     0.721186876         0.834763885         0.910991609
     0.486274630         0.374889195         0.109054394
     0.986274600         0.374889195         0.109054394
     0.339596272         0.211511418         0.530965924
     0.839596272         0.211511418         0.530965924
     0.274765939         0.171040788         0.083505005
     0.774765968         0.171040788         0.083505005
     0.385094106         0.462146252         0.443188906
     0.885094106         0.462146252         0.443188906
     0.446056515         0.747907043         0.980028749
     0.946056485         0.747907043         0.980028749
     0.126843318         0.023627270         0.907956004
     0.626843333         0.023627270         0.907956004
     0.175364688         0.053211808         0.651911080
     0.675364673         0.053211808         0.651911080
