Ca4 V4 P4 O20
1.0
   0.0000000000000000    6.4878280000000004   -0.0000040000000000
  -0.0000340000000000   -0.0000050000000000    7.8354119999999998
   7.4491810000000003    0.0000000000000000   -0.0000360000000000
Ca V P O
4 4 4 20
direct
   0.9999830000000000    0.4999980000000000    0.0000150000000000 Ca
   0.5000190000000000    0.4999989999999990    0.0000150000000000 Ca
   0.9999669999999991    0.0000090000000000    0.4999869999999990 Ca
   0.5000300000000001    0.0000110000000000    0.4999860000000000 Ca
   0.2499990000000000    0.7129600000000000    0.3312219999999990 V
   0.2500010000000000    0.7870650000000000    0.8312370000000000 V
   0.7500000000000000    0.2130429999999990    0.1685150000000000 V
   0.7500009999999990    0.2869560000000000    0.6685479999999990 V
   0.2500000000000000    0.1056840000000000    0.1242269999999990 P
   0.7500000000000000    0.6057009999999990    0.3758180000000000 P
   0.2500000000000000    0.3943149999999990    0.6242600000000000 P
   0.7500009999999990    0.8942779999999990    0.8757809999999990 P
   0.7500000000000000    0.9915809999999990    0.0564319999999990 O
   0.2499990000000000    0.4916339999999990    0.4436179999999990 O
   0.7500000000000000    0.5083909999999990    0.5564470000000000 O
   0.2500010000000000    0.0083509999999990    0.9436390000000000 O
   0.2500000000000000    0.6794140000000000    0.1037940000000000 O
   0.7500000000000000    0.1795620000000000    0.3959439999999990 O
   0.2500000000000000    0.8205789999999999    0.6039140000000000 O
   0.7500000000000000    0.3204450000000000    0.8959530000000000 O
   0.7500000000000000    0.4774069999999990    0.2157790000000000 O
   0.2499990000000000    0.9773459999999990    0.2842340000000000 O
   0.7499990000000000    0.0226210000000000    0.7157610000000000 O
   0.2500000000000000    0.5226640000000000    0.7842300000000001 O
   0.0590070000000000    0.2250160000000000    0.1358530000000000 O
   0.4409940000000000    0.2250150000000000    0.1358540000000000 O
   0.5589360000000000    0.7249789999999990    0.3643230000000000 O
   0.9410630000000000    0.7249789999999990    0.3643240000000000 O
   0.0590000000000000    0.2749920000000000    0.6358910000000000 O
   0.4410000000000000    0.2749920000000000    0.6358900000000001 O
   0.5589600000000000    0.7750060000000000    0.8642559999999990 O
   0.9410419999999990    0.7750060000000000    0.8642550000000000 O
