Ca V  P  O 
 1.0000000000000000
     0.0000000000000000    6.4878280000000004   -0.0000040000000000
    -0.0000340000000000   -0.0000050000000000    7.8354119999999998
     7.4491810000000003    0.0000000000000000   -0.0000360000000000
 Ca  V   P   O  
   4   4   4  20
Cartesian
 -0.0000751224167616  6.4878205493939927  3.9176838204673068
 -0.0000696607578448  3.2439154941399169  3.9176832263315426
  3.7244842817310846  6.4878300807214586  0.0000399356826726
  3.7244736333040294  3.2439070535254357  0.0000508282428983
  2.5900567826660068  1.6219522650633307  5.6077179400392687
  6.3146353643615276  1.6219567235199925  6.1453472474005597
  1.1345416301861142  4.8658719514700319  1.6901042312536345
  4.8591788241751059  4.8658703716803986  2.2275705829597436
  0.8579182543913434  1.6219565354213972  0.9090966410045912
  2.8666773044346150  4.8658670365852190  4.8267628355799443
  4.5825265173960155  1.6219549711600065  3.0085925132988400
  6.5911688822217478  4.8658674259901833  6.9262656584174165
  0.4967159096891497  4.8658692615584567  7.6151690300500210
  3.2277239680561625  1.6219500042558401  3.6973105416733403
  4.2213785350137600  4.8658671977353176  4.1378520132398471
  6.9523062615076334  1.6219619837959844  0.2203380633575729
  0.7068730417536667  1.6219537717373942  5.2707437317216579
  3.0177493321747817  4.8658745453675714  1.3532461559318245
  4.4314836282735870  1.6219551667225982  6.4823869271182488
  6.7423548735197496  4.8658676456237826  2.5644246779027808
  1.6672555016430404  4.8658693373360213  3.8200357889959702
  2.0571578879144283  1.6219464855541013  7.7376053268843732
  5.3918196020548779  4.8658660247340544  0.0976283691147379
  5.7817930221774558  1.6219558360932811  4.0155019462319386
  1.0251419444128467  0.4001957095974117  1.8477963808722262
  1.0251527334462349  2.8437198002513582  1.8477915994023457
  2.6995734011797463  3.6441022371440726  5.7654738658164666
  2.6995741504062059  6.0876324066904415  5.7654728783245517
  4.7498005874080595  0.4002089995063215  2.0698805685118020
  4.7497939286947268  2.8437030461485877  2.0698823056516051
  6.4240305416057000  3.6441049936409837  5.9875521418031736
  6.4240243557711496  6.0876325756680263  5.9875563912290035
