Ca6 Mn12 P12 O48
1.0
        9.0933351517         0.0000000000         0.0000000000
        0.6977056948         9.1051346829         0.0000000000
       -8.1655360859        -7.5727748790        21.6807166942
   Ca   Mn    P    O
   11   24   24   96
Direct
     0.500000000         0.500000000         0.500000000
     0.500000000         0.500000000         0.000000000
     0.352142006         0.374567986         0.179651499
     0.352142006         0.374567986         0.679651499
     0.748980999         0.748924971         0.124123499
     0.000000000         0.000000000         0.250000000
     0.000000000         0.000000000         0.750000000
     0.251019001         0.251075000         0.375876486
     0.251019001         0.251075000         0.875876486
     0.647858024         0.625432014         0.320348501
     0.647858024         0.625432014         0.820348501
     0.474604011         0.159626007         0.047968000
     0.474604011         0.159626007         0.547968030
     0.015991000         0.335938007         0.200646505
     0.015991000         0.335938007         0.700646520
     0.085611999         0.771771014         0.076109000
     0.085611999         0.771771014         0.576108992
     0.858637989         0.386483014         0.062038999
     0.858637989         0.386483014         0.562039018
     0.643408000         0.102802001         0.187685505
     0.643408000         0.102802001         0.687685490
     0.414844006         0.730422974         0.173942506
     0.414844006         0.730422974         0.673942506
     0.585156024         0.269576997         0.326057494
     0.585156024         0.269576997         0.826057494
     0.356592000         0.897198021         0.312314510
     0.356592000         0.897198021         0.812314510
     0.141361997         0.613516986         0.437961012
     0.141361997         0.613516986         0.937960982
     0.984009027         0.664062023         0.299353510
     0.984009027         0.664062023         0.799353480
     0.914388001         0.228229001         0.423891008
     0.914388001         0.228229001         0.923891008
     0.525395989         0.840373993         0.452032000
     0.525395989         0.840373993         0.952031970
     0.207184002         0.427855998         0.039009001
     0.207184002         0.427855998         0.539008975
     0.827830017         0.038600001         0.087094501
     0.827830017         0.038600001         0.587094486
     0.289478987         0.082248002         0.210143000
     0.289478987         0.082248002         0.710142970
     0.415288001         0.834568024         0.061116502
     0.415288001         0.834568024         0.561116517
     0.083008997         0.664667010         0.187546000
     0.083008997         0.664667010         0.687546015
     0.673120022         0.451665014         0.164778501
     0.673120022         0.451665014         0.664778471
     0.326880008         0.548335016         0.335221499
     0.326880008         0.548335016         0.835221529
     0.916990995         0.335332990         0.312453985
     0.916990995         0.335332990         0.812453985
     0.584712029         0.165432006         0.438883513
     0.584712029         0.165432006         0.938883543
     0.710520983         0.917752028         0.289857000
     0.710520983         0.917752028         0.789857030
     0.172169998         0.961399972         0.412905514
     0.172169998         0.961399972         0.912905514
     0.792815983         0.572143972         0.460990995
     0.792815983         0.572143972         0.960991025
     0.035590000         0.366109997         0.017313501
     0.035590000         0.366109997         0.517313480
     0.666113973         0.021028999         0.034152001
     0.666113973         0.021028999         0.534152031
     0.450695008         0.013807000         0.090916000
     0.450695008         0.013807000         0.590915978
     0.318636000         0.325168014         0.072764501
     0.318636000         0.325168014         0.572764516
     0.195544004         0.216354996         0.188253999
     0.195544004         0.216354996         0.688253999
     0.237078995         0.796657026         0.031807002
     0.237078995         0.796657026         0.531807005
     0.050122999         0.484530002         0.158182502
     0.050122999         0.484530002         0.658182502
     0.219826996         0.594721019         0.089813501
     0.219826996         0.594721019         0.589813471
     0.487502009         0.749370992         0.009016000
     0.487502009         0.749370992         0.509015977
     0.996550977         0.734857976         0.135769993
     0.996550977         0.734857976         0.635769963
     0.747828007         0.555473983         0.014210000
     0.747828007         0.555473983         0.514209986
     0.806698978         0.996858001         0.140352994
     0.806698978         0.996858001         0.640352964
     0.247657999         0.061501000         0.263354987
     0.247657999         0.061501000         0.763355017
     0.614485025         0.279363006         0.143302500
     0.614485025         0.279363006         0.643302500
     0.885634005         0.211270005         0.108315997
     0.885634005         0.211270005         0.608316004
     0.463351995         0.137507007         0.229981005
     0.463351995         0.137507007         0.729981005
     0.691599011         0.498706013         0.112434000
     0.691599011         0.498706013         0.612434030
     0.504624009         0.764060974         0.112048998
     0.504624009         0.764060974         0.612048984
     0.008887000         0.750770986         0.238576502
     0.008887000         0.750770986         0.738576531
     0.158647001         0.531567991         0.284457505
     0.158647001         0.531567991         0.784457505
     0.262789994         0.925432026         0.156624496
     0.262789994         0.925432026         0.656624496
     0.261321008         0.698255002         0.217270002
     0.261321008         0.698255002         0.717270017
     0.560164988         0.551262975         0.196346000
     0.560164988         0.551262975         0.696345985
     0.056042001         0.068581998         0.439937502
     0.056042001         0.068581998         0.939937472
     0.943957984         0.931418002         0.060062502
     0.943957984         0.931418002         0.560062528
     0.439835012         0.448736995         0.303653985
     0.439835012         0.448736995         0.803653955
     0.738678992         0.301744998         0.282730013
     0.738678992         0.301744998         0.782729983
     0.841352999         0.468432009         0.215542495
     0.841352999         0.468432009         0.715542495
     0.737209976         0.074568003         0.343375504
     0.737209976         0.074568003         0.843375504
     0.991113007         0.249228999         0.261423498
     0.991113007         0.249228999         0.761423469
     0.495375991         0.235938996         0.387950987
     0.495375991         0.235938996         0.887951016
     0.308400989         0.501294017         0.387566000
     0.308400989         0.501294017         0.887565970
     0.536647975         0.862492979         0.270018995
     0.536647975         0.862492979         0.770018995
     0.114366002         0.788730025         0.391683996
     0.114366002         0.788730025         0.891683996
     0.385515004         0.720637023         0.356697500
     0.385515004         0.720637023         0.856697500
     0.752341986         0.938498974         0.236644998
     0.752341986         0.938498974         0.736644983
     0.193301007         0.003142000         0.359647006
     0.193301007         0.003142000         0.859647036
     0.252171993         0.444525987         0.485790014
     0.252171993         0.444525987         0.985790014
     0.003449000         0.265141994         0.364230007
     0.003449000         0.265141994         0.864230037
     0.512498021         0.250629008         0.490983993
     0.512498021         0.250629008         0.990983963
     0.780173004         0.405279011         0.410186499
     0.780173004         0.405279011         0.910186529
     0.949877024         0.515470028         0.341817498
     0.949877024         0.515470028         0.841817498
     0.762920976         0.203343004         0.468192995
     0.762920976         0.203343004         0.968192995
     0.804455996         0.783644974         0.311746001
     0.804455996         0.783644974         0.811746001
     0.681364000         0.674831986         0.427235514
     0.681364000         0.674831986         0.927235484
     0.549305022         0.986193001         0.409083992
     0.549305022         0.986193001         0.909083962
     0.333885998         0.978971004         0.465847999
     0.333885998         0.978971004         0.965847969
     0.964410007         0.633889973         0.482686490
     0.964410007         0.633889973         0.982686520
