Ca Mn V  P  O 
1.0
       10.0287265778         0.0000000000         0.0000000000
        0.0072308474         8.5826976834         0.0000000000
       -2.3955271857        -0.0472882204         6.9288402245
   Ca   Mn    V    P    O
    3    2    2    8   28
Direct
     0.877988219         0.405151129         0.262579650
     0.118556663         0.902490914         0.735266328
     0.618556678         0.902490914         0.735266328
     0.389954507         0.991468072         0.257975787
     0.889954507         0.991468072         0.257975787
     0.110534519         0.492341340         0.730461121
     0.610534549         0.492341340         0.730461121
     0.191942289         0.193005234         0.499824435
     0.691942275         0.193005234         0.499824435
     0.107760154         0.763642311         0.105014026
     0.607760131         0.763642311         0.105014026
     0.394064337         0.272644252         0.893991828
     0.894064307         0.272644252         0.893991828
     0.308168977         0.691672742         0.503910601
     0.808169007         0.691672742         0.503910601
     0.023197118         0.298127592         0.834427655
     0.523197114         0.298127592         0.834427655
     0.083385900         0.668386698         0.920325637
     0.583385885         0.668386698         0.920325637
     0.094673470         0.051176969         0.466028839
     0.594673455         0.051176969         0.466028839
     0.112777211         0.348518372         0.484555930
     0.612777233         0.348518372         0.484555930
     0.201914638         0.688124120         0.613656580
     0.701914668         0.688124120         0.613656580
     0.314838350         0.422619522         0.916691303
     0.814838350         0.422619522         0.916691303
     0.283839643         0.161932454         0.728032529
     0.783839643         0.161932454         0.728032529
     0.223060876         0.659752727         0.273168564
     0.723060846         0.659752727         0.273168564
     0.180752531         0.916695118         0.078822196
     0.680752516         0.916695118         0.078822196
     0.291590452         0.194073454         0.380931199
     0.791590452         0.194073454         0.380931199
     0.384611636         0.848453045         0.527496874
     0.884611607         0.848453045         0.527496874
     0.405916244         0.550358951         0.539147794
     0.905916214         0.550358951         0.539147794
     0.421244442         0.180256113         0.080460787
     0.921244442         0.180256113         0.080460787
     0.479226351         0.784688771         0.167230353
     0.979226351         0.784688771         0.167230353
