Ca Mo P  O 
1.0
       13.5509071350         0.0000000000         0.0000000000
        0.0000000000        14.7635154724         0.0000000000
       -0.0000020043         0.0000180391        15.0523624420
   Ca   Mo    P    O
   15   32   32  144
Direct
     0.374999672         0.452321678         0.220447630
     0.125000387         0.202320546         0.279558897
     0.125000387         0.702320576         0.279558897
     0.625000358         0.202320546         0.279558897
     0.125000164         0.047683921         0.779547751
     0.125000164         0.547683895         0.779547751
     0.625000179         0.047683921         0.779547751
     0.625000179         0.547683895         0.779547751
     0.374999672         0.952321649         0.220447630
     0.874999642         0.452321678         0.220447630
     0.874999642         0.952321649         0.220447630
     0.375000060         0.297674000         0.720440149
     0.375000060         0.797674000         0.720440149
     0.875000060         0.297674000         0.720440149
     0.875000060         0.797674000         0.720440149
     0.125000909         0.432589948         0.377431393
     0.125000909         0.932589948         0.377431393
     0.625000894         0.432589948         0.377431393
     0.625000894         0.932589948         0.377431393
     0.374999136         0.067437597         0.622577965
     0.374999136         0.567437589         0.622577965
     0.874999166         0.067437597         0.622577965
     0.874999166         0.567437589         0.622577965
     0.374998719         0.182574511         0.122549042
     0.374998719         0.682574511         0.122549042
     0.874998689         0.182574511         0.122549042
     0.874998689         0.682574511         0.122549042
     0.125000343         0.317409933         0.877457023
     0.125000343         0.817409933         0.877457023
     0.625000358         0.317409933         0.877457023
     0.625000358         0.817409933         0.877457023
     0.999998808         0.249991149         0.500016510
     0.999998808         0.749991179         0.500016510
     0.499998808         0.249991149         0.500016510
     0.499998808         0.749991179         0.500016510
     0.000013131         0.000009957         0.000009310
     0.000013131         0.500009954         0.000009310
     0.500013113         0.000009957         0.000009310
     0.500013113         0.500009954         0.000009310
     0.249986634         0.000009916         0.000010240
     0.249986634         0.500009894         0.000010240
     0.749986649         0.000009916         0.000010240
     0.749986649         0.500009894         0.000010240
     0.250001162         0.249991119         0.500016451
     0.250001162         0.749991119         0.500016451
     0.750001192         0.249991119         0.500016451
     0.750001192         0.749991119         0.500016451
     0.374995440         0.436120868         0.426952809
     0.374995440         0.936120868         0.426952809
     0.874995470         0.436120868         0.426952809
     0.874995470         0.936120868         0.426952809
     0.125010356         0.063886210         0.573092818
     0.125010356         0.563886225         0.573092818
     0.625010371         0.063886210         0.573092818
     0.625010371         0.563886225         0.573092818
     0.125012949         0.186123639         0.073027506
     0.125012949         0.686123610         0.073027506
     0.625012934         0.186123639         0.073027506
     0.625012934         0.686123610         0.073027506
     0.374996990         0.313905030         0.926931202
     0.374996990         0.813905001         0.926931202
     0.874997020         0.313905030         0.926931202
     0.874997020         0.813905001         0.926931202
     0.125000909         0.449220210         0.190861300
     0.125000909         0.949220181         0.190861300
     0.625000894         0.449220210         0.190861300
     0.625000894         0.949220181         0.190861300
     0.124993958         0.300730497         0.690839648
     0.124993958         0.800730467         0.690839648
     0.624993980         0.300730497         0.690839648
     0.624993980         0.800730467         0.690839648
     0.375004858         0.199246630         0.309183240
     0.375004858         0.699246645         0.309183240
     0.875004888         0.199246630         0.309183240
     0.875004888         0.699246645         0.309183240
     0.375003576         0.050781325         0.809106112
     0.375003576         0.550781310         0.809106112
     0.875003576         0.050781325         0.809106112
     0.875003576         0.550781310         0.809106112
     0.279435426         0.049506079         0.865684032
     0.279435426         0.549506068         0.865684032
     0.779435396         0.049506079         0.865684032
     0.779435396         0.549506068         0.865684032
     0.029431771         0.450486541         0.134320736
     0.029431771         0.950486541         0.134320736
     0.529431760         0.450486541         0.134320736
     0.529431760         0.950486541         0.134320736
     0.220590293         0.299513072         0.634320676
     0.220590293         0.799513102         0.634320676
     0.720590293         0.299513072         0.634320676
     0.720590293         0.799513102         0.634320676
     0.470549554         0.200493634         0.365655452
     0.470549554         0.700493634         0.365655452
     0.970549583         0.200493634         0.365655452
     0.970549583         0.700493634         0.365655452
     0.220568329         0.450486839         0.134320319
     0.220568329         0.950486839         0.134320319
     0.720568299         0.450486839         0.134320319
     0.720568299         0.950486839         0.134320319
     0.470561236         0.049506113         0.865682244
     0.470561236         0.549506128         0.865682244
     0.970561266         0.049506113         0.865682244
     0.970561266         0.549506128         0.865682244
     0.279445648         0.200493962         0.365658253
     0.279445648         0.700493932         0.365658253
     0.779445648         0.200493962         0.365658253
     0.779445648         0.700493932         0.365658253
     0.029415570         0.299513370         0.634324133
     0.029415570         0.799513340         0.634324133
     0.529415548         0.299513370         0.634324133
     0.529415548         0.799513340         0.634324133
     0.375000238         0.406858534         0.979504406
     0.375000238         0.906858563         0.979504406
     0.875000238         0.406858534         0.979504406
     0.875000238         0.906858563         0.979504406
     0.124999426         0.093105115         0.020478295
     0.124999426         0.593105137         0.020478295
     0.624999404         0.093105115         0.020478295
     0.624999404         0.593105137         0.020478295
     0.124999307         0.156796083         0.520516992
     0.124999307         0.656796098         0.520516992
     0.624999285         0.156796083         0.520516992
     0.624999285         0.656796098         0.520516992
     0.375000387         0.343234658         0.479461998
     0.375000387         0.843234658         0.479461998
     0.875000358         0.343234658         0.479461998
     0.875000358         0.843234658         0.479461998
     0.124999784         0.307200223         0.435831249
     0.124999784         0.807200193         0.435831249
     0.624999762         0.307200223         0.435831249
     0.624999762         0.807200193         0.435831249
     0.375000328         0.192794278         0.564166248
     0.375000328         0.692794263         0.564166248
     0.875000358         0.192794278         0.564166248
     0.875000358         0.692794263         0.564166248
     0.375000238         0.057196513         0.064160101
     0.375000238         0.557196498         0.064160101
     0.875000238         0.057196513         0.064160101
     0.875000238         0.557196498         0.064160101
     0.124999903         0.442804098         0.935836911
     0.124999903         0.942804098         0.935836911
     0.624999881         0.442804098         0.935836911
     0.624999881         0.942804098         0.935836911
     0.124999464         0.362130791         0.249967605
     0.124999464         0.862130761         0.249967605
     0.624999464         0.362130791         0.249967605
     0.624999464         0.862130761         0.249967605
     0.375000089         0.137863711         0.750021458
     0.375000089         0.637863696         0.750021458
     0.875000119         0.137863711         0.750021458
     0.875000119         0.637863696         0.750021458
     0.375000268         0.112137042         0.250006497
     0.375000268         0.612137020         0.250006497
     0.875000238         0.112137042         0.250006497
     0.875000238         0.612137020         0.250006497
     0.124999940         0.387861043         0.749988198
     0.124999940         0.887861013         0.749988198
     0.624999940         0.387861043         0.749988198
     0.624999940         0.887861013         0.749988198
     0.465041816         0.312121272         0.863429189
     0.465041816         0.812121272         0.863429189
     0.965041816         0.312121272         0.863429189
     0.965041816         0.812121272         0.863429189
     0.215010256         0.187885940         0.136576533
     0.215010256         0.687885940         0.136576533
     0.715010285         0.187885940         0.136576533
     0.715010285         0.687885940         0.136576533
     0.034920797         0.062131036         0.636540294
     0.034920797         0.562131047         0.636540294
     0.534920812         0.062131036         0.636540294
     0.534920812         0.562131047         0.636540294
     0.284889460         0.437860459         0.363446802
     0.284889460         0.937860489         0.363446802
     0.784889460         0.437860459         0.363446802
     0.784889460         0.937860489         0.363446802
     0.034978114         0.187886313         0.136583522
     0.034978114         0.687886298         0.136583522
     0.534978092         0.187886313         0.136583522
     0.534978092         0.687886298         0.136583522
     0.284960806         0.312121093         0.863430798
     0.284960806         0.812121093         0.863430798
     0.784960806         0.312121093         0.863430798
     0.784960806         0.812121093         0.863430798
     0.465113938         0.437859774         0.363444269
     0.465113938         0.937859774         0.363444269
     0.965113938         0.437859774         0.363444269
     0.965113938         0.937859774         0.363444269
     0.215069994         0.062131174         0.636534929
     0.215069994         0.562131166         0.636534929
     0.715070009         0.062131174         0.636534929
     0.715070009         0.562131166         0.636534929
     0.124999531         0.486804068         0.506942332
     0.124999531         0.986804068         0.506942332
     0.624999523         0.486804068         0.506942332
     0.624999523         0.986804068         0.506942332
     0.375000298         0.278346658         0.239386395
     0.375000298         0.778346658         0.239386395
     0.875000298         0.278346658         0.239386395
     0.875000298         0.778346658         0.239386395
     0.375000089         0.471627533         0.739382505
     0.375000089         0.971627533         0.739382505
     0.875000119         0.471627533         0.739382505
     0.875000119         0.971627533         0.739382505
     0.124999478         0.028380752         0.260637343
     0.124999478         0.528380752         0.260637343
     0.624999464         0.028380752         0.260637343
     0.624999464         0.528380752         0.260637343
     0.124999471         0.263230473         0.006942864
     0.124999471         0.763230443         0.006942864
     0.624999464         0.263230473         0.006942864
     0.624999464         0.763230443         0.006942864
     0.375000238         0.236753136         0.993079305
     0.375000238         0.736753106         0.993079305
     0.875000238         0.236753136         0.993079305
     0.875000238         0.736753106         0.993079305
     0.375000328         0.013181941         0.493054390
     0.375000328         0.513181925         0.493054390
     0.875000358         0.013181941         0.493054390
     0.875000358         0.513181925         0.493054390
     0.124999925         0.221668020         0.760625601
     0.124999925         0.721668005         0.760625601
     0.624999940         0.221668020         0.760625601
     0.624999940         0.721668005         0.760625601
