Ca Ti O                                 
   1.00000000000000     
    12.4370679855000006    0.0000000000000000    0.0000000000000000
    -1.0659715856000000   13.9755822961000007    0.0000000000000000
    -0.5859648079000001   -2.0967458091000002   10.1808118850000007
Ca Ti O              
11              48              96
Selective dynamics
Direct
  0.7349452353865615  0.7841189840951799  0.4315257201714715   T   T   T
  0.0159940812335364  0.2186528415828377  0.0679717080142410   T   T   T
  0.0164848896220064  0.7149318754630798  0.0715675156780406   T   T   T
  0.5142125325120759  0.2115055563171637  0.0665690847025502   T   T   T
  0.5163382009845492  0.7167639479622139  0.0622986040615672   T   T   T
  0.3719475939560439  0.2868082139860917  0.7019280742078280   T   T   T
  0.3700567534132873  0.7863368112380300  0.7042274770939727   T   T   T
  0.8714803642722799  0.2838508167765355  0.7013528193829615   T   T   T
  0.2237442148004973  0.2868751685128998  0.4138815654741066   T   T   T
  0.2236220448930766  0.7827906547014081  0.4198834523445498   T   T   T
  0.7208307509800349  0.2772342606867824  0.4087893198947654   T   T   T
  0.0084623198817297  0.4843373401656734  0.9913250627946795   T   T   T
  0.0029499917693911  0.9908347634326944  0.9985059159733112   T   T   T
  0.5073201467583246  0.4878539662345247  0.9916728272215067   T   T   T
  0.5150637155103510  0.9812848820653599  0.9850782489493781   T   T   T
  0.1275152124482517  0.9987184378541443  0.2517158307556571   T   T   T
  0.1259924045429202  0.5013463453653770  0.2508880291405049   T   T   T
  0.6264553502079480  0.9981008600733361  0.2447287334075270   T   T   T
  0.6258409700435763  0.5008767316323883  0.2478518908585698   T   T   T
  0.3659086180267295  0.0141587407246391  0.7577944708615689   T   T   T
  0.3784380584252816  0.5153931327456505  0.7585765361445027   T   T   T
  0.8740549412795957  0.0040984139220015  0.7499700846236976   T   T   T
  0.8672004748773219  0.5128461202257455  0.7606941767813069   T   T   T
  0.2482387109538919  0.0104115200982022  0.5086975849565505   T   T   T
  0.2377437854447280  0.5160859933101065  0.5099784284440219   T   T   T
  0.7454420390288448  0.0138568804714296  0.5043342747759993   T   T   T
  0.7460215872560667  0.5075530643937824  0.5049603202308433   T   T   T
  0.1272773041121269  0.1476831826590370  0.7890384521158538   T   T   T
  0.1314593189775408  0.6456895923793269  0.7965952753961574   T   T   T
  0.6314558338671787  0.1478579162407527  0.7896561465531420   T   T   T
  0.6487322791227967  0.6619059734249788  0.7806937093168003   T   T   T
  0.0078667010725724  0.1437277021373120  0.5387032350475067   T   T   T
  0.9969558387283612  0.6481934945469945  0.5421507192742396   T   T   T
  0.5077101515110911  0.1461455093254642  0.5389650940867554   T   T   T
  0.5070732669368070  0.6444102719225242  0.5381904622051934   T   T   T
  0.3887832072238453  0.1458709353622325  0.2983000771793840   T   T   T
  0.3888143720800414  0.6463150733591121  0.2954977146698070   T   T   T
  0.8908796736592208  0.1459557600091443  0.2968345904909384   T   T   T
  0.8878832878448009  0.6447999903398483  0.2965179793898471   T   T   T
  0.2601601246123408  0.1453209816289771  0.0477685895722999   T   T   T
  0.2609687909822185  0.6458991857217882  0.0418166783795400   T   T   T
  0.7632264695811344  0.1438182607610443  0.0380616240824594   T   T   T
  0.7616414870282711  0.6469280143766696  0.0489288563033057   T   T   T
  0.2475864188911032  0.3512567776789481  0.9633790034315766   T   T   T
  0.2446557710128801  0.8534516226010140  0.9614838887081376   T   T   T
  0.7458255650783983  0.3512062424512195  0.9630815944428122   T   T   T
  0.7578198350088527  0.8495216801081256  0.9580871237325681   T   T   T
  0.1194192428895917  0.3541311928504598  0.7068219932960034   T   T   T
  0.0771044666812415  0.8351352792700695  0.7267875496012906   T   T   T
  0.6174287626428878  0.3544507216453781  0.7093336656527427   T   T   T
  0.6230423168519152  0.8542147369471422  0.7035367546324807   T   T   T
  0.3664879238858632  0.3557374445612282  0.2014581559744428   T   T   T
  0.3643432248474952  0.8534084677242504  0.2002184126602984   T   T   T
  0.8636380412271052  0.3537374667543176  0.2011225754173722   T   T   T
  0.8649046443356525  0.8560579674596198  0.2053230235709975   T   T   T
  0.4870716388399359  0.3572735600981147  0.4529653455860156   T   T   T
  0.4893154905184360  0.8547122341066000  0.4500781343788773   T   T   T
  0.9849885199554578  0.3548844919062759  0.4537977308197938   T   T   T
  0.9875862414621253  0.8550810299346026  0.4581793711173106   T   T   T
  0.0078449151688389  0.0778694110249916  0.8633218077812188   T   T   T
  0.0064509332717790  0.5758470306110652  0.8626594393242044   T   T   T
  0.5084361188305735  0.0756189581206499  0.8606779678157253   T   T   T
  0.5043277081569713  0.5780309506726411  0.8624102192316059   T   T   T
  0.2581989320210027  0.0780673495316435  0.3550465347472382   T   T   T
  0.2553355689793406  0.5809947612090056  0.3577353403127077   T   T   T
  0.7556302560413997  0.0801148473747446  0.3519969370060636   T   T   T
  0.7570951670839463  0.5776730445329363  0.3562337578348362   T   T   T
  0.3813667885709080  0.0849622717997605  0.6109200237639385   T   T   T
  0.3773494238792949  0.5832128537139809  0.6088534977243327   T   T   T
  0.8784363080306221  0.0822067293307995  0.6055007693183470   T   T   T
  0.8830712435702495  0.5685088579377364  0.6020563776724117   T   T   T
  0.1295034782568862  0.0778778478593338  0.1033793609880931   T   T   T
  0.1278223016575311  0.5763181449044268  0.1002279904425336   T   T   T
  0.6294113361903868  0.0749075541835253  0.0960232965968402   T   T   T
  0.6291973957008494  0.5787106800051447  0.1011606070094544   T   T   T
  0.1414004988048987  0.0869277131167863  0.6044209356978243   T   T   T
  0.1356617611764364  0.5921085961155512  0.6043634161335447   T   T   T
  0.6404609701917181  0.0912918785097432  0.6011102378263260   T   T   T
  0.6416258218574740  0.5870370788173958  0.5992447266090082   T   T   T
  0.2634710521644976  0.0865884203357510  0.8530015942733442   T   T   T
  0.2646309499900212  0.5881414684962181  0.8472050421441324   T   T   T
  0.7649902675979376  0.0880176922582478  0.8487869995035240   T   T   T
  0.7651853085003992  0.5864735879258873  0.8544596711968708   T   T   T
  0.0170083384610891  0.0844503735235591  0.3510323052981192   T   T   T
  0.0163795483608240  0.5880102513026841  0.3565183836705472   T   T   T
  0.5172918954820460  0.0868114542268685  0.3503381849607905   T   T   T
  0.5153170190573704  0.5851634048999870  0.3513413512825494   T   T   T
  0.3886932257569100  0.0905334613353688  0.1054693154033259   T   T   T
  0.3932382819937388  0.5915361858429193  0.1031890808621156   T   T   T
  0.8959272998138417  0.0909982885617637  0.1023215728405589   T   T   T
  0.8912580552347791  0.5898681637458481  0.1036268422062321   T   T   T
  0.1610689482825549  0.2290255996132373  0.9734694335432508   T   T   T
  0.1592323851607773  0.7318131514826618  0.9747193519462840   T   T   T
  0.6600566426308418  0.2294822647203603  0.9743926141328956   T   T   T
  0.6636170870229137  0.7299942841657483  0.9680454356553767   T   T   T
  0.0237963121938520  0.2272239844436896  0.7349583222209333   T   T   T
  0.0033728645273499  0.7240559557107957  0.7412253941512503   T   T   T
  0.5245376795804759  0.2291013796787738  0.7356982733030151   T   T   T
  0.5292290652984946  0.7293023167156178  0.7346836184237020   T   T   T
  0.2751261179587914  0.2306759287618476  0.2197788964714107   T   T   T
  0.2748109567621668  0.7313165715359773  0.2199973168446903   T   T   T
  0.7771242077387939  0.2289271922433613  0.2154319888587111   T   T   T
  0.7742147679226861  0.7320539149544700  0.2242216065032210   T   T   T
  0.3888297364809787  0.2352326869073096  0.4801873206596738   T   T   T
  0.3904530964447090  0.7347938168413393  0.4809353379830199   T   T   T
  0.8885940225336739  0.2335600110890184  0.4797380788510424   T   T   T
  0.8938991869041075  0.7320713077182006  0.4788822887881636   T   T   T
  0.2175628286374049  0.2688966030555449  0.7714253562944222   T   T   T
  0.2076632748192040  0.7735664706312164  0.7692159595163730   T   T   T
  0.7173699155121867  0.2698140568432308  0.7727004471704859   T   T   T
  0.7345649644637433  0.7708264602998867  0.7603149994627145   T   T   T
  0.0899430063529323  0.2670841368817207  0.5286415833719857   T   T   T
  0.0888509964288318  0.7739744846519656  0.5413009191435094   T   T   T
  0.5886724868487647  0.2702212560988997  0.5297191124787020   T   T   T
  0.5903827367097776  0.7664029776514596  0.5256211186700881   T   T   T
  0.4792303662925974  0.2683717287954863  0.2766658303299536   T   T   T
  0.4793625416275589  0.7676805829776896  0.2746938409846038   T   T   T
  0.9806725274805075  0.2680912020319042  0.2781587516300164   T   T   T
  0.9802529419468229  0.7693000943908856  0.2797567393941662   T   T   T
  0.3574615409388784  0.2682921663367637  0.0166235313062586   T   T   T
  0.3555862200651987  0.7678467001055935  0.0126983849582274   T   T   T
  0.8570395446187007  0.2678875456972918  0.0136634795919193   T   T   T
  0.8593083048108952  0.7677651787709863  0.0217797566876214   T   T   T
  0.1118378480291966  0.4091782606626353  0.8962224863120980   T   T   T
  0.1059242958124145  0.9100135985229727  0.9056777142091121   T   T   T
  0.6109508889735977  0.4110237148894740  0.8971208799698118   T   T   T
  0.6170951296099432  0.9070201076420759  0.8924543862019831   T   T   T
  0.4842743314022684  0.4128218548440259  0.6483319793511697   T   T   T
  0.4942242905611351  0.9090009276917428  0.6449293593647099   T   T   T
  0.9870791604905023  0.4075873828026459  0.6481169361039534   T   T   T
  0.9794795142019339  0.9155892617795445  0.6475728051877923   T   T   T
  0.3578250387572197  0.4098722271822339  0.3950200698669519   T   T   T
  0.3596533823253552  0.9094313551049851  0.3936594434003311   T   T   T
  0.8530855937216444  0.4057997414747732  0.3953188837914396   T   T   T
  0.8581142278406233  0.9106885654620527  0.3984236864685613   T   T   T
  0.2348803352633198  0.4136856007621148  0.1478159170424149   T   T   T
  0.2349638031851526  0.9137906912847384  0.1458468087687876   T   T   T
  0.7342801231492047  0.4137610669764484  0.1466033984517736   T   T   T
  0.7379373541005947  0.9135923687913845  0.1422355698600484   T   T   T
  0.2448523743649744  0.4198482873066851  0.6389136247435445   T   T   T
  0.2685762283137905  0.9225660057067273  0.6330665118165655   T   T   T
  0.7471381383774585  0.4176037161448392  0.6422560639117876   T   T   T
  0.7422411352298397  0.9247244396895766  0.6356930944580839   T   T   T
  0.3691965249136544  0.4227293471413915  0.8877620179090897   T   T   T
  0.3713097354358297  0.9210945155539250  0.8865039054903718   T   T   T
  0.8703391942441741  0.4203143239511178  0.8885389903244345   T   T   T
  0.8693117561196146  0.9278258159180552  0.8940674974091465   T   T   T
  0.1190088303934616  0.4242767551834206  0.4015379743203411   T   T   T
  0.1230350122926609  0.9221710317180865  0.4026888657480612   T   T   T
  0.6207985555858357  0.4218301432956295  0.3978784054113476   T   T   T
  0.6220231123659090  0.9231180531769070  0.3969820019324430   T   T   T
  0.4954140879012812  0.4211560110540447  0.1430202963766689   T   T   T
  0.4965167004580664  0.9179108298705856  0.1379260982701922   T   T   T
  0.9955160306369706  0.4198386333166582  0.1433431001153949   T   T   T
  0.9963737581124548  0.9201908731387149  0.1467244015739411   T   T   T
 
  0.00000000E+00  0.00000000E+00  0.00000000E+00
  0.00000000E+00  0.00000000E+00  0.00000000E+00
  0.00000000E+00  0.00000000E+00  0.00000000E+00
  0.00000000E+00  0.00000000E+00  0.00000000E+00
  0.00000000E+00  0.00000000E+00  0.00000000E+00
  0.00000000E+00  0.00000000E+00  0.00000000E+00
  0.00000000E+00  0.00000000E+00  0.00000000E+00
  0.00000000E+00  0.00000000E+00  0.00000000E+00
  0.00000000E+00  0.00000000E+00  0.00000000E+00
  0.00000000E+00  0.00000000E+00  0.00000000E+00
  0.00000000E+00  0.00000000E+00  0.00000000E+00
  0.00000000E+00  0.00000000E+00  0.00000000E+00
  0.00000000E+00  0.00000000E+00  0.00000000E+00
  0.00000000E+00  0.00000000E+00  0.00000000E+00
  0.00000000E+00  0.00000000E+00  0.00000000E+00
  0.00000000E+00  0.00000000E+00  0.00000000E+00
  0.00000000E+00  0.00000000E+00  0.00000000E+00
  0.00000000E+00  0.00000000E+00  0.00000000E+00
  0.00000000E+00  0.00000000E+00  0.00000000E+00
  0.00000000E+00  0.00000000E+00  0.00000000E+00
  0.00000000E+00  0.00000000E+00  0.00000000E+00
  0.00000000E+00  0.00000000E+00  0.00000000E+00
  0.00000000E+00  0.00000000E+00  0.00000000E+00
  0.00000000E+00  0.00000000E+00  0.00000000E+00
  0.00000000E+00  0.00000000E+00  0.00000000E+00
  0.00000000E+00  0.00000000E+00  0.00000000E+00
  0.00000000E+00  0.00000000E+00  0.00000000E+00
  0.00000000E+00  0.00000000E+00  0.00000000E+00
  0.00000000E+00  0.00000000E+00  0.00000000E+00
  0.00000000E+00  0.00000000E+00  0.00000000E+00
  0.00000000E+00  0.00000000E+00  0.00000000E+00
  0.00000000E+00  0.00000000E+00  0.00000000E+00
  0.00000000E+00  0.00000000E+00  0.00000000E+00
  0.00000000E+00  0.00000000E+00  0.00000000E+00
  0.00000000E+00  0.00000000E+00  0.00000000E+00
  0.00000000E+00  0.00000000E+00  0.00000000E+00
  0.00000000E+00  0.00000000E+00  0.00000000E+00
  0.00000000E+00  0.00000000E+00  0.00000000E+00
  0.00000000E+00  0.00000000E+00  0.00000000E+00
  0.00000000E+00  0.00000000E+00  0.00000000E+00
  0.00000000E+00  0.00000000E+00  0.00000000E+00
  0.00000000E+00  0.00000000E+00  0.00000000E+00
  0.00000000E+00  0.00000000E+00  0.00000000E+00
  0.00000000E+00  0.00000000E+00  0.00000000E+00
  0.00000000E+00  0.00000000E+00  0.00000000E+00
  0.00000000E+00  0.00000000E+00  0.00000000E+00
  0.00000000E+00  0.00000000E+00  0.00000000E+00
  0.00000000E+00  0.00000000E+00  0.00000000E+00
  0.00000000E+00  0.00000000E+00  0.00000000E+00
  0.00000000E+00  0.00000000E+00  0.00000000E+00
  0.00000000E+00  0.00000000E+00  0.00000000E+00
  0.00000000E+00  0.00000000E+00  0.00000000E+00
  0.00000000E+00  0.00000000E+00  0.00000000E+00
  0.00000000E+00  0.00000000E+00  0.00000000E+00
  0.00000000E+00  0.00000000E+00  0.00000000E+00
  0.00000000E+00  0.00000000E+00  0.00000000E+00
  0.00000000E+00  0.00000000E+00  0.00000000E+00
  0.00000000E+00  0.00000000E+00  0.00000000E+00
  0.00000000E+00  0.00000000E+00  0.00000000E+00
  0.00000000E+00  0.00000000E+00  0.00000000E+00
  0.00000000E+00  0.00000000E+00  0.00000000E+00
  0.00000000E+00  0.00000000E+00  0.00000000E+00
  0.00000000E+00  0.00000000E+00  0.00000000E+00
  0.00000000E+00  0.00000000E+00  0.00000000E+00
  0.00000000E+00  0.00000000E+00  0.00000000E+00
  0.00000000E+00  0.00000000E+00  0.00000000E+00
  0.00000000E+00  0.00000000E+00  0.00000000E+00
  0.00000000E+00  0.00000000E+00  0.00000000E+00
  0.00000000E+00  0.00000000E+00  0.00000000E+00
  0.00000000E+00  0.00000000E+00  0.00000000E+00
  0.00000000E+00  0.00000000E+00  0.00000000E+00
  0.00000000E+00  0.00000000E+00  0.00000000E+00
  0.00000000E+00  0.00000000E+00  0.00000000E+00
  0.00000000E+00  0.00000000E+00  0.00000000E+00
  0.00000000E+00  0.00000000E+00  0.00000000E+00
  0.00000000E+00  0.00000000E+00  0.00000000E+00
  0.00000000E+00  0.00000000E+00  0.00000000E+00
  0.00000000E+00  0.00000000E+00  0.00000000E+00
  0.00000000E+00  0.00000000E+00  0.00000000E+00
  0.00000000E+00  0.00000000E+00  0.00000000E+00
  0.00000000E+00  0.00000000E+00  0.00000000E+00
  0.00000000E+00  0.00000000E+00  0.00000000E+00
  0.00000000E+00  0.00000000E+00  0.00000000E+00
  0.00000000E+00  0.00000000E+00  0.00000000E+00
  0.00000000E+00  0.00000000E+00  0.00000000E+00
  0.00000000E+00  0.00000000E+00  0.00000000E+00
  0.00000000E+00  0.00000000E+00  0.00000000E+00
  0.00000000E+00  0.00000000E+00  0.00000000E+00
  0.00000000E+00  0.00000000E+00  0.00000000E+00
  0.00000000E+00  0.00000000E+00  0.00000000E+00
  0.00000000E+00  0.00000000E+00  0.00000000E+00
  0.00000000E+00  0.00000000E+00  0.00000000E+00
  0.00000000E+00  0.00000000E+00  0.00000000E+00
  0.00000000E+00  0.00000000E+00  0.00000000E+00
  0.00000000E+00  0.00000000E+00  0.00000000E+00
  0.00000000E+00  0.00000000E+00  0.00000000E+00
  0.00000000E+00  0.00000000E+00  0.00000000E+00
  0.00000000E+00  0.00000000E+00  0.00000000E+00
  0.00000000E+00  0.00000000E+00  0.00000000E+00
  0.00000000E+00  0.00000000E+00  0.00000000E+00
  0.00000000E+00  0.00000000E+00  0.00000000E+00
  0.00000000E+00  0.00000000E+00  0.00000000E+00
  0.00000000E+00  0.00000000E+00  0.00000000E+00
  0.00000000E+00  0.00000000E+00  0.00000000E+00
  0.00000000E+00  0.00000000E+00  0.00000000E+00
  0.00000000E+00  0.00000000E+00  0.00000000E+00
  0.00000000E+00  0.00000000E+00  0.00000000E+00
  0.00000000E+00  0.00000000E+00  0.00000000E+00
  0.00000000E+00  0.00000000E+00  0.00000000E+00
  0.00000000E+00  0.00000000E+00  0.00000000E+00
  0.00000000E+00  0.00000000E+00  0.00000000E+00
  0.00000000E+00  0.00000000E+00  0.00000000E+00
  0.00000000E+00  0.00000000E+00  0.00000000E+00
  0.00000000E+00  0.00000000E+00  0.00000000E+00
  0.00000000E+00  0.00000000E+00  0.00000000E+00
  0.00000000E+00  0.00000000E+00  0.00000000E+00
  0.00000000E+00  0.00000000E+00  0.00000000E+00
  0.00000000E+00  0.00000000E+00  0.00000000E+00
  0.00000000E+00  0.00000000E+00  0.00000000E+00
  0.00000000E+00  0.00000000E+00  0.00000000E+00
  0.00000000E+00  0.00000000E+00  0.00000000E+00
  0.00000000E+00  0.00000000E+00  0.00000000E+00
  0.00000000E+00  0.00000000E+00  0.00000000E+00
  0.00000000E+00  0.00000000E+00  0.00000000E+00
  0.00000000E+00  0.00000000E+00  0.00000000E+00
  0.00000000E+00  0.00000000E+00  0.00000000E+00
  0.00000000E+00  0.00000000E+00  0.00000000E+00
  0.00000000E+00  0.00000000E+00  0.00000000E+00
  0.00000000E+00  0.00000000E+00  0.00000000E+00
  0.00000000E+00  0.00000000E+00  0.00000000E+00
  0.00000000E+00  0.00000000E+00  0.00000000E+00
  0.00000000E+00  0.00000000E+00  0.00000000E+00
  0.00000000E+00  0.00000000E+00  0.00000000E+00
  0.00000000E+00  0.00000000E+00  0.00000000E+00
  0.00000000E+00  0.00000000E+00  0.00000000E+00
  0.00000000E+00  0.00000000E+00  0.00000000E+00
  0.00000000E+00  0.00000000E+00  0.00000000E+00
  0.00000000E+00  0.00000000E+00  0.00000000E+00
  0.00000000E+00  0.00000000E+00  0.00000000E+00
  0.00000000E+00  0.00000000E+00  0.00000000E+00
  0.00000000E+00  0.00000000E+00  0.00000000E+00
  0.00000000E+00  0.00000000E+00  0.00000000E+00
  0.00000000E+00  0.00000000E+00  0.00000000E+00
  0.00000000E+00  0.00000000E+00  0.00000000E+00
  0.00000000E+00  0.00000000E+00  0.00000000E+00
  0.00000000E+00  0.00000000E+00  0.00000000E+00
  0.00000000E+00  0.00000000E+00  0.00000000E+00
  0.00000000E+00  0.00000000E+00  0.00000000E+00
  0.00000000E+00  0.00000000E+00  0.00000000E+00
  0.00000000E+00  0.00000000E+00  0.00000000E+00
  0.00000000E+00  0.00000000E+00  0.00000000E+00
  0.00000000E+00  0.00000000E+00  0.00000000E+00
  0.00000000E+00  0.00000000E+00  0.00000000E+00
  0.00000000E+00  0.00000000E+00  0.00000000E+00
  0.00000000E+00  0.00000000E+00  0.00000000E+00
