Ca Mn Co Cu P  O 
1.0
       17.7251377106         0.0000000000         0.0000000000
        4.4022346524         8.5509363976         0.0000000000
        8.6409960320         4.7144167202        14.7583271252
   Ca   Mn   Co   Cu    P    O
   15   12    4    8   24   96
Direct
     0.118993640         0.873355031         0.803427994
     0.118993640         0.873355031         0.303427994
     0.618993640         0.873355031         0.303427994
     0.618993640         0.873355031         0.803427994
     0.365302742         0.118704408         0.181976676
     0.365302742         0.118704408         0.681976676
     0.865302742         0.118704408         0.181976676
     0.865302742         0.118704408         0.681976676
     0.315436929         0.784238160         0.086522497
     0.815436959         0.784238160         0.086522497
     0.815436959         0.784238160         0.586522520
     0.415920883         0.358273685         0.386356026
     0.415920883         0.358273685         0.886355996
     0.915920854         0.358273685         0.386356026
     0.915920854         0.358273685         0.886355996
     0.039509472         0.605168819         0.298563004
     0.039509472         0.605168819         0.798563004
     0.539509475         0.605168819         0.298563004
     0.539509475         0.605168819         0.798563004
     0.229598165         0.853247404         0.428524315
     0.229598165         0.853247404         0.928524315
     0.729598165         0.853247404         0.428524315
     0.729598165         0.853247404         0.928524315
     0.511378765         0.342779666         0.139257312
     0.511378765         0.342779666         0.639257312
     0.011378765         0.342779666         0.139257312
     0.011378765         0.342779666         0.639257312
     0.227968410         0.200148791         0.060994521
     0.227968410         0.200148791         0.560994506
     0.727968395         0.200148791         0.060994521
     0.727968395         0.200148791         0.560994506
     0.526192427         0.806146085         0.048667055
     0.526192427         0.806146085         0.548667073
     0.026192427         0.806146085         0.048667055
     0.026192427         0.806146085         0.548667073
     0.223600417         0.362822682         0.330014348
     0.223600417         0.362822682         0.830014348
     0.723600388         0.362822682         0.330014348
     0.723600388         0.362822682         0.830014348
     0.135140583         0.217639074         0.267087877
     0.135140583         0.217639074         0.767087877
     0.635140598         0.217639074         0.267087877
     0.635140598         0.217639074         0.767087877
     0.093922772         0.964845836         0.124964133
     0.093922772         0.964845836         0.624964118
     0.593922794         0.964845836         0.124964133
     0.593922794         0.964845836         0.624964118
     0.166768909         0.541500807         0.443727553
     0.166768909         0.541500807         0.943727553
     0.666768909         0.541500807         0.443727553
     0.666768909         0.541500807         0.943727553
     0.377552956         0.501949310         0.023128644
     0.377552956         0.501949310         0.523128629
     0.877552986         0.501949310         0.023128644
     0.877552986         0.501949310         0.523128629
     0.365739375         0.061695170         0.392720014
     0.365739375         0.061695170         0.892719984
     0.865739346         0.061695170         0.392720014
     0.865739346         0.061695170         0.892719984
     0.367610902         0.763565898         0.233630508
     0.367610902         0.763565898         0.733630538
     0.867610931         0.763565898         0.233630508
     0.867610931         0.763565898         0.733630538
     0.011555879         0.119989894         0.138955444
     0.011555879         0.119989894         0.638955474
     0.511555851         0.119989894         0.138955444
     0.511555851         0.119989894         0.638955474
     0.128320619         0.410251141         0.033135261
     0.128320619         0.410251141         0.533135235
     0.628320634         0.410251141         0.033135261
     0.628320634         0.410251141         0.533135235
     0.044863131         0.263903052         0.253652662
     0.044863131         0.263903052         0.753652692
     0.544863105         0.263903052         0.253652662
     0.544863105         0.263903052         0.753652692
     0.145939648         0.050334062         0.341726631
     0.145939648         0.050334062         0.841726661
     0.645939648         0.050334062         0.341726631
     0.645939648         0.050334062         0.841726661
     0.218004599         0.199350119         0.177906156
     0.218004599         0.199350119         0.677906156
     0.718004584         0.199350119         0.177906156
     0.718004584         0.199350119         0.677906156
     0.129153475         0.357138813         0.293905318
     0.129153475         0.357138813         0.793905318
     0.629153490         0.357138813         0.293905318
     0.629153490         0.357138813         0.793905318
     0.111048833         0.924871743         0.042702924
     0.111048833         0.924871743         0.542702913
     0.611048818         0.924871743         0.042702924
     0.611048818         0.924871743         0.542702913
     0.080006838         0.814177752         0.211974695
     0.080006838         0.814177752         0.711974680
     0.580006838         0.814177752         0.211974695
     0.580006838         0.814177752         0.711974680
     0.286466926         0.641110122         0.029651655
     0.286466926         0.641110122         0.529651642
     0.786466956         0.641110122         0.029651655
     0.786466956         0.641110122         0.529651642
     0.137254968         0.563539743         0.367253751
     0.137254968         0.563539743         0.867253780
     0.637254953         0.563539743         0.367253751
     0.637254953         0.563539743         0.867253780
     0.369532675         0.331345618         0.049622204
     0.369532675         0.331345618         0.549622178
     0.869532704         0.331345618         0.049622204
     0.869532704         0.331345618         0.549622178
     0.303724617         0.951650083         0.446454376
     0.303724617         0.951650083         0.946454406
     0.803724647         0.951650083         0.446454376
     0.803724647         0.951650083         0.946454406
     0.176068157         0.999340773         0.119030356
     0.176068157         0.999340773         0.619030356
     0.676068187         0.999340773         0.119030356
     0.676068187         0.999340773         0.619030356
     0.126820147         0.717070341         0.455315173
     0.126820147         0.717070341         0.955315173
     0.626820147         0.717070341         0.455315173
     0.626820147         0.717070341         0.955315173
     0.410576314         0.511137962         0.088489167
     0.410576314         0.511137962         0.588489175
     0.910576344         0.511137962         0.088489167
     0.910576344         0.511137962         0.588489175
     0.268606484         0.488341242         0.415279597
     0.268606484         0.488341242         0.915279627
     0.768606484         0.488341242         0.415279597
     0.768606484         0.488341242         0.915279627
     0.338513702         0.195991784         0.307866216
     0.338513702         0.195991784         0.807866216
     0.838513732         0.195991784         0.307866216
     0.838513732         0.195991784         0.807866216
     0.346223921         0.148190811         0.460459977
     0.346223921         0.148190811         0.960459948
     0.846223950         0.148190811         0.460459977
     0.846223950         0.148190811         0.960459948
     0.283807009         0.745473087         0.236973971
     0.283807009         0.745473087         0.736974001
     0.783807039         0.745473087         0.236973971
     0.783807039         0.745473087         0.736974001
     0.340382427         0.866188705         0.293964654
     0.340382427         0.866188705         0.793964624
     0.840382457         0.866188705         0.293964654
     0.840382457         0.866188705         0.793964624
     0.408874005         0.871769488         0.131736085
     0.408874005         0.871769488         0.631736100
     0.908874035         0.871769488         0.131736085
     0.908874035         0.871769488         0.631736100
     0.440980047         0.598162532         0.254816175
     0.440980047         0.598162532         0.754816175
     0.940980077         0.598162532         0.254816175
     0.940980077         0.598162532         0.754816175
     0.446908206         0.530704379         0.425012857
     0.446908206         0.530704379         0.925012827
     0.946908236         0.530704379         0.425012857
     0.946908236         0.530704379         0.925012827
     0.465731084         0.966888726         0.363052815
     0.465731084         0.966888726         0.863052845
     0.965731084         0.966888726         0.363052815
     0.965731084         0.966888726         0.863052845
