Ca V  O                                 
   1.00000000000000     
    11.0808181762999993    0.0000000000000000    0.0000000000000000
    -1.8468029563999999    7.7866447772000003    0.0000000000000000
     0.0000000000000000   -3.0461372258999999    9.8078967616000003
   Ca   V    O 
     5    18    45
Direct
  0.6806867237711657  0.0056350870424545  0.3705762362968261
  0.1836362001702392  0.1358038042089020  0.3316070662190199
  0.1430487206860767  0.8669690258825843  0.6653513156521240
  0.4703803931954699  0.9165262177602410  0.6428974232401029
  0.7959865250627263  0.8457114922797305  0.6750324900175816
  0.0341934676137113  0.2458951947160233  0.1067155060457122
  0.3783272101946488  0.2431828194579842  0.1053977756618261
  0.7087561042128179  0.2532662251952844  0.1144006580388557
  0.2980216045906894  0.7793086199042953  0.9019748563363095
  0.6230099082709338  0.7940382196387504  0.9083892743955865
  0.9605928992002507  0.7823693382288436  0.9073895599727434
  0.1097241073437285  0.6630257921184891  0.0924279139345945
  0.4448377462233106  0.6738073707189227  0.1077361183941343
  0.7795097386028974  0.6759874608711507  0.0938500415199783
  0.2251734090964588  0.3442241912321095  0.9081319742716176
  0.5603275807641125  0.3604516494543156  0.9051920826453446
  0.8872093629795769  0.3396983361647010  0.8930264192701090
  0.0944956435037297  0.5525380537564911  0.3937922797685512
  0.4279841631315950  0.5202499226047134  0.3926787080904302
  0.7538166452997139  0.5552609429493935  0.3940188669318375
  0.2380600959804100  0.4338975927241364  0.6045960763639526
  0.5709638497205328  0.3937906189652167  0.5834745354187341
  0.9038671631074726  0.4362363492303971  0.5891875699567127
  0.9987473072966817  0.0073705871382383  0.0069571848007248
  0.3368362751546379  0.0081681916435624  0.9998874837700623
  0.6630867903583124  0.0149117929484160  0.0120515704031687
  0.2727701681950322  0.6401875919696515  0.0509724732451821
  0.6048347951166497  0.6359629911608946  0.0420774535315251
  0.9372283587068613  0.6357689021571359  0.0375386868191411
  0.0606055184690293  0.3752254787499979  0.9514481417426617
  0.3975065698673450  0.3842403742388733  0.9585907031677613
  0.7311602472675578  0.3879589410155401  0.9519244413736967
  0.2096381337154680  0.2677832658201926  0.0781580579786611
  0.5480759351248816  0.2798679785966266  0.0808106789980338
  0.8749592487071887  0.2695717661389049  0.0673704978618783
  0.1237882303740352  0.7396948003768685  0.9238252866964738
  0.4545586642995735  0.7429806598593610  0.9376548967446453
  0.7839968395502372  0.7537567986809834  0.9180006240939290
  0.1353287164486089  0.8591982593191837  0.2076593750742536
  0.4942491831439134  0.8681397837655920  0.2245999702973863
  0.8044663191095243  0.8726237802473935  0.2096625506040703
  0.1999503761503434  0.1444133551795373  0.7969996017719092
  0.5246421198231994  0.1505780378097764  0.8123482500103837
  0.8505717280569985  0.1379200626494634  0.7834574944753510
  0.0832758815660427  0.5215370726617130  0.2079929866439073
  0.4177821356289523  0.5173460355584891  0.2114930333593847
  0.7565073846662388  0.5295447844362118  0.2102730716383903
  0.2488120469661821  0.4831301963041176  0.7883010809307145
  0.5765029495239965  0.4686117976579624  0.7707043301728619
  0.9112053553023504  0.4717399663594642  0.7731437146978458
  0.0282755129042019  0.2389345225879749  0.2703705042944477
  0.3743855630894499  0.2266798130454416  0.2677947405056300
  0.7159458669287756  0.2375043982875728  0.2735796491765833
  0.3051366058905315  0.7823484811185730  0.7298116370735663
  0.6073308909423497  0.8121069978500374  0.7464221973964122
  0.9637401518486037  0.7878964429063686  0.7371120490062067
  0.0845419511778862  0.5072225125915534  0.5769245563853637
  0.4122745204544542  0.4497245618657198  0.5651797371262551
  0.7473773335838911  0.5083457729278442  0.5786747798626992
  0.2482324919494772  0.4756780820685467  0.4192539671906324
  0.5819461325868011  0.4607811122071258  0.4124305509164320
  0.9201728876962516  0.5366313488417800  0.4302156548371322
  0.1547405353760425  0.7738705532039792  0.4423791619542627
  0.4856911801146724  0.7431248980096866  0.4426735248504244
  0.7586677374942898  0.7782539792113679  0.4483623327537892
  0.1850494432974076  0.2125520958950854  0.5592086620232033
  0.5571526670028213  0.1704596858683152  0.5397742788764394
  0.8572392817964709  0.2173551659794062  0.5223159724491522
 
             NaN             NaN             NaN
             NaN             NaN             NaN
             NaN             NaN             NaN
             NaN             NaN             NaN
             NaN             NaN             NaN
             NaN             NaN             NaN
             NaN             NaN             NaN
             NaN             NaN             NaN
             NaN             NaN             NaN
             NaN             NaN             NaN
             NaN             NaN             NaN
             NaN             NaN             NaN
             NaN             NaN             NaN
             NaN             NaN             NaN
             NaN             NaN             NaN
             NaN             NaN             NaN
             NaN             NaN             NaN
             NaN             NaN             NaN
             NaN             NaN             NaN
             NaN             NaN             NaN
             NaN             NaN             NaN
             NaN             NaN             NaN
             NaN             NaN             NaN
             NaN             NaN             NaN
             NaN             NaN             NaN
             NaN             NaN             NaN
             NaN             NaN             NaN
             NaN             NaN             NaN
             NaN             NaN             NaN
             NaN             NaN             NaN
             NaN             NaN             NaN
             NaN             NaN             NaN
             NaN             NaN             NaN
             NaN             NaN             NaN
             NaN             NaN             NaN
             NaN             NaN             NaN
             NaN             NaN             NaN
             NaN             NaN             NaN
             NaN             NaN             NaN
             NaN             NaN             NaN
             NaN             NaN             NaN
             NaN             NaN             NaN
             NaN             NaN             NaN
             NaN             NaN             NaN
             NaN             NaN             NaN
             NaN             NaN             NaN
             NaN             NaN             NaN
             NaN             NaN             NaN
             NaN             NaN             NaN
             NaN             NaN             NaN
             NaN             NaN             NaN
             NaN             NaN             NaN
             NaN             NaN             NaN
             NaN             NaN             NaN
             NaN             NaN             NaN
             NaN             NaN             NaN
             NaN             NaN             NaN
             NaN             NaN             NaN
             NaN             NaN             NaN
             NaN             NaN             NaN
             NaN             NaN             NaN
             NaN             NaN             NaN
             NaN             NaN             NaN
             NaN             NaN             NaN
             NaN             NaN             NaN
             NaN             NaN             NaN
             NaN             NaN             NaN
             NaN             NaN             NaN
