Ca V  O                                 
   1.00000000000000     
    11.0808181762999993    0.0000000000000000    0.0000000000000000
    -1.8468029563999999    7.7866447772000003    0.0000000000000000
     0.0000000000000000   -3.0461372258999999    9.8078967616000003
   Ca   V    O 
     5    18    45
Direct
  0.6806922250700945  0.0056338140263312  0.3705587925484082
  0.1836328930670738  0.1357862983281959  0.3316279971500971
  0.1430564448943190  0.8670056101117680  0.6653606847396584
  0.4703843755703636  0.9165492198359242  0.6429138182504874
  0.7960002237416767  0.8457226501698489  0.6750522057234667
  0.0342160153765278  0.2458919577282336  0.1067166270587889
  0.3783156682236110  0.2432000777749365  0.1054265046244103
  0.7087558446841203  0.2532705217117535  0.1143576820784925
  0.2980333597240641  0.7793919025479892  0.9020236615613667
  0.6230279899851012  0.7940634620205720  0.9084148915487074
  0.9605989446712457  0.7824441801399332  0.9074101714177575
  0.1097369622171401  0.6630946507169408  0.0924545967555297
  0.4448397736762938  0.6738012816897001  0.1077171143721855
  0.7795137921244027  0.6759862982397681  0.0938513182505847
  0.2251642585842856  0.3441772323899044  0.9081088121132015
  0.5603133146511570  0.3604006546404304  0.9051920043827429
  0.8872058478836635  0.3396689656676948  0.8930342951814519
  0.0944981875012967  0.5525543373358686  0.3937932662409669
  0.4279781008182997  0.5202634702195159  0.3926681067739977
  0.7538216712424419  0.5552845967431982  0.3940103479165099
  0.2380573349657710  0.4338613747225668  0.6045499387939034
  0.5709576587601572  0.3937242014148783  0.5834686660865507
  0.9038756470289243  0.4362376362944388  0.5891881583092733
  0.9987574947849529  0.0073877624607180  1.0069603381783583
  0.3368441879487150  0.0081923633128900 -0.0001034167699429
  0.6630855841817090  0.0149412152058295  0.0120674964498957
  0.2727711199710700  0.6402038419303843  0.0509758683440974
  0.6048456682968653  0.6359421380518206  0.0420559066687370
  0.9372248947934037  0.6357978386481852  0.0375363038953629
  0.0606027580070777  0.3752297651152215  0.9514445110463653
  0.3975018589015704  0.3842239887061217  0.9585823741012293
  0.7311673660839795  0.3879605396714125  0.9519431951359946
  0.2096354741054020  0.2677495445100140  0.0781474718360253
  0.5480694419656509  0.2798444816314880  0.0807923233938944
  0.8749640367386746  0.2695633831483970  0.0673652847435925
  0.1237774105937784  0.7397378865086800  0.9238454191975073
  0.4545692103569618  0.7430086111257469  0.9376660040731859
  0.7840148285970956  0.7537935113870209  0.9180308121222475
  0.1353361993119349  0.8591801989898298  0.2076211036378397
  0.4942533389612863  0.8681304880348965  0.2245896096623560
  0.8044541719107973  0.8725780803006191  0.2096347898504722
  0.1999448737980115  0.1444043705003616  0.7970215129987855
  0.5246452743098098  0.1506065675310046  0.8123559558557787
  0.8505703007279612  0.1378999726492905  0.7834757950391298
  0.0832871659280592  0.5215353944166748  0.2080038278280494
  0.4177845324739227  0.5173268622762126  0.2114931160752525
  0.7565007504861618  0.5295182910235195  0.2102517162605227
  0.2488097575903836  0.4830773501104353  0.7882715585617509
  0.5765003877406831  0.4685747677316399  0.7706953751850004
  0.9112056684612700  0.4717167987350364  0.7731364133282697
  0.0282841121937160  0.2388831713618725  0.2703399796958298
  0.3743802127182700  0.2266487978344370  0.2677758744289576
  0.7159379525947995  0.2374598156484072  0.2735735028418463
  0.3051392493430603  0.7823701063451912  0.7298262960588425
  0.6073519407456546  0.8121489654102999  0.7464377422324948
  0.9637517896851177  0.7879491702271173  0.7371480901294803
  0.0845330687632947  0.5071705210803630  0.5769011103303737
  0.4122758823913190  0.4497117586974208  0.5651707395985541
  0.7473803982557499  0.5083378034649908  0.5786691889632762
  0.2482370967013477  0.4756909981107468  0.4192351876530592
  0.5819455271164522  0.4607693193975374  0.4124110681588150
  0.9201699836435143  0.5366182190527911  0.4302040239756851
  0.1547315919468630  0.7738704620733516  0.4424092995778506
  0.4856793648324177  0.7431248054111628  0.4426939767333535
  0.7586738305834050  0.7782648376515569  0.4483591929963713
  0.1850594792014116  0.2125801440310106  0.5592047008748252
  0.5571611995274444  0.1704966740780659  0.5397901251103380
  0.8572275195776172  0.2173420239554961  0.5223219180870571
 
             NaN             NaN             NaN
             NaN             NaN             NaN
             NaN             NaN             NaN
             NaN             NaN             NaN
             NaN             NaN             NaN
             NaN             NaN             NaN
             NaN             NaN             NaN
             NaN             NaN             NaN
             NaN             NaN             NaN
             NaN             NaN             NaN
             NaN             NaN             NaN
             NaN             NaN             NaN
             NaN             NaN             NaN
             NaN             NaN             NaN
             NaN             NaN             NaN
             NaN             NaN             NaN
             NaN             NaN             NaN
             NaN             NaN             NaN
             NaN             NaN             NaN
             NaN             NaN             NaN
             NaN             NaN             NaN
             NaN             NaN             NaN
             NaN             NaN             NaN
             NaN             NaN             NaN
             NaN             NaN             NaN
             NaN             NaN             NaN
             NaN             NaN             NaN
             NaN             NaN             NaN
             NaN             NaN             NaN
             NaN             NaN             NaN
             NaN             NaN             NaN
             NaN             NaN             NaN
             NaN             NaN             NaN
             NaN             NaN             NaN
             NaN             NaN             NaN
             NaN             NaN             NaN
             NaN             NaN             NaN
             NaN             NaN             NaN
             NaN             NaN             NaN
             NaN             NaN             NaN
             NaN             NaN             NaN
             NaN             NaN             NaN
             NaN             NaN             NaN
             NaN             NaN             NaN
             NaN             NaN             NaN
             NaN             NaN             NaN
             NaN             NaN             NaN
             NaN             NaN             NaN
             NaN             NaN             NaN
             NaN             NaN             NaN
             NaN             NaN             NaN
             NaN             NaN             NaN
             NaN             NaN             NaN
             NaN             NaN             NaN
             NaN             NaN             NaN
             NaN             NaN             NaN
             NaN             NaN             NaN
             NaN             NaN             NaN
             NaN             NaN             NaN
             NaN             NaN             NaN
             NaN             NaN             NaN
             NaN             NaN             NaN
             NaN             NaN             NaN
             NaN             NaN             NaN
             NaN             NaN             NaN
             NaN             NaN             NaN
             NaN             NaN             NaN
             NaN             NaN             NaN
