Ca Ti Mn Si O  F 
 1.0000000000000000
     9.9872684479000000    0.0000000000000000    0.0000000000000000
     0.0000000000000000   10.9652748108000004    0.0000000000000000
     0.0000000000000000   -4.3438069094999996   13.5038650633999993
 Ca  Ti  Mn  Si  O   F  
  11   8  12  16  64   8
Selective dynamics
Cartesian
  2.7017711991403210  2.4974618906760595  5.9283514296065656   T   T   T
  6.0091058759390865 -2.1524264935197577 13.2911615951647182   T   T   T
  3.9827232282017899  8.7690581696684617  0.2449748161738246   T   T   T
  8.9771771641232334  5.4606750903006116  6.6156100935355626   T   T   T
  3.6637446525519812  0.6952252189780184 12.3716050451552597   T   T   T
  6.3358182973437707  5.8648900828242700  1.2186378649285901   T   T   T
  8.7329962514341481 -1.5990988418802465  7.8839174585946639   T   T   T
  1.3213116694536693  8.3581078472982728  5.5873866344342860   T   T   T
  1.2171071714969388  6.1027924054358946 12.2884733464940368   T   T   T
  8.7087428881023641  0.4615443424344906  1.1591507162666093   T   T   T
  6.1700388103656314  3.7349883942729707  7.8426653242897144   T   T   T
  4.0884704539782648  5.2679705274400002 10.1443516494508401   T   T   T
  5.8802994467680669  1.3773917431865290  3.3788242595479780   T   T   T
  9.0090284348859981  4.7148974945135222 10.1140000858201411   T   T   T
  0.8942378746543141  1.8713943612673758  3.3220288047887667   T   T   T
  0.9166830571227381 -0.3072615468084170 10.3015647124172158   T   T   T
  9.0885638323751685  6.9632390060917828  3.2256349714806234   T   T   T
  5.9064282521303539 -0.6546027288842061  9.9212918421144600   T   T   T
  4.0849185814052529  7.2958249448174834  3.5790315069827137   T   T   T
  3.9902312965679876  6.7010149680392779  6.9625293805754787   T   T   T
  5.9741605363187427 -0.0155644253030783  6.5264289384939911   T   T   T
  9.0176585708885693  3.1893358480612464 13.3070939486731010   T   T   T
  1.0157275263086245  3.3681803655204536  0.2234881640725474   T   T   T
  3.5415478718971767  1.7270132253711681  9.2189097323720457   T   T   T
  6.2842937364403566  4.6520146513645608  4.4084562303237984   T   T   T
  8.5893278694730846 -2.8344108135597197 11.0497067497355559   T   T   T
  1.4104022719037963  9.5276374008272473  2.4455620146967476   T   T   T
  1.4426585417631297  7.4296695628874083  9.1254548804746385   T   T   T
  8.5893391213450432 -0.6584258770830321  4.3907007436940990   T   T   T
  6.4250375142774807  2.6246440393079435 11.0748504469742368   T   T   T
  3.5635619150256348  3.9467153609136036  2.4749422934469987   T   T   T
  3.3317288822546187 -2.3443089911255539 11.5752061143150016   T   T   T
  6.6852150133012422  8.9321741689867906  1.9214156075796343   T   T   T
  8.3686645401297532  1.3769813651388074  8.6740497982796150   T   T   T
  1.6602592840176180  5.2612723131614691  4.8499370540432309   T   T   T
  6.7257239005076661  6.7999780817108801  8.6398967779942701   T   T   T
  3.3298229055028341 -0.2344975831450256  4.7688067782856436   T   T   T
  1.7303342954053031  3.1548882138687171 11.6045687630056253   T   T   T
  8.1995459348932123  3.4308125728514538  1.9226270130518825   T   T   T
  1.6728575399656505  4.3854044663066230  8.0437780850566458   T   T   T
  8.3964094533445053  2.2791717085931209  5.6079932219604949   T   T   T
  6.6681333485493237  5.6289616203126078 12.3444434226324464   T   T   T
  3.2907374308340405  0.9985826394112132  1.1331790678655393   T   T   T
  3.2652796765290013 -1.0793946245549504  7.8610205553094223   T   T   T
  6.7151282566881187  7.8209381775782791  5.5845527054199371   T   T   T
  8.2642048131927748  0.1392249296469895 12.3394329949042270   T   T   T
  1.7289576908401640  6.4716279156851968  1.1834615805616069   T   T   T
  5.1517069512960596  2.9252665149032127  3.7592274460222832   T   T   T
  4.8196071751023206  3.6941820744088738  9.7458148057793146   T   T   T
  0.1587816772930992  0.2872799202146652  2.9279692180016639   T   T   T
  9.6885150569353460  6.3036187126585901 10.5713297230507344   T   T   T
  2.2102248179161261  1.7804289361754537 10.9069752541593097   T   T   T
  7.7095086669432371  4.7227912988540313  2.7607380042168348   T   T   T
  7.2458747644489492 -2.8202970568498715  9.3728570293566698   T   T   T
  2.8315872026330751  9.3399118494799485  4.0960511415676342   T   T   T
  0.1889049749024835 -1.8832918739193623  9.7880350869381427   T   T   T
  9.8499291790742287  8.5081956756487731  3.6609161380928330   T   T   T
  5.1853450078641599  0.8945230429296759 10.4821595902790268   T   T   T
  4.7992875866409213  5.7228350395402430  3.0733148963670529   T   T   T
  5.1511609690448870  6.3689739471454256  8.7900936009894473   T   T   T
  4.9118969926313385  0.1593074434671835  4.6383942429074487   T   T   T
  0.1792552913759239  3.6640673492577807 11.4788236837133617   T   T   T
  9.7566465782734344  2.9317623825207138  1.9746582728735782   T   T   T
  2.2795120039933350 -1.0825583489895503 11.7455020216982895   T   T   T
  7.7335804590325710  7.6568070514298228  1.7694167769450675   T   T   T
  7.2759225767375639  0.1129348913730662  8.5966979295979389   T   T   T
  2.7202887211926532  6.5212876381485740  4.9669901643027119   T   T   T
  7.3725155302212499 -3.8778408612527997 12.5748838254250419   T   T   T
  2.5846710401168935 10.4977809836562361  0.9017935957926807   T   T   T
  2.3524423982278884  2.9392982624250243  8.0531169023488616   T   T   T
  7.6652636572489872  3.7393355000009465  5.8464783957084743   T   T   T
  7.6307632342257934  5.4352827196083657  8.8577422782688249   T   T   T
  2.4019324520441536  1.0209645510536467  4.2654191603583653   T   T   T
  2.6959171272801621  4.4818850404468913 11.3849673986518898   T   T   T
  7.2481219995996984  2.0798937961476827  2.0468384723738637   T   T   T
  2.7251191335394078  8.3570872780831014  7.5924364749940194   T   T   T
  7.2458707025842060 -1.6243129643505185  5.8632045713166780   T   T   T
  7.7271546677672571  1.6753925694507734 12.5324782427597121   T   T   T
  2.3033803555493044  4.9607607745425568  0.9480313662180424   T   T   T
  3.7190696164856272 -2.7763792219673098 13.1350373732662788   T   T   T
  6.3287350790134793  9.3561252413292717  0.3457665501016487   T   T   T
  8.7061267461210470  1.6697460426987414  7.0988455312529526   T   T   T
  1.4171354075043996  4.7390536973797870  6.4208000368439802   T   T   T
  4.7901125875481121 -1.7678065708401842 11.0915408894238183   T   T   T
  5.2188457696307013  8.3519897155396663  2.3720544720418806   T   T   T
  9.7140668872246465  0.7727996835253473  9.3601507868996077   T   T   T
  0.1924558759779706  5.8834769510932237  4.4721362046960369   T   T   T
  2.0004955551159700  2.9415645627923439 13.2497721762544565   T   T   T
  7.8885419918250710  3.7924804212600201  0.3146524993672493   T   T   T
  7.0037399179884963  6.9852864920505606  6.9992879068797356   T   T   T
  3.0405486873706504 -0.2468559335593008  6.4229677079812113   T   T   T
  9.8666476853745078 -0.0430418757098809 12.0848180499074953   T   T   T
  0.1249371209065314  6.5659725192533056  1.4948270325283741   T   T   T
  4.8757458834618541 -0.9982003773223537  8.2111754187678017   T   T   T
  5.1135326564700749  7.6714811833144578  5.2690450251426686   T   T   T
  2.7074189868620091  7.3237953812918644 10.8377887605461325   T   T   T
  7.3097388484852042 -0.7490750407093107  2.6656085117929185   T   T   T
  7.7421678453675948  2.7003205163161930  9.3818865643406966   T   T   T
  2.1761793210027620  3.9401426987376116  4.0695901592464949   T   T   T
  2.6200548951188076  5.5823073077605194  8.6563062579550945   T   T   T
  7.3894197466800371  1.2131309892172519  4.8345745318044520   T   T   T
  7.6057926871045041  4.4950160708102507 11.6145144890587169   T   T   T
  2.2891559198645188  2.1516121923169296  1.7510626947249730   T   T   T
  5.1673013831290708  5.7031270811352401 11.6933027607797317   T   T   T
  4.7604770403967471  0.9207472084724534  1.8422104452778423   T   T   T
  0.1358341150943695  4.4370006288816395  8.5870607351384827   T   T   T
  9.8479098579148960  2.3701194914383077  4.8403503684976048   T   T   T
  2.4419287210241891 -0.2528857505471928  9.0132884016056884   T   T   T
  7.6233087314600700  6.9365394976041328  4.5405835704006243   T   T   T
  7.3654176764429007 -0.8285105559859124 11.3463172128058236   T   T   T
  2.6266334999570282  7.4214632831460223  2.1823743783753624   T   T   T
  0.0977441206340373 -2.9652455316557824 12.9876057840444723   T   T   T
  9.8681104726032398  9.5238391871633308  0.4921456621235411   T   T   T
  4.9716772305377566  1.8615755219095595  7.2750459629540991   T   T   T
  4.9076640526030859  4.7767497221128838  6.2508807336842862   T   T   T
  9.9906085932510038  7.4148138490524600  7.3017839028001577   T   T   T
 -0.0354342292490753 -0.9084796131257005  6.0986120467768981   T   T   T
  4.9873048159776276  2.4822888412125561 13.0380683180179329   T   T   T
  4.9856318858832447  4.0999823453337090  0.5447419558957748   T   T   T
