Sc2 Mn4 O10
1.0
   1.9956450000000001   -4.8821940000000001    0.0000000000000000
   1.9956450000000001    4.8821940000000001    0.0000000000000000
   0.0000000000000000    0.0000000000000000    9.8913899999999995
Sc Mn O
2 4 10
direct
   0.7964500000000001    0.2035500000000000    0.2500000000000000 Sc
   0.2035500000000000    0.7964500000000001    0.7500000000000000 Sc
   0.8617389999999990    0.1382610000000000    0.5558580000000000 Mn
   0.8617389999999990    0.1382610000000000    0.9441419999999990 Mn
   0.1382610000000000    0.8617389999999990    0.0558580000000000 Mn
   0.1382610000000000    0.8617389999999990    0.4441420000000000 Mn
   0.9521609999999990    0.0478390000000000    0.1150809999999990 O
   0.9521609999999990    0.0478390000000000    0.3849189999999990 O
   0.6875060000000000    0.3124940000000000    0.4457049999999990 O
   0.6875060000000000    0.3124940000000000    0.0542949999999990 O
   0.2193969999999990    0.7806029999999990    0.2500000000000000 O
   0.0478390000000000    0.9521609999999990    0.6150810000000000 O
   0.3124940000000000    0.6875060000000000    0.5542950000000000 O
   0.7806029999999990    0.2193969999999990    0.7500000000000000 O
   0.0478390000000000    0.9521609999999990    0.8849190000000000 O
   0.3124940000000000    0.6875060000000000    0.9457049999999990 O
