Sc Mn O 
 1.0000000000000000
     1.9956450000000001   -4.8821940000000001    0.0000000000000000
     1.9956450000000001    4.8821940000000001    0.0000000000000000
     0.0000000000000000    0.0000000000000000    9.8913899999999995
 Sc  Mn  O  
   2   4  10
Cartesian
  1.9956449999999986 -2.8877440596775035  2.4728474999999945
  1.9956449999999983  2.8877440596775030  7.4185424999999983
  1.9956449999999983 -3.5434826710700431  5.5026252212782580
  1.9956449999999983 -3.5434826710700436  9.3344597787217278
  1.9956449999999983  3.5434826710700440  0.5569302212782611
  1.9956449999999983  3.5434826710700431  4.3887647787217334
  1.9956449999999983 -4.4156288787409244  1.1442289925645455
  1.9956449999999983 -4.4156288787409270  3.8014660074354478
  1.9956449999999983 -1.8359069399387460  4.3999828564960763
  1.9956449999999983 -1.8359069399387467  0.5457121435039135
  1.9956449999999988  2.7342597025603399  2.4728474999999963
  1.9956449999999983  4.4156288787409270  6.0899239925645485
  1.9956449999999983  1.8359069399387475  5.4914071435039178
  1.9956449999999988 -2.7342597025603399  7.4185424999999992
  1.9956449999999983  4.4156288787409244  8.7471610074354480
  1.9956449999999983  1.8359069399387447  9.3456778564960743
