Ca V  O 
1.0
       21.6339473724         0.0000000000         0.0000000000
        0.0000000000        11.0522336960         0.0000000000
        2.1948486433         0.0000000000        10.0805402703
   Ca    V    O
    5   54  132
Direct
     0.172478706         0.250000000         0.406510055
     0.172478706         0.916666687         0.406510055
     0.827521741         0.083333336         0.593486071
     0.827521741         0.416666657         0.593486071
     0.827521741         0.750000000         0.593486071
     0.028335586         0.083333336         0.385469526
     0.028335586         0.416666657         0.385469526
     0.028335586         0.750000000         0.385469526
     0.092020221         0.250000000         0.783833385
     0.092020221         0.583333313         0.783833385
     0.092020221         0.916666687         0.783833385
     0.060421530         0.083333336         0.040125318
     0.060421530         0.416666657         0.040125318
     0.060421530         0.750000000         0.040125318
     0.255097061         0.250000000         0.818744838
     0.255097061         0.583333313         0.818744838
     0.255097061         0.916666687         0.818744838
     0.285537988         0.083333336         0.567110717
     0.285537988         0.416666657         0.567110717
     0.285537988         0.750000000         0.567110717
     0.367716104         0.250000000         0.971741676
     0.367716104         0.583333313         0.971741676
     0.367716104         0.916666687         0.971741676
     0.317448616         0.083333336         0.213413805
     0.317448616         0.416666657         0.213413805
     0.317448616         0.750000000         0.213413805
     0.404117644         0.250000000         0.615934253
     0.404117644         0.583333313         0.615934253
     0.404117644         0.916666687         0.615934253
     0.431633353         0.083333336         0.358665496
     0.431633353         0.416666657         0.358665496
     0.431633353         0.750000000         0.358665496
     0.568397403         0.250000000         0.641319215
     0.568397403         0.583333313         0.641319215
     0.568397403         0.916666687         0.641319215
     0.595839381         0.083333336         0.384043843
     0.595839381         0.416666657         0.384043843
     0.595839381         0.750000000         0.384043843
     0.682537794         0.250000000         0.786505103
     0.682537794         0.583333313         0.786505103
     0.682537794         0.916666687         0.786505103
     0.632282555         0.083333336         0.028291175
     0.632282555         0.416666657         0.028291175
     0.632282555         0.750000000         0.028291175
     0.714436829         0.250000000         0.432888299
     0.714436829         0.583333313         0.432888299
     0.714436829         0.916666687         0.432888299
     0.744900823         0.083333336         0.181225047
     0.744900823         0.416666657         0.181225047
     0.744900823         0.750000000         0.181225047
     0.939582467         0.250000000         0.959863782
     0.939582467         0.583333313         0.959863782
     0.939582467         0.916666687         0.959863782
     0.907978714         0.083333336         0.216189951
     0.907978714         0.416666657         0.216189951
     0.907978714         0.750000000         0.216189951
     0.971670568         0.250000000         0.614526033
     0.971670568         0.583333313         0.614526033
     0.971670568         0.916666687         0.614526033
     0.005134285         0.250000000         0.420225084
     0.005134285         0.583333313         0.420225084
     0.005134285         0.916666687         0.420225084
     0.080121137         0.083333336         0.834172070
     0.080121137         0.416666657         0.834172070
     0.080121137         0.750000000         0.834172070
     0.010686309         0.083333336         0.206732765
     0.010686309         0.416666657         0.206732765
     0.010686309         0.750000000         0.206732765
     0.097667769         0.250000000         0.620117962
     0.097667769         0.583333313         0.620117962
     0.097667769         0.916666687         0.620117962
     0.048087679         0.250000000         0.996166766
     0.048087679         0.583333313         0.996166766
     0.048087679         0.916666687         0.996166766
     0.108113721         0.083333336         0.367594987
     0.108113721         0.416666657         0.367594987
     0.108113721         0.750000000         0.367594987
     0.172493562         0.250000000         0.797976792
     0.172493562         0.583333313         0.797976792
     0.172493562         0.916666687         0.797976792
     0.248217180         0.250000000         0.978717029
     0.248217180         0.583333313         0.978717029
     0.248217180         0.916666687         0.978717029
     0.130382195         0.083333336         0.069878861
     0.130382195         0.416666657         0.069878861
     0.130382195         0.750000000         0.069878861
     0.214800090         0.083333336         0.521580577
     0.214800090         0.416666657         0.521580577
     0.214800090         0.750000000         0.521580577
     0.264079839         0.083333336         0.766994119
     0.264079839         0.416666657         0.766994119
     0.264079839         0.750000000         0.766994119
     0.239007160         0.083333336         0.255084604
     0.239007160         0.416666657         0.255084604
     0.239007160         0.750000000         0.255084604
     0.303028286         0.250000000         0.597922325
     0.303028286         0.583333313         0.597922325
     0.303028286         0.916666687         0.597922325
     0.353454679         0.250000000         0.803123057
     0.353454679         0.583333313         0.803123057
     0.353454679         0.916666687         0.803123057
     0.335668713         0.083333336         0.377841949
     0.335668713         0.416666657         0.377841949
     0.335668713         0.750000000         0.377841949
     0.443025023         0.250000000         0.946900845
     0.443025023         0.583333313         0.946900845
     0.443025023         0.916666687         0.946900845
     0.389464408         0.083333336         0.582191944
     0.389464408         0.416666657         0.582191944
     0.389464408         0.750000000         0.582191944
     0.335205942         0.250000000         0.173314288
     0.335205942         0.583333313         0.173314288
     0.335205942         0.916666687         0.173314288
     0.345449954         0.083333336         0.016950727
     0.345449954         0.416666657         0.016950727
     0.345449954         0.750000000         0.016950727
     0.425603867         0.250000000         0.413226277
     0.425603867         0.583333313         0.413226277
     0.425603867         0.916666687         0.413226277
     0.480897039         0.250000000         0.641788483
     0.480897039         0.583333313         0.641788483
     0.480897039         0.916666687         0.641788483
     0.433984578         0.083333336         0.199931741
     0.433984578         0.416666657         0.199931741
     0.433984578         0.750000000         0.199931741
     0.566013277         0.250000000         0.800073802
     0.566013277         0.583333313         0.800073802
     0.566013277         0.916666687         0.800073802
     0.519135356         0.083333336         0.358231932
     0.519135356         0.416666657         0.358231932
     0.519135356         0.750000000         0.358231932
     0.574388087         0.083333336         0.586781800
     0.574388087         0.416666657         0.586781800
     0.574388087         0.750000000         0.586781800
     0.664794445         0.083333336         0.826685905
     0.664794445         0.416666657         0.826685905
     0.664794445         0.750000000         0.826685905
     0.610532641         0.250000000         0.417804062
     0.610532641         0.583333313         0.417804062
     0.610532641         0.916666687         0.417804062
     0.556975424         0.083333336         0.053097855
     0.556975424         0.416666657         0.053097855
     0.556975424         0.750000000         0.053097855
     0.664331615         0.250000000         0.622232854
     0.664331615         0.583333313         0.622232854
     0.664331615         0.916666687         0.622232854
     0.646544874         0.083333336         0.196860254
     0.646544874         0.416666657         0.196860254
     0.646544874         0.750000000         0.196860254
     0.696970582         0.083333336         0.402071953
     0.696970582         0.416666657         0.402071953
     0.696970582         0.750000000         0.402071953
     0.760998726         0.250000000         0.744916439
     0.760998726         0.583333313         0.744916439
     0.760998726         0.916666687         0.744916439
     0.654552758         0.250000000         0.983049929
     0.654552758         0.583333313         0.983049929
     0.654552758         0.916666687         0.983049929
     0.735921264         0.250000000         0.233003482
     0.735921264         0.583333313         0.233003482
     0.735921264         0.916666687         0.233003482
     0.785226762         0.250000000         0.478433996
     0.785226762         0.583333313         0.478433996
     0.785226762         0.916666687         0.478433996
     0.869612336         0.250000000         0.930127740
     0.869612336         0.583333313         0.930127740
     0.869612336         0.916666687         0.930127740
     0.751779616         0.083333336         0.021307869
     0.751779616         0.416666657         0.021307869
     0.751779616         0.750000000         0.021307869
     0.827515781         0.083333336         0.202021688
     0.827515781         0.416666657         0.202021688
     0.827515781         0.750000000         0.202021688
     0.891882658         0.250000000         0.632398903
     0.891882658         0.583333313         0.632398903
     0.891882658         0.916666687         0.632398903
     0.951913536         0.083333336         0.003837630
     0.951913536         0.416666657         0.003837630
     0.951913536         0.750000000         0.003837630
     0.902329087         0.083333336         0.379866928
     0.902329087         0.416666657         0.379866928
     0.902329087         0.750000000         0.379866928
     0.989312232         0.250000000         0.793259323
     0.989312232         0.583333313         0.793259323
     0.989312232         0.916666687         0.793259323
     0.919877827         0.250000000         0.165829882
     0.919877827         0.583333313         0.165829882
     0.919877827         0.916666687         0.165829882
     0.994862556         0.083333336         0.579782724
     0.994862556         0.416666657         0.579782724
     0.994862556         0.750000000         0.579782724
