Ca Fe Si O 
1.0
        9.0733499527         0.0000000000         0.0000000000
       -4.0644255224         9.0927244890         0.0000000000
        1.0947937640        -4.4813121172         9.4408147238
   Ca   Fe   Si    O
    3   12   12   40
Direct
     0.622404158         0.363408923         0.569515407
     0.365192503         0.622361958         0.950639844
     0.634807527         0.377638072         0.049360182
     0.845527112         0.169453740         0.948181510
     0.169652402         0.848432720         0.536296368
     0.154472873         0.830546260         0.051818427
     0.739162564         0.260917366         0.254973918
     0.830347598         0.151567310         0.463703603
     0.060230777         0.932103276         0.840511501
     0.067972451         0.941596031         0.345691353
     0.932027459         0.058403958         0.654308677
     0.499999970         0.000000000         0.000000000
     0.260837436         0.739082634         0.745026112
     0.000000000         0.500000000         0.500000000
     0.939769268         0.067896768         0.159488514
     0.555491567         0.054854792         0.696744442
     0.778084636         0.665568829         0.938769042
     0.444508493         0.945145190         0.303255528
     0.658702850         0.766334593         0.749037206
     0.329083204         0.232628644         0.757271588
     0.949926317         0.439396501         0.800673187
     0.341297269         0.233665466         0.250962734
     0.759606123         0.661354482         0.449557573
     0.240393832         0.338645548         0.550442398
     0.221915275         0.334431022         0.061230913
     0.050073665         0.560603440         0.199326783
     0.670916378         0.767370999         0.242728397
     0.730202913         0.058511112         0.074212775
     0.623590946         0.679546535         0.571945608
     0.376409054         0.320453465         0.428054452
     0.174650297         0.072211653         0.212883323
     0.068183847         0.163757190         0.006054197
     0.339930683         0.366715550         0.695903301
     0.873280883         0.406497836         0.138595745
     0.078495316         0.172037408         0.513186574
     0.598557651         0.122020192         0.374675542
     0.836751580         0.926552296         0.288439423
     0.124789923         0.609072864         0.356736332
     0.057523299         0.732109427         0.659866273
     0.954391360         0.286614209         0.819453359
     0.825349689         0.927788317         0.787116647
     0.392415017         0.871642470         0.133559346
     0.942476690         0.267890573         0.340133727
     0.269797087         0.941488862         0.925787210
     0.316694796         0.370573431         0.207063779
     0.506506741         0.799676776         0.298127651
     0.810157478         0.502773702         0.905673563
     0.875210106         0.390927106         0.643263638
     0.931816220         0.836242914         0.993945837
     0.294109911         0.949886322         0.402527809
     0.045608677         0.713385820         0.180546612
     0.642757475         0.659392595         0.063993320
     0.607584953         0.128357515         0.866440654
     0.357242525         0.340607435         0.936006725
     0.493551850         0.771548212         0.821808279
     0.770861626         0.494849652         0.428367108
     0.921504676         0.827962577         0.486813396
     0.660069346         0.633284509         0.304096669
     0.401442409         0.877979875         0.625324488
     0.506448090         0.228451803         0.178191766
     0.163248658         0.073447965         0.711560667
     0.705890059         0.050113685         0.597472191
     0.189842507         0.497226328         0.094326466
     0.493493319         0.200323194         0.701872349
     0.229138374         0.505150318         0.571632862
     0.126719147         0.593502164         0.861404300
     0.683305204         0.629426539         0.792936265
