V  Fe P  O 
 1.0000000000000000
     2.7315659999999999   -0.0299580000000000    6.7364560000000004
    -0.0637890000000000    8.1696460000000002   -0.0440450000000000
    -7.0520949999999996    0.0306509999999990    6.5522830000000001
 V   Fe  P   O  
   2   2   8  28
Cartesian
 -2.6795407847668251  4.1674670919846113 11.4257162438393305
 -0.5192762847668221  4.1671205919846130  4.7813467438393333
 -1.5950262978685614  0.1161329945517324  1.7365225371560071
 -3.7552907978685663  0.1164794945517372  8.3808920371560109
  0.8149275083378508  1.5465985631290700  3.3834110496624712
 -1.3453369916621494  1.5469450631290729 10.0277805496624524
 -6.1031786672772217  6.3749807230405944  7.1734714133619040
 -1.2113481672772206  6.3446762230405982  7.2655579133619028
  1.7931263111890023  2.2862272453158008  6.0017659356951327
 -3.0987041888109976  2.3165317453157992  5.9096794356951179
 -5.1112596339430896  5.6847908609615558  9.7884503104502780
 -2.9509951339430853  5.6844443609615576  3.1440808104502773
 -1.7188192009492849  2.8474914361543542  5.4672457615053354
 -3.8790837009492831  2.8478379361543493 12.1116152615053387
 -1.1700354733905165  5.4314055893061690  5.9985082730645258
 -6.0618659733905131  5.4617100893061696  5.9064217730645243
 -0.2511388009247817  0.5174772647395667  3.1142362311033693
 -2.4114033009247824  0.5178237647395647  9.7586057311033603
  0.1852134045573249  2.9875809139774341  3.4979620651416150
 -1.9750510954426737  2.9879274139774363 10.1423315651416068
  0.6916420709328993  5.4624671338058368  4.1471656633328013
 -4.2001884290670972  5.4927716338058339  4.0550791633327998
  0.7840350542334500  3.4819816981855500  5.9957697401478596
 -4.1077954457665529  3.5122861981855462  5.9036832401478518
  1.2957754699674193  1.2419233404775003  4.9065118751236527
 -3.5960550300325704  1.2722278404775054  4.8144253751236281
 -5.5655879897346017  5.3107896545989242  8.3008845670684508
 -0.6737574897345967  5.2804851545989280  8.3929710670684496
 -5.1207920635667268  7.5224268870544728  7.0452259989200101
 -0.2289615635667278  7.4921223870544784  7.1373124989200027
 -5.0329295800894540  1.5844842552251355  9.0322241548429663
 -0.1410990800894654  1.5541797552251351  9.1243106548429349
 -4.6197884843640367  7.1035524032252972  9.8192810509133501
 -2.4595239843640355  7.1032059032252999  3.1749115509133521
 -4.0506947109834464  4.6324867187266454 10.1702763601334851
 -1.8904302109834419  4.6321402187266489  3.5259068601334880
 -3.0222522077664249  1.5694699817314475  7.2022357327778463
  1.8695782922335853  1.5391654817314564  7.2943222327778638
 -2.6212677600389487  6.7468518863582316  7.6081964058155478
 -0.4610032600389499  6.7465053863582307  0.9638269058155438
