Mn16 Te8 O48
1.0
   9.3541609999999995    0.0000000000000000    0.0000000000000000
   0.0000000000000000    9.6163319999999999    0.0000000000000000
   0.0000000000000000    0.0000000000000000   11.2118099999999998
Mn Te O
16 8 48
direct
   0.9133150000000000    0.5700700000000001    0.3875929999999990 Mn
   0.9133150000000000    0.0700700000000000    0.1124069999999990 Mn
   0.0831030000000000    0.4159680000000000    0.1078379999999990 Mn
   0.4133150000000000    0.4299300000000000    0.6124069999999990 Mn
   0.5831029999999990    0.0840320000000000    0.6078380000000000 Mn
   0.5866850000000000    0.0700700000000000    0.1124069999999990 Mn
   0.9168970000000000    0.0840320000000000    0.6078380000000000 Mn
   0.0866850000000000    0.4299300000000000    0.6124069999999990 Mn
   0.5831029999999990    0.5840320000000000    0.8921620000000000 Mn
   0.4133150000000000    0.9299300000000000    0.8875930000000000 Mn
   0.0831030000000000    0.9159680000000000    0.3921619999999990 Mn
   0.9168970000000000    0.5840320000000000    0.8921620000000000 Mn
   0.0866850000000000    0.9299300000000000    0.8875930000000000 Mn
   0.4168969999999990    0.9159680000000000    0.3921619999999990 Mn
   0.5866850000000000    0.5700700000000001    0.3875929999999990 Mn
   0.4168969999999990    0.4159680000000000    0.1078379999999990 Mn
   0.7500000000000000    0.4428780000000000    0.6159009999999990 Te
   0.2500000000000000    0.5836760000000000    0.8966790000000000 Te
   0.7500000000000000    0.9163239999999990    0.3966790000000000 Te
   0.2500000000000000    0.0571220000000000    0.1159009999999990 Te
   0.7500000000000000    0.9428780000000000    0.8840990000000000 Te
   0.2500000000000000    0.0836760000000000    0.6033210000000000 Te
   0.7500000000000000    0.4163239999999990    0.1033210000000000 Te
   0.2500000000000000    0.5571220000000000    0.3840989999999990 Te
   0.0930010000000000    0.6260749999999990    0.0080140000000000 O
   0.2500000000000000    0.8971840000000000    0.5269250000000000 O
   0.7500000000000000    0.0132350000000000    0.7163630000000000 O
   0.0965800000000000    0.4238100000000000    0.4170270000000000 O
   0.5965800000000000    0.0761900000000000    0.9170269999999990 O
   0.4069990000000000    0.1260750000000000    0.4919860000000000 O
   0.9034200000000001    0.5761900000000001    0.5829730000000000 O
   0.9069990000000000    0.3739250000000000    0.9919859999999990 O
   0.7500000000000000    0.4119870000000000    0.4425850000000000 O
   0.7500000000000000    0.5132350000000000    0.7836369999999990 O
   0.9041819999999990    0.4732300000000000    0.2120119999999990 O
   0.4041820000000000    0.5267700000000001    0.7879879999999990 O
   0.2500000000000000    0.9867650000000000    0.2836370000000000 O
   0.4041820000000000    0.0267700000000000    0.7120120000000000 O
   0.7500000000000000    0.2255019999999990    0.1662930000000000 O
   0.5930010000000000    0.8739250000000000    0.5080140000000000 O
   0.9034200000000001    0.0761900000000000    0.9170269999999990 O
   0.5958180000000000    0.9732300000000000    0.2879879999999990 O
   0.2500000000000000    0.5880130000000000    0.5574150000000000 O
   0.6012320000000000    0.3057090000000000    0.6560840000000000 O
   0.3987679999999990    0.1942910000000000    0.1560840000000000 O
   0.4069990000000000    0.6260749999999990    0.0080140000000000 O
   0.2500000000000000    0.3971840000000000    0.9730749999999990 O
   0.9069990000000000    0.8739250000000000    0.5080140000000000 O
   0.0958180000000000    0.5267700000000001    0.7879879999999990 O
   0.2500000000000000    0.2744979999999990    0.6662930000000000 O
   0.4034200000000001    0.4238100000000000    0.4170270000000000 O
   0.3987679999999990    0.6942910000000000    0.3439160000000000 O
   0.5958180000000000    0.4732300000000000    0.2120119999999990 O
   0.5965800000000000    0.5761900000000001    0.5829730000000000 O
   0.0958180000000000    0.0267700000000000    0.7120120000000000 O
   0.2500000000000000    0.4867650000000000    0.2163630000000000 O
   0.9041819999999990    0.9732300000000000    0.2879879999999990 O
   0.0965800000000000    0.9238100000000000    0.0829729999999990 O
   0.7500000000000000    0.7255020000000000    0.3337070000000000 O
   0.7500000000000000    0.6028160000000000    0.0269249999999990 O
   0.8987680000000000    0.8057090000000000    0.8439160000000000 O
   0.0930010000000000    0.1260750000000000    0.4919860000000000 O
   0.1012319999999990    0.1942910000000000    0.1560840000000000 O
   0.4034200000000001    0.9238100000000000    0.0829729999999990 O
   0.2500000000000000    0.7744980000000000    0.8337070000000000 O
   0.7500000000000000    0.9119870000000000    0.0574150000000000 O
   0.2500000000000000    0.0880130000000000    0.9425850000000000 O
   0.1012319999999990    0.6942910000000000    0.3439160000000000 O
   0.7500000000000000    0.1028159999999990    0.4730749999999990 O
   0.8987680000000000    0.3057090000000000    0.6560840000000000 O
   0.6012320000000000    0.8057090000000000    0.8439160000000000 O
   0.5930010000000000    0.3739250000000000    0.9919859999999990 O
