Mn Te O 
 1.0000000000000000
     9.3541609999999995    0.0000000000000000    0.0000000000000000
     0.0000000000000000    9.6163319999999999    0.0000000000000000
     0.0000000000000000    0.0000000000000000   11.2118099999999998
 Mn  Te  O  
  16   8  48
Cartesian
  8.6066558749987880  5.4656394572238707  4.3090516975097204
  8.6066558749987845  0.6574734572238706  1.2968533024902749
  0.7436982182301214  4.0319458052233754  1.2393494767352506
  3.9295753749987914  4.1506925427761221  6.9027583024902732
  5.4207787182301210  0.7762201947766275  6.8452544767352519
  5.4245856250012023  0.6574734572238753  1.2968533024902751
  8.6104627817698773  0.7762201947766250  6.8452544767352554
  0.7475051250012072  4.1506925427761292  6.9027583024902794
  5.4207787182301201  5.5843861947766271  9.9724605232647381
  3.9295753749987936  8.9588585427761256  9.9149566975097141
  0.7436982182301206  8.8401118052233691  4.3665555232647373
  8.6104627817698791  5.5843861947766289  9.9724605232647328
  0.7475051250012075  8.9588585427761291  9.9149566975097159
  3.9333822817698767  8.8401118052233674  4.3665555232647408
  5.4245856250012059  5.4656394572238680  4.3090516975097133
  3.9333822817698758  4.0319458052233683  1.2393494767352509
  7.0156207499999983  4.3200517412289452  6.9244562787406769
  2.3385402500000008  5.6592555111106924 10.1006616507255007
  7.0156207499999965  8.7652424888893048  4.4947566507255052
  2.3385402499999950  0.4881142587710475  1.3185512787406752
  7.0156207500000010  9.1282177412289460  9.8932587212593166
  2.3385402500000003  0.8510895111106883  6.7170533492744875
  7.0156207499999965  3.9570764888893075  1.1111483492744871
  2.3385402499999963  5.2962802587710485  4.2873537212593140
  0.7615232457456704  6.0077067325906821  0.0135329951226544
  2.3385402499999994  8.7199756943518345  5.6588648497752549
  7.0156207500000001  0.2073919922405414  8.0163226850260347
  0.7583001402339524  4.1686223575392720  4.6188001951345186
  5.4353806402339533  0.6395436424607240 10.2247051951345078
  3.9155572542543267  1.1995407325906815  5.5923720048773351
  8.5958608597660433  5.4477096424607234  6.5930098048654839
  8.5926377542543282  3.6086252674093156 11.1982770048773332
  7.0156207500000001  4.3076914070592798  4.8810184999852178
  7.0156207500000001  5.0155579922405416  8.8013923149739561
  8.4683825887620596  4.4896881378720908  2.3408982755706522
  3.7913020887620581  5.1266438621279065  8.8709117244293356
  2.3385402499999954  9.4089400077594494  3.1954873149739549
  3.7913020887620590  0.3184778621279059  7.9468032755706517
  7.0156207500000001  1.9833044778328142  1.5731308744158374
  5.4386037457456702  8.4167912674093124  5.6194379951226612
  8.5958608597660469  0.6395436424607236 10.2247051951345131
  5.5628589112379379  9.2978541378720845  3.2650067244293406
  2.3385402499999985  5.3086405929407148  6.3307915000147759
  5.5643451575128990  3.0034768925675759  7.1955843932620125
  3.7898158424870885  1.8046891074324203  1.5896793932620057
  3.9155572542543284  6.0077067325906839  0.0135329951226558
  2.3385402499999999  3.9118096943518372 11.1588501502247404
  8.5926377542543246  8.4167912674093142  5.6194379951226594
  0.8857784112379428  5.1266438621279082  8.8709117244293321
  2.3385402499999999  2.8248615221671818  7.1790358744158418
  3.9187803597660400  4.1686223575392711  4.6188001951345132
  3.7898158424870898  6.6128551074324173  4.0162256067379847
  5.5628589112379379  4.4896881378720863  2.3408982755706491
  5.4353806402339515  5.4477096424607172  6.5930098048654777
  0.8857784112379422  0.3184778621279074  7.9468032755706526
  2.3385402499999972  4.6007740077594530  2.4104176850260357
  8.4683825887620561  9.2978541378720845  3.2650067244293375
  0.7583001402339540  8.9767883575392720  0.9871048048654791
  7.0156207500000001  6.7914704778328128  4.0327741255841554
  7.0156207500000001  5.7045223056481618  0.0529598497752545
  8.4668963424870984  7.8116428925675745  9.6221306067379810
  0.7615232457456723  1.1995407325906811  5.5923720048773369
  0.8872646575128988  1.8046891074324181  1.5896793932620086
  3.9187803597660413  8.9767883575392737  0.9871048048654768
  2.3385402499999999  7.6330275221671862  9.6386791255841509
  7.0156207500000001  9.1158574070592824  0.7248865000147753
  2.3385402499999945  0.5004745929407154 10.4869234999852150
  0.8872646575129006  6.6128551074324147  4.0162256067379891
  7.0156207499999974  0.8963563056481612  5.5529451502247396
  8.4668963424870931  3.0034768925675750  7.1955843932620080
  5.5643451575129053  7.8116428925675789  9.6221306067379881
  5.4386037457456728  3.6086252674093116 11.1982770048773279
