Ba Ca V  F 
1.0
       11.6576480865         0.0000000000         0.0000000000
        0.0000000000        10.1737537384         0.0000000000
        0.0000000000         0.0000000000        19.6651859283
   Ca   Ba    V    F
   15   16   16   96
Direct
     0.387162238         0.144071430         0.435985804
     0.137162209         0.644071400         0.064014181
     0.637162209         0.644071400         0.064014181
     0.362837791         0.144071430         0.935985804
     0.862837791         0.144071430         0.935985804
     0.112837791         0.644071400         0.564014196
     0.612837791         0.644071400         0.564014196
     0.887162209         0.144071430         0.435985804
     0.132264435         0.224222854         0.311559528
     0.367735565         0.724222839         0.688440442
     0.867735565         0.724222839         0.688440442
     0.117735557         0.224222854         0.811559558
     0.617735565         0.224222854         0.811559558
     0.382264465         0.724222839         0.188440472
     0.882264495         0.724222839         0.188440472
     0.371841043         0.361511499         0.112634853
     0.871841073         0.361511499         0.112634853
     0.128158957         0.861511469         0.887365162
     0.628158927         0.861511469         0.887365162
     0.378158957         0.361511499         0.612634838
     0.878158927         0.361511499         0.612634838
     0.121841043         0.861511469         0.387365133
     0.621841073         0.861511469         0.387365133
     0.126417533         0.009006384         0.135156915
     0.626417518         0.009006384         0.135156915
     0.373582482         0.509006381         0.864843130
     0.873582482         0.509006381         0.864843130
     0.123582460         0.009006384         0.635156929
     0.623582482         0.009006384         0.635156929
     0.376417518         0.509006381         0.364843100
     0.876417518         0.509006381         0.364843100
     0.142508581         0.264573574         0.490838498
     0.642508566         0.264573574         0.490838498
     0.357491404         0.764573574         0.509161532
     0.857491374         0.764573574         0.509161532
     0.107491419         0.264573574         0.990838468
     0.607491434         0.264573574         0.990838468
     0.392508596         0.764573574         0.009161505
     0.892508626         0.764573574         0.009161505
     0.121594295         0.601918280         0.241629243
     0.621594310         0.601918280         0.241629243
     0.378405720         0.101918235         0.758370757
     0.878405690         0.101918235         0.758370757
     0.128405720         0.601918280         0.741629243
     0.628405690         0.601918280         0.741629243
     0.371594280         0.101918235         0.258370727
     0.871594310         0.101918235         0.258370727
     0.003494602         0.171922415         0.063395709
     0.503494620         0.171922415         0.063395709
     0.496505409         0.671922386         0.936604261
     0.996505380         0.671922386         0.936604261
     0.246505395         0.171922415         0.563395739
     0.746505380         0.171922415         0.563395739
     0.253494591         0.671922386         0.436604321
     0.753494620         0.671922386         0.436604321
     0.191287279         0.113393694         0.422300071
     0.691287279         0.113393694         0.422300071
     0.308712721         0.613393724         0.577699959
     0.808712721         0.613393724         0.577699959
     0.058712721         0.113393694         0.922299981
     0.558712721         0.113393694         0.922299981
     0.441287279         0.613393724         0.077699967
     0.941287279         0.613393724         0.077699967
     0.249037787         0.159727529         0.031077988
     0.749037802         0.159727529         0.031077988
     0.250962198         0.659727514         0.968921959
     0.750962198         0.659727514         0.968921959
     0.000962216         0.159727529         0.531077981
     0.500962198         0.159727529         0.531077981
     0.499037772         0.659727514         0.468921989
     0.999037743         0.659727514         0.468921989
     0.237966999         0.561357915         0.161896080
     0.737967014         0.561357915         0.161896080
     0.262033015         0.061357904         0.838103950
     0.762032986         0.061357904         0.838103950
     0.012033004         0.561357915         0.661896050
     0.512032986         0.561357915         0.661896050
     0.487966985         0.061357904         0.338103920
     0.987967014         0.061357904         0.338103920
     0.259936929         0.197103679         0.191089213
     0.759936929         0.197103679         0.191089213
     0.240063071         0.697103679         0.808910847
     0.740063071         0.697103679         0.808910847
     0.490063101         0.197103679         0.691089213
     0.990063071         0.197103679         0.691089213
     0.009936924         0.697103679         0.308910817
     0.509936929         0.697103679         0.308910817
     0.163199291         0.447775036         0.305972159
     0.663199306         0.447775036         0.305972159
     0.336800694         0.947775066         0.694027841
     0.836800694         0.947775066         0.694027841
     0.086800702         0.447775036         0.805972159
     0.586800694         0.447775036         0.805972159
     0.413199306         0.947775066         0.194027826
     0.913199306         0.947775066         0.194027826
     0.030810941         0.308642685         0.407654792
     0.530810952         0.308642685         0.407654792
     0.469189078         0.808642685         0.592345178
     0.969189048         0.808642685         0.592345178
     0.219189063         0.308642685         0.907654822
     0.719189048         0.308642685         0.907654822
     0.280810922         0.808642685         0.092345200
     0.780810952         0.808642685         0.092345200
     0.013022536         0.204077616         0.218592539
     0.513022542         0.204077616         0.218592539
     0.486977458         0.704077601         0.781407416
     0.986977458         0.704077601         0.781407416
     0.236977473         0.204077616         0.718592525
     0.736977458         0.204077616         0.718592525
     0.263022512         0.704077601         0.281407446
     0.763022542         0.704077601         0.281407446
     0.303392082         0.350148201         0.466981500
     0.803392053         0.350148201         0.466981500
     0.196607903         0.850148201         0.533018470
     0.696607888         0.850148201         0.533018470
     0.446607918         0.350148201         0.966981471
     0.946607947         0.350148201         0.966981471
     0.053392097         0.850148201         0.033018485
     0.553392112         0.850148201         0.033018485
     0.078818999         0.749937296         0.170915574
     0.578818977         0.749937296         0.170915574
     0.421180993         0.249937326         0.829084456
     0.921180964         0.249937326         0.829084456
     0.171181008         0.749937296         0.670915604
     0.671181023         0.749937296         0.670915604
     0.328819007         0.249937326         0.329084426
     0.828819036         0.249937326         0.329084426
     0.155399397         0.421100378         0.053510673
     0.655399382         0.421100378         0.053510673
     0.344600588         0.921100378         0.946489275
     0.844600558         0.921100378         0.946489275
     0.094600603         0.421100378         0.553510666
     0.594600618         0.421100378         0.553510666
     0.405399412         0.921100378         0.446489304
     0.905399442         0.921100378         0.446489304
     0.214268193         0.015109600         0.286574781
     0.714268208         0.015109600         0.286574781
     0.285731822         0.515109599         0.713425159
     0.785731792         0.515109599         0.713425159
     0.035731807         0.015109600         0.786574781
     0.535731792         0.015109600         0.786574781
     0.464268208         0.515109599         0.213425204
     0.964268208         0.515109599         0.213425204
