Ca V  Ge O 
1.0
       11.0540037155         0.0000000000         0.0000000000
        2.6288000662        13.6126387790         0.0000000000
       -2.8985477561         1.3462240983        13.5381280018
   Ca    V   Ge    O
   15   16   32   96
Direct
     0.326324821         0.597291946         0.402868360
     0.423712611         0.402692616         0.097178526
     0.423712611         0.902692616         0.097178526
     0.923712611         0.402692616         0.097178526
     0.923712611         0.902692616         0.097178526
     0.173442230         0.402901769         0.597251892
     0.673442245         0.402901769         0.597251892
     0.673442245         0.902901769         0.597251892
     0.326324821         0.097291939         0.402868360
     0.826324821         0.097291939         0.402868360
     0.826324821         0.597291946         0.402868360
     0.076673388         0.097118996         0.902838469
     0.076673388         0.597118974         0.902838469
     0.576673388         0.097118996         0.902838469
     0.576673388         0.597118974         0.902838469
     0.477523267         0.294956893         0.705093861
     0.477523267         0.794956923         0.705093861
     0.977523267         0.294956893         0.705093861
     0.977523267         0.794956923         0.705093861
     0.022456823         0.205039471         0.294977546
     0.022456823         0.705039501         0.294977546
     0.522456825         0.205039471         0.294977546
     0.522456825         0.705039501         0.294977546
     0.227593809         0.294953942         0.205081388
     0.227593809         0.794953942         0.205081388
     0.727593780         0.294953942         0.205081388
     0.727593780         0.794953942         0.205081388
     0.272539914         0.204996675         0.794983923
     0.272539914         0.704996705         0.794983923
     0.772539914         0.204996675         0.794983923
     0.772539914         0.704996705         0.794983923
     0.393286973         0.156737491         0.057816703
     0.393286973         0.656737506         0.057816703
     0.893286943         0.156737491         0.057816703
     0.893286943         0.656737506         0.057816703
     0.143147141         0.156811327         0.557928562
     0.143147141         0.656811357         0.557928562
     0.643147111         0.156811327         0.557928562
     0.643147111         0.656811357         0.557928562
     0.192554027         0.058054537         0.156460837
     0.192554027         0.558054566         0.156460837
     0.692553997         0.058054537         0.156460837
     0.692553997         0.558054566         0.156460837
     0.442504436         0.058040142         0.656593800
     0.442504436         0.558040142         0.656593800
     0.942504406         0.058040142         0.656593800
     0.942504406         0.558040142         0.656593800
     0.356731743         0.343269795         0.442164630
     0.356731743         0.843269825         0.442164630
     0.856731772         0.343269795         0.442164630
     0.856731772         0.843269825         0.442164630
     0.106799275         0.343226880         0.942096293
     0.106799275         0.843226910         0.942096293
     0.606799245         0.343226880         0.942096293
     0.606799245         0.843226910         0.942096293
     0.057485644         0.441926807         0.343536049
     0.057485644         0.941926837         0.343536049
     0.557485640         0.441926807         0.343536049
     0.557485640         0.941926837         0.343536049
     0.307436019         0.441943198         0.843343019
     0.307436019         0.941943169         0.843343019
     0.807435989         0.441943198         0.843343019
     0.807435989         0.941943169         0.843343019
     0.059395939         0.353205055         0.258571953
     0.059395939         0.853205085         0.258571953
     0.559395909         0.353205055         0.258571953
     0.559395909         0.853205085         0.258571953
     0.309328169         0.353203863         0.758509934
     0.309328169         0.853203893         0.758509934
     0.809328198         0.353203863         0.758509934
     0.809328198         0.853203893         0.758509934
     0.356763601         0.258549958         0.353254706
     0.356763601         0.758549929         0.353254706
     0.856763601         0.258549958         0.353254706
     0.856763601         0.758549929         0.353254706
     0.106876850         0.258489460         0.853158653
     0.106876850         0.758489490         0.853158653
     0.606876850         0.258489460         0.853158653
     0.606876850         0.758489490         0.853158653
     0.190630481         0.146734446         0.241457969
     0.190630481         0.646734476         0.241457969
     0.690630496         0.146734446         0.241457969
     0.690630496         0.646734476         0.241457969
     0.440704644         0.146758139         0.741560519
     0.440704644         0.646758139         0.741560519
     0.940704644         0.146758139         0.741560519
     0.940704644         0.646758139         0.741560519
     0.393300265         0.241424188         0.146779969
     0.393300265         0.741424203         0.146779969
     0.893300295         0.241424188         0.146779969
     0.893300295         0.741424203         0.146779969
     0.143111736         0.241554782         0.646854639
     0.143111736         0.741554797         0.646854639
     0.643111706         0.241554782         0.646854639
     0.643111706         0.741554797         0.646854639
     0.483050019         0.411601990         0.445257038
     0.483050019         0.911602020         0.445257038
     0.983049989         0.411601990         0.445257038
     0.983049989         0.911602020         0.445257038
     0.232834756         0.411759049         0.945037007
     0.232834756         0.911759019         0.945037007
     0.732834756         0.411759049         0.945037007
     0.732834756         0.911759019         0.945037007
     0.266941398         0.088496968         0.054706514
     0.266941398         0.588496983         0.054706514
     0.766941428         0.088496968         0.054706514
     0.766941428         0.588496983         0.054706514
     0.017052161         0.088337779         0.554920375
     0.017052161         0.588337779         0.554920375
     0.517052174         0.088337779         0.554920375
     0.517052174         0.588337779         0.554920375
     0.216323435         0.444984317         0.411924720
     0.216323435         0.944984317         0.411924720
     0.716323435         0.444984317         0.411924720
     0.716323435         0.944984317         0.411924720
     0.466291249         0.444812417         0.911997855
     0.466291249         0.944812417         0.911997855
     0.966291249         0.444812417         0.911997855
     0.966291249         0.944812417         0.911997855
     0.033616852         0.055022940         0.088056229
     0.033616852         0.555022955         0.088056229
     0.533616841         0.055022940         0.088056229
     0.533616841         0.555022955         0.088056229
     0.283617973         0.055209462         0.588042915
     0.283617973         0.555209458         0.588042915
     0.783617973         0.055209462         0.588042915
     0.783617973         0.555209458         0.588042915
     0.144582823         0.195434093         0.437620103
     0.144582823         0.695434093         0.437620103
     0.644582808         0.195434093         0.437620103
     0.644582808         0.695434093         0.437620103
     0.394918442         0.195304856         0.937583268
     0.394918442         0.695304871         0.937583268
     0.894918442         0.195304856         0.937583268
     0.894918442         0.695304871         0.937583268
     0.273152351         0.437695861         0.194706529
     0.273152351         0.937695861         0.194706529
     0.773152351         0.437695861         0.194706529
     0.773152351         0.937695861         0.194706529
     0.023035930         0.437692016         0.695037067
     0.023035930         0.937692046         0.695037067
     0.523035944         0.437692016         0.695037067
     0.523035944         0.937692046         0.695037067
     0.476772040         0.062232863         0.305170476
     0.476772040         0.562232852         0.305170476
     0.976772070         0.062232863         0.305170476
     0.976772070         0.562232852         0.305170476
     0.226835936         0.062192660         0.804788947
     0.226835936         0.562192678         0.804788947
     0.726835966         0.062192660         0.804788947
     0.726835966         0.562192678         0.804788947
     0.105509132         0.304649502         0.062402789
     0.105509132         0.804649472         0.062402789
     0.605509162         0.304649502         0.062402789
     0.605509162         0.804649472         0.062402789
     0.355140656         0.304691344         0.562388062
     0.355140656         0.804691315         0.562388062
     0.855140686         0.304691344         0.562388062
     0.855140686         0.804691315         0.562388062
