Ca V  Cr P  O 
1.0
        7.3492922783         0.0000000000         0.0000000000
       -1.6354053951         9.6958475420         0.0000000000
       -3.2768044858        -2.7636741567        12.4520768482
   Ca    V   Cr    P    O
    5    3    3   12   42
Direct
     0.257445008         0.648333013         0.554287076
     0.735540926         0.470373809         0.883684099
     0.261934727         0.980418265         0.889898896
     0.739643872         0.809350252         0.213040456
     0.740473688         0.144919857         0.546241581
     0.266838253         0.261399359         0.756831229
     0.274262130         0.601368845         0.091357589
     0.733155012         0.081338212         0.069320358
     0.728322089         0.739103973         0.739169896
     0.260827154         0.934214473         0.422568083
     0.738839447         0.413059801         0.396950692
     0.502040088         0.743330181         0.932229578
     0.102854744         0.558954477         0.827512205
     0.503657758         0.409705371         0.605836689
     0.886860788         0.075257324         0.845234096
     0.884951890         0.739787698         0.523830891
     0.115353249         0.901130974         0.164031640
     0.112233117         0.224468842         0.494899690
     0.495951027         0.995912731         0.689012885
     0.490792960         0.671996117         0.361502379
     0.515761793         0.083457977         0.268685013
     0.892773092         0.422824889         0.181678772
     0.495754629         0.334704459         0.025672996
     0.540892303         0.903275311         0.949241281
     0.078968041         0.510149837         0.929624975
     0.271418661         0.707063973         0.864869535
     0.901337445         0.917893112         0.843179822
     0.613789678         0.674071431         0.860922873
     0.481978714         0.838284373         0.691629648
     0.454867154         0.366307974         0.913729131
     0.159285635         0.457016379         0.748379886
     0.077188402         0.150366962         0.834360719
     0.073681459         0.826061964         0.520154178
     0.915700018         0.606114507         0.779192388
     0.819626093         0.799687386         0.619907379
     0.826129138         0.147330388         0.937622786
     0.539723694         0.572632492         0.626754165
     0.521937966         0.356052160         0.709796250
     0.375642955         0.744815230         0.427980185
     0.385614723         0.064293355         0.759569943
     0.086304918         0.168201938         0.594069660
     0.086556897         0.849565864         0.265655607
     0.275254905         0.375991553         0.536898196
     0.725753307         0.074835837         0.733387053
     0.721985757         0.747292757         0.415608436
     0.909014463         0.584979713         0.514833868
     0.616460264         0.343532860         0.536426723
     0.461297572         0.514728367         0.362581313
     0.467487127         0.704078734         0.250202298
     0.457650423         0.024490340         0.575938761
     0.179862469         0.800465286         0.087688610
     0.183006927         0.129489496         0.416958719
     0.079226427         0.500598371         0.167898729
     0.925665021         0.266386747         0.444282055
     0.930253923         0.945335150         0.113410197
     0.828135908         0.500215054         0.271395713
     0.549488723         0.244994685         0.284076810
     0.525856614         0.689355910         0.036198687
     0.548954725         0.032636177         0.373378605
     0.387099415         0.403369188         0.097577229
     0.282385468         0.048859477         0.206126541
     0.726279855         0.414178073         0.068500027
     0.914876401         0.270190656         0.186655253
     0.617826581         0.011014353         0.194386870
     0.479095191         0.176894784         0.024509070
