Ca Mn V  P  O 
1.0
       14.5074291229         0.0000000000         0.0000000000
       -0.4662018417        16.5098451389         0.0000000000
       -2.9452444365        -0.0662277609        13.9237336494
   Ca   Mn    V    P    O
   11   12   12   48  168
Direct
     0.499083072         0.465353042         0.262301356
     0.173024699         0.463906974         0.604834676
     0.173024699         0.963907003         0.604834676
     0.673024714         0.463906974         0.604834676
     0.673024714         0.963907003         0.604834676
     0.499083072         0.965353012         0.262301356
     0.999083042         0.465353042         0.262301356
     0.999083042         0.965353012         0.262301356
     0.161562189         0.213533789         0.066200837
     0.161562189         0.713533759         0.066200837
     0.661562204         0.713533759         0.066200837
     0.001186879         0.004335441         0.746415317
     0.001186879         0.504335463         0.746415317
     0.501186907         0.004335441         0.746415317
     0.501186907         0.504335463         0.746415317
     0.334775299         0.004376826         0.408185542
     0.334775299         0.504376829         0.408185542
     0.834775329         0.004376826         0.408185542
     0.834775329         0.504376829         0.408185542
     0.165233478         0.492578596         0.066561073
     0.165233478         0.992578626         0.066561073
     0.665233493         0.492578596         0.066561073
     0.665233493         0.992578626         0.066561073
     0.325597018         0.251353294         0.920587242
     0.325597018         0.751353264         0.920587242
     0.825597048         0.251353294         0.920587242
     0.825597048         0.751353264         0.920587242
     0.163415968         0.247901306         0.590290010
     0.163415968         0.747901320         0.590290010
     0.663415968         0.247901306         0.590290010
     0.663415968         0.747901320         0.590290010
     0.497172952         0.247785911         0.268619061
     0.497172952         0.747785926         0.268619061
     0.997172952         0.247785911         0.268619061
     0.997172952         0.747785926         0.268619061
     0.182854578         0.090988331         0.868913531
     0.182854578         0.590988338         0.868913531
     0.682854593         0.090988331         0.868913531
     0.682854593         0.590988338         0.868913531
     0.019736286         0.373409897         0.919615209
     0.019736286         0.873409867         0.919615209
     0.519736290         0.373409897         0.919615209
     0.519736290         0.873409867         0.919615209
     0.312297851         0.134028420         0.737691641
     0.312297851         0.634028435         0.737691641
     0.812297821         0.134028420         0.737691641
     0.812297821         0.634028435         0.737691641
     0.148560360         0.337476939         0.792208850
     0.148560360         0.837476969         0.792208850
     0.648560345         0.337476939         0.792208850
     0.648560345         0.837476969         0.792208850
     0.356747359         0.386102349         0.593551517
     0.356747359         0.886102319         0.593551517
     0.856747389         0.386102349         0.593551517
     0.856747389         0.886102319         0.593551517
     0.486865342         0.346888602         0.464093059
     0.486865342         0.846888602         0.464093059
     0.986865342         0.346888602         0.464093059
     0.986865342         0.846888602         0.464093059
     0.016033450         0.096708804         0.538143039
     0.016033450         0.596708775         0.538143039
     0.516033471         0.096708804         0.538143039
     0.516033471         0.596708775         0.538143039
     0.145968080         0.131789938         0.406826943
     0.145968080         0.631789923         0.406826943
     0.645968080         0.131789938         0.406826943
     0.645968080         0.631789923         0.406826943
     0.345710546         0.103194974         0.203397289
     0.345710546         0.603194952         0.203397289
     0.845710516         0.103194974         0.203397289
     0.845710516         0.603194952         0.203397289
     0.187125608         0.382920355         0.262325287
     0.187125608         0.882920384         0.262325287
     0.687125623         0.382920355         0.262325287
     0.687125623         0.882920384         0.262325287
     0.474819988         0.138961613         0.073454328
     0.474819988         0.638961613         0.073454328
     0.974820018         0.138961613         0.073454328
     0.974820018         0.638961613         0.073454328
     0.319981635         0.351020366         0.134624973
     0.319981635         0.851020336         0.134624973
     0.819981635         0.351020366         0.134624973
     0.819981635         0.851020336         0.134624973
     0.396243423         0.163316518         0.989686549
     0.396243423         0.663316488         0.989686549
     0.896243453         0.163316518         0.989686549
     0.896243453         0.663316488         0.989686549
     0.433786482         0.322781205         0.934819520
     0.433786482         0.822781205         0.934819520
     0.933786511         0.322781205         0.934819520
     0.933786511         0.822781205         0.934819520
     0.494111449         0.454794973         0.872039795
     0.494111449         0.954795003         0.872039795
     0.994111419         0.454794973         0.872039795
     0.994111419         0.954795003         0.872039795
     0.200464442         0.023722660         0.940281451
     0.200464442         0.523722649         0.940281451
     0.700464427         0.023722660         0.940281451
     0.700464427         0.523722649         0.940281451
     0.207768574         0.176901892         0.916393399
     0.207768574         0.676901877         0.916393399
     0.707768559         0.176901892         0.916393399
     0.707768559         0.676901877         0.916393399
     0.242026299         0.332019478         0.870162189
     0.242026299         0.832019448         0.870162189
     0.742026329         0.332019478         0.870162189
     0.742026329         0.832019448         0.870162189
     0.345368385         0.210140809         0.801155329
     0.345368385         0.710140824         0.801155329
     0.845368385         0.210140809         0.801155329
     0.845368385         0.710140824         0.801155329
     0.255069643         0.075716883         0.798989117
     0.255069643         0.575716853         0.798989117
     0.755069613         0.075716883         0.798989117
     0.755069613         0.575716853         0.798989117
     0.064818941         0.317478657         0.847255409
     0.064818941         0.817478657         0.847255409
     0.564818919         0.317478657         0.847255409
     0.564818919         0.817478657         0.847255409
     0.390374571         0.083453529         0.717812538
     0.390374571         0.583453536         0.717812538
     0.890374541         0.083453529         0.717812538
     0.890374541         0.583453536         0.717812538
     0.082774997         0.092201479         0.806561112
     0.082774997         0.592201471         0.806561112
     0.582774997         0.092201479         0.806561112
     0.582774997         0.592201471         0.806561112
     0.428264976         0.410620481         0.684060037
     0.428264976         0.910620451         0.684060037
     0.928264976         0.410620481         0.684060037
     0.928264976         0.910620451         0.684060037
     0.138861239         0.422128320         0.749571919
     0.138861239         0.922128320         0.749571919
     0.638861239         0.422128320         0.749571919
     0.638861239         0.922128320         0.749571919
     0.141825870         0.269498944         0.720182002
     0.141825870         0.769498944         0.720182002
     0.641825855         0.269498944         0.720182002
     0.641825855         0.769498944         0.720182002
     0.241607606         0.153380930         0.645445228
     0.241607606         0.653380930         0.645445228
     0.741607606         0.153380930         0.645445228
     0.741607606         0.653380930         0.645445228
     0.273903161         0.336954892         0.616856277
     0.273903161         0.836954892         0.616856277
     0.773903131         0.336954892         0.616856277
     0.773903131         0.836954892         0.616856277
     0.406519234         0.331951857         0.526676834
     0.406519234         0.831951857         0.526676834
     0.906519234         0.331951857         0.526676834
     0.906519234         0.831951857         0.526676834
     0.313497216         0.461018831         0.535402060
     0.313497216         0.961018801         0.535402060
     0.813497186         0.461018831         0.535402060
     0.813497186         0.961018801         0.535402060
     0.418720692         0.088119626         0.472579420
     0.418720692         0.588119626         0.472579420
     0.918720722         0.088119626         0.472579420
     0.918720722         0.588119626         0.472579420
     0.036323819         0.030969536         0.616829216
     0.036323819         0.530969560         0.616829216
     0.536323845         0.030969536         0.616829216
     0.536323845         0.530969560         0.616829216
     0.038804099         0.182734787         0.572021604
     0.038804099         0.682734787         0.572021604
     0.538804114         0.182734787         0.572021604
     0.538804114         0.682734787         0.572021604
     0.470298529         0.429165781         0.413987041
     0.470298529         0.929165781         0.413987041
     0.970298529         0.429165781         0.413987041
     0.970298529         0.929165781         0.413987041
     0.473370165         0.275460750         0.395832866
     0.473370165         0.775460720         0.395832866
     0.973370194         0.275460750         0.395832866
     0.973370194         0.775460720         0.395832866
     0.084129632         0.348410398         0.534527242
     0.084129632         0.848410368         0.534527242
     0.584129632         0.348410398         0.534527242
     0.584129632         0.848410368         0.534527242
     0.179487601         0.209836900         0.462609828
     0.179487601         0.709836900         0.462609828
     0.679487586         0.209836900         0.462609828
     0.679487586         0.709836900         0.462609828
     0.097208574         0.070850849         0.477703810
     0.097208574         0.570850849         0.477703810
     0.597208560         0.070850849         0.477703810
     0.597208560         0.570850849         0.477703810
     0.220373854         0.079630837         0.380896986
     0.220373854         0.579630852         0.380896986
     0.720373869         0.079630837         0.380896986
     0.720373869         0.579630852         0.380896986
     0.264964223         0.408163667         0.347530931
     0.264964223         0.908163667         0.347530931
     0.764964223         0.408163667         0.347530931
     0.764964223         0.908163667         0.347530931
     0.365674049         0.034899011         0.278329194
     0.365674049         0.534898996         0.278329194
     0.865674019         0.034899011         0.278329194
     0.865674019         0.534898996         0.278329194
     0.372687310         0.187496334         0.242815435
     0.372687310         0.687496305         0.242815435
     0.872687340         0.187496334         0.242815435
     0.872687340         0.687496305         0.242815435
     0.416894615         0.345509022         0.203506604
     0.416894615         0.845509052         0.203506604
     0.916894615         0.345509022         0.203506604
     0.916894615         0.845509052         0.203506604
     0.066537745         0.146455258         0.318612069
     0.066537745         0.646455288         0.318612069
     0.566537738         0.146455258         0.318612069
     0.566537738         0.646455288         0.318612069
     0.108875610         0.331165314         0.291103423
     0.108875610         0.831165314         0.291103423
     0.608875632         0.331165314         0.291103423
     0.608875632         0.831165314         0.291103423
     0.426900595         0.078420997         0.141017228
     0.426900595         0.578420997         0.141017228
     0.926900625         0.078420997         0.141017228
     0.926900625         0.578420997         0.141017228
     0.234997585         0.324592561         0.193485573
     0.234997585         0.824592590         0.193485573
     0.734997571         0.324592561         0.193485573
     0.734997571         0.824592590         0.193485573
     0.140396759         0.455365658         0.204828784
     0.140396759         0.955365658         0.204828784
     0.640396774         0.455365658         0.204828784
     0.640396774         0.955365658         0.204828784
     0.248369545         0.101586491         0.138722956
     0.248369545         0.601586461         0.138722956
     0.748369575         0.101586491         0.138722956
     0.748369575         0.601586461         0.138722956
     0.302330434         0.435899496         0.100304894
     0.302330434         0.935899496         0.100304894
     0.802330434         0.435899496         0.100304894
     0.802330434         0.935899496         0.100304894
     0.301698744         0.283305109         0.057919595
     0.301698744         0.783305109         0.057919595
     0.801698744         0.283305109         0.057919595
     0.801698744         0.783305109         0.057919595
     0.019030750         0.213964060         0.134073257
     0.019030750         0.713964045         0.134073257
     0.519030750         0.213964060         0.134073257
     0.519030750         0.713964045         0.134073257
     0.054235466         0.094058581         0.044110414
     0.054235466         0.594058573         0.044110414
     0.554235458         0.094058581         0.044110414
     0.554235458         0.594058573         0.044110414
     0.092674419         0.378654987         0.013580122
     0.092674419         0.878654957         0.013580122
     0.592674434         0.378654987         0.013580122
     0.592674434         0.878654957         0.013580122
