Ca Mn P O  
   1.00000000000000     
   9.4531463948415908  -0.0556791225607171  -0.0220896705213184
   0.6697129326878940   9.4095683897740603   0.0005088927565557
  -8.4918897325701401  -7.7757770064529401  21.4768132509916008
Ca Mn P O  
11  24  24  96  
Direct
  0.7172737902593695  0.7155005036945568  0.5990454399404896  
  0.5000225133011185  0.4999873947539939  0.0000239019669266  
  0.3317189576683433  0.4006954742432285  0.1781996542684254  
  0.3243674159415662  0.3984938364817125  0.6749957532931603  
  0.7616663221106137  0.7533632007298081  0.1298936763279741  
  0.0195687997780354  0.0131851466420017  0.2653553832955069  
  0.9804233001555004  0.9868386437260313  0.7346486547961604  
  0.2826974807227955  0.2844749037400760  0.4009175493240349  
  0.2383543003428130  0.2466355176497714  0.8701189022526989  
  0.6756259182144930  0.6014552554879273  0.3249506686781771  
  0.6682926088259720  0.5992838989055187  0.8218100577382046  
  0.4590924807283088  0.1527929000057284  0.0469551860247392  
  0.4625700591094954  0.1628334911820346  0.5461923976694294  
  0.0226172710289063  0.3365746705068844  0.1991969610213076  
  0.0118287627692482  0.3440549001919422  0.7029886860577790  
  0.0901882009090542  0.7984009625243900  0.0733848701336228  
  0.0825238755251476  0.7930050872891528  0.5740880636957399  
  0.8742379692267761  0.3752908047796879  0.0610816583417417  
  0.8615878245041344  0.3729713437688247  0.5593412531252824  
  0.6385370404322543  0.1129396047815163  0.1869241691850689  
  0.6205473432441124  0.1046291284334302  0.6847554591304501  
  0.4079977643979191  0.7322087807285413  0.1712834470627982  
  0.4019606308564150  0.7362191274777885  0.6732174269172688  
  0.5980596316285656  0.2637793877649273  0.3267751514074888  
  0.5920349842608417  0.2677978177207407  0.8287432779553754  
  0.3794358782876870  0.8953977617156923  0.3152362451805928  
  0.3614713429684500  0.8870752238119479  0.8130942359867817  
  0.1383975595197455  0.6270134638964464  0.4406408001626119  
  0.1257971499262212  0.6246937285651342  0.9389263186693880  
  0.9881770122672862  0.6559556151246184  0.2970123569952818  
  0.9773923437611316  0.6634694067485825  0.8008174236340508  
  0.9174224052765254  0.2070122724978631  0.4258864126768458  
  0.9098417586555244  0.2016488194418571  0.9266334131302399  
  0.5374168418543306  0.8371228509488233  0.4537609680824559  
  0.5409279923627253  0.8472187968303544  0.9530685584301466  
  0.2022612852495485  0.4246004748304841  0.0378517897454174  
  0.1968486150762914  0.4311626141712779  0.5390670768376111  
  0.8191446958993538  0.0494582111804078  0.0866406800790358  
  0.8137019894868942  0.0513834931851918  0.5876742331681797  
  0.3004944255652688  0.0786614415473466  0.2081540668259265  
  0.2908065916261151  0.0873758281505275  0.7110603340840100  
  0.4202778945160759  0.8328817092891043  0.0602034355706422  
  0.4153626839651352  0.8444570630405508  0.5631555064187808  
  0.0888552027902492  0.6637957965693388  0.1831297901163964  
  0.0800718868567927  0.6667152730866519  0.6869888320002531  
  0.6648417352419003  0.4537834603998476  0.1664886365564016  
  0.6623181339811595  0.4565446885401130  0.6706906321602943  
  0.3376798029479602  0.5434156113386166  0.3292926922038504  
  0.3351639183918422  0.5461803812039463  0.8335203190240321  
  0.9198967498839394  0.3332624271538407  0.3130068247639102  
  0.9111395202895308  0.3362148021438571  0.8168777539212400  
  0.5846198227349149  0.1556065987908823  0.4368282101433749  
  0.5797499128103922  0.1671241164760531  0.9398103798944176  
  0.7091849339518745  0.9126708842133980  0.2889361022917640  
  0.6995311185191682  0.9213736467289166  0.7918631958117217  
  0.1862225307408920  0.9486195582211678  0.4123117542460690  
  0.1808825599801409  0.9505759496134232  0.9133846338318036  
  0.8031574918026863  0.5687341155649861  0.4608988603182311  
  0.7977937470940120  0.5753739325496738  0.9621653353103524  
  0.0349533377776368  0.3631924107687965  0.0156505695874571  
  0.0333585202173410  0.3613079380320912  0.5186589868479032  
  0.6594533936075493  0.0310196285901867  0.0363985392860684  
  0.6547330530972815  0.0369435457153529  0.5375963202977019  
  0.4544762787811152  0.0052201480552014  0.0938959987495025  
  0.4395975090178936  0.0203744208067462  0.5926967116878217  
  0.3077580723335984  0.3182154713934509  0.0688571195180216  
  0.3100871474702416  0.3270091674512088  0.5689100096102209  
  0.2086398062208090  0.2022549130961906  0.1848550203502342  
  0.1992075317732542  0.2112613572819910  0.6880001190692440  
  0.2493397949955778  0.7885794064104488  0.0269401156420415  
  0.2460691050700063  0.7949815932246125  0.5290038376406301  
  0.0541163752351821  0.4877936458444339  0.1523311795859996  
  0.0455361733194266  0.4923050853391473  0.6548815164369444  
  0.2299623374271320  0.5823482563125566  0.0891817847332206  
  0.2196634692633666  0.5882941422940604  0.5914835706171075  
  0.5035815906935355  0.7586737972388278  0.0128897550583176  
  0.5094949316260653  0.7700633423550940  0.5203627454584705  
  0.0122176474911200  0.7374486330287482  0.1333266230233789  
  0.9993982508316676  0.7516548455931797  0.6409497475039885  
  0.7590104558903050  0.5639734438867450  0.0185736347912595  
  0.7761778390214218  0.5539220073334619  0.5180458257425329  
  0.8034067114749917  0.0142345547338465  0.1437221069730654  
  0.7955647121709362  0.0156766745105799  0.6444848440888507  
  0.2588133406374595  0.0584599235534000  0.2618632681912487  
  0.2512288663842952  0.0738341065129475  0.7669961151238809  
  0.6018327274466060  0.2867391884313690  0.1453910510441219  
  0.5968495715315427  0.2896091068359894  0.6482703515989812  
  0.8801180722910686  0.2175140611491244  0.1086163614244668  
  0.8790436449884709  0.2176936465401624  0.6105772690941791  
  0.4719256688951319  0.1320697222316554  0.2309954483202645  
  0.4619421535820578  0.1378733912633194  0.7326778210297675  
  0.6719019322834470  0.4954105456887206  0.1105248822429914  
  0.6778487762932670  0.4981222791363393  0.6170876348793328  
  0.4975820579882821  0.7528458417448221  0.1090115000888900  
  0.4931783515543557  0.7854948880157337  0.6186475494023185  
  0.0082116246571786  0.7409534527199995  0.2311515967145539  
  0.0141894905829645  0.7427269519084305  0.7394834693743917  
  0.1804768856854153  0.5181624000319260  0.2765916326652302  
  0.1754871107985139  0.5176951675253036  0.7834454106028730  
  0.2717223342969177  0.9230162873025805  0.1550942406728240  
  0.2553026157205025  0.9305579838003908  0.6594070938441590  
  0.2630304939310335  0.6929909008010000  0.2154847028752869  
  0.2562391579542265  0.6951584520247422  0.7168843527951978  
  0.5510589892763349  0.5508873614071277  0.1966399443665949  
  0.5467969218159183  0.5534854559685911  0.7005176510100668  
  0.0857230283389612  0.0647161503496463  0.4385983291934252  
  0.0760340708456937  0.0602389387803868  0.9394221396502260  
  0.9239776258511724  0.9398095725611668  0.0605954811637801  
  0.9141313000521548  0.9352330976752584  0.5613703428722943  
  0.4532159678380054  0.4464786238235163  0.2994761395341143  
  0.4489631130093628  0.4490617229584331  0.8033823980529604  
  0.7437253863035309  0.3048249225133617  0.2831197753338586  
  0.7369569926586621  0.3070258273188742  0.7845330033518252  
  0.8245086081199489  0.4822924898957837  0.2165687541235073  
  0.8195208564601515  0.4817972140278002  0.7233915487548543  
  0.7446436606862221  0.0695060750411471  0.3405762241438737  
  0.7283350875972943  0.0770330883409116  0.8449255869300245  
  0.9857600416022620  0.2572555668873733  0.2605078617091365  
  0.9917507999393608  0.2590478871633053  0.7688467508157188  
  0.5068504069209325  0.2146568435699692  0.3813603464656694  
  0.5024381831762597  0.2472204357118244  0.8910201317587436  
  0.3221224546599331  0.5018304153249531  0.3828876692819634  
  0.3280642648259615  0.5045669266582493  0.8894802066199716  
  0.5380628743936171  0.8621496122612271  0.2673243767546580  
  0.5280892397762713  0.8680145195134443  0.7690287992084066  
  0.1209233579628517  0.7822917713920745  0.3894130814686179  
  0.1199012924271727  0.7825239696320949  0.8914075907226291  
  0.4031199097100000  0.7103540937305581  0.3516984420572840  
  0.3982003244681138  0.7132273743535791  0.8546199578567624  
  0.7487545556000299  0.9262334605294028  0.2330002393358157  
  0.7412210532716159  0.9415837744655988  0.7381586068604165  
  0.2043713359886539  0.9843324834339172  0.3555020159189297  
  0.1966421577663908  0.9857987905302537  0.8563040270331896  
  0.2237946932348365  0.4459874701047397  0.4819159655915612  
  0.2410558893151631  0.4360041321759454  0.9814490750708912  
  0.0005547971863251  0.2482948902534474  0.3590333310613758  
  0.9878071780586950  0.2625629680060442  0.8666812651374158  
  0.4904736819169813  0.2299726137947928  0.4796211723307806  
  0.4964573030065154  0.2413017739961987  0.9871322514946854  
  0.7803744594500230  0.4115575020094653  0.4085024460148219  
  0.7700824750791710  0.4176061838003307  0.9108500007667004  
  0.9544384431258948  0.5076684351703449  0.3451014404825798  
  0.9458745739103804  0.5122233265160432  0.8476773274191487  
  0.7539114299429741  0.2050351438103561  0.4709849753317030  
  0.7506907552397593  0.2114288427220927  0.9730744163258152  
  0.8008159922514722  0.7888110583571901  0.3119969404381422  
  0.7913805072909739  0.7977781272305791  0.8151643479320541  
  0.6899184759198533  0.6728433499359809  0.4310315234290840  
  0.6922884613945541  0.6817571809409486  0.9311612520059640  
  0.5603580552709460  0.9797062554962820  0.4072744901724192  
  0.5455663361857788  0.9947852125774616  0.9061159063745804  
  0.3451828441244160  0.9631171721523586  0.4623866893611606  
  0.3405581482505085  0.9690361046173096  0.9636366867458720  
  0.9666359841711198  0.6386115609767131  0.4813077557192713  
  0.9651040357970756  0.6367637422395021  0.9843593202776972  
