Ca Fe Pb F 
1.0
       14.7293815613         0.0000000000         0.0000000000
       -7.2228201164        12.8368824386         0.0000000000
        0.4433659045         0.7581948187        15.6496621368
   Ca   Fe   Pb    F
   15   32   16  144
Direct
     0.500000000         0.750000000         0.250000000
     0.250000000         0.000000000         0.000000000
     0.250000000         0.000000000         0.500000000
     0.250000000         0.500000000         0.000000000
     0.750000000         0.000000000         0.000000000
     0.750000000         0.000000000         0.500000000
     0.750000000         0.500000000         0.000000000
     0.750000000         0.500000000         0.500000000
     0.000000000         0.250000000         0.250000000
     0.000000000         0.250000000         0.750000000
     0.000000000         0.750000000         0.250000000
     0.000000000         0.750000000         0.750000000
     0.500000000         0.250000000         0.250000000
     0.500000000         0.250000000         0.750000000
     0.500000000         0.750000000         0.750000000
     0.000000000         0.000000000         0.250000000
     0.000000000         0.000000000         0.750000000
     0.000000000         0.500000000         0.250000000
     0.000000000         0.500000000         0.750000000
     0.500000000         0.000000000         0.250000000
     0.500000000         0.000000000         0.750000000
     0.500000000         0.500000000         0.250000000
     0.500000000         0.500000000         0.750000000
     0.000000000         0.000000000         0.000000000
     0.000000000         0.000000000         0.500000000
     0.000000000         0.500000000         0.000000000
     0.000000000         0.500000000         0.500000000
     0.500000000         0.000000000         0.000000000
     0.500000000         0.000000000         0.500000000
     0.500000000         0.500000000         0.000000000
     0.500000000         0.500000000         0.500000000
     0.250000000         0.000000000         0.250000000
     0.250000000         0.000000000         0.750000000
     0.250000000         0.500000000         0.250000000
     0.250000000         0.500000000         0.750000000
     0.750000000         0.000000000         0.250000000
     0.750000000         0.000000000         0.750000000
     0.750000000         0.500000000         0.250000000
     0.750000000         0.500000000         0.750000000
     0.000000000         0.250000000         0.000000000
     0.000000000         0.250000000         0.500000000
     0.000000000         0.750000000         0.000000000
     0.000000000         0.750000000         0.500000000
     0.500000000         0.250000000         0.000000000
     0.500000000         0.250000000         0.500000000
     0.500000000         0.750000000         0.000000000
     0.500000000         0.750000000         0.500000000
     0.242901146         0.257098824         0.375000000
     0.242901146         0.257098824         0.875000000
     0.242901146         0.757098794         0.375000000
     0.242901146         0.757098794         0.875000000
     0.742901146         0.257098824         0.375000000
     0.742901146         0.257098824         0.875000000
     0.742901146         0.757098794         0.375000000
     0.742901146         0.757098794         0.875000000
     0.257098854         0.242901161         0.125000000
     0.257098854         0.242901161         0.625000000
     0.257098854         0.742901146         0.125000000
     0.257098854         0.742901146         0.625000000
     0.757098854         0.242901161         0.125000000
     0.757098854         0.242901161         0.625000000
     0.757098854         0.742901146         0.125000000
     0.757098854         0.742901146         0.625000000
     0.098571099         0.431506693         0.265225172
     0.098571099         0.431506693         0.765225172
     0.098571099         0.931506693         0.265225172
     0.098571099         0.931506693         0.765225172
     0.598571122         0.431506693         0.265225172
     0.598571122         0.431506693         0.765225172
     0.598571122         0.931506693         0.265225172
     0.598571122         0.931506693         0.765225172
     0.401428878         0.068493284         0.234774813
     0.401428878         0.068493284         0.734774828
     0.401428878         0.568493307         0.234774813
     0.401428878         0.568493307         0.734774828
     0.901428878         0.068493284         0.234774813
     0.901428878         0.068493284         0.734774828
     0.901428878         0.568493307         0.234774813
     0.901428878         0.568493307         0.734774828
     0.068493292         0.401428878         0.484774828
     0.068493292         0.401428878         0.984774828
     0.068493292         0.901428878         0.484774828
     0.068493292         0.901428878         0.984774828
     0.568493307         0.401428878         0.484774828
     0.568493307         0.401428878         0.984774828
     0.568493307         0.901428878         0.484774828
     0.568493307         0.901428878         0.984774828
     0.431506723         0.098571122         0.015225178
     0.431506723         0.098571122         0.515225172
     0.431506723         0.598571122         0.015225178
     0.431506723         0.598571122         0.515225172
     0.931506753         0.098571122         0.015225178
     0.931506753         0.098571122         0.515225172
     0.931506753         0.598571122         0.015225178
     0.931506753         0.598571122         0.515225172
     0.490013152         0.009986826         0.375000000
     0.490013152         0.009986826         0.875000000
     0.490013152         0.509986818         0.375000000
     0.490013152         0.509986818         0.875000000
     0.990013123         0.009986826         0.375000000
     0.990013123         0.009986826         0.875000000
     0.990013123         0.509986818         0.375000000
     0.990013123         0.509986818         0.875000000
     0.009986845         0.490013182         0.125000000
     0.009986845         0.490013182         0.625000000
     0.009986845         0.990013182         0.125000000
     0.009986845         0.990013182         0.625000000
     0.509986818         0.490013182         0.125000000
     0.509986818         0.490013182         0.625000000
     0.509986818         0.990013182         0.125000000
     0.509986818         0.990013182         0.625000000
     0.257450432         0.449266881         0.365777701
     0.257450432         0.449266881         0.865777731
     0.257450432         0.949266911         0.365777701
     0.257450432         0.949266911         0.865777731
     0.757450461         0.449266881         0.365777701
     0.757450461         0.449266881         0.865777731
     0.757450461         0.949266911         0.365777701
     0.757450461         0.949266911         0.865777731
     0.242549583         0.050733123         0.134222314
     0.242549583         0.050733123         0.634222329
     0.242549583         0.550733149         0.134222314
     0.242549583         0.550733149         0.634222329
     0.742549598         0.050733123         0.134222314
     0.742549598         0.050733123         0.634222329
     0.742549598         0.550733149         0.134222314
     0.742549598         0.550733149         0.634222329
     0.050733119         0.242549583         0.384222329
     0.050733119         0.242549583         0.884222329
     0.050733119         0.742549598         0.384222329
     0.050733119         0.742549598         0.884222329
     0.550733089         0.242549583         0.384222329
     0.550733089         0.242549583         0.884222329
     0.550733089         0.742549598         0.384222329
     0.550733089         0.742549598         0.884222329
     0.449266881         0.257450402         0.115777686
     0.449266881         0.257450402         0.615777671
     0.449266881         0.757450402         0.115777686
     0.449266881         0.757450402         0.615777671
     0.949266911         0.257450402         0.115777686
     0.949266911         0.257450402         0.615777671
     0.949266911         0.757450402         0.115777686
     0.949266911         0.757450402         0.615777671
     0.274295092         0.131006941         0.295148462
     0.274295092         0.131006941         0.795148492
     0.274295092         0.631006956         0.295148462
     0.274295092         0.631006956         0.795148492
     0.774295092         0.131006941         0.295148462
     0.774295092         0.131006941         0.795148492
     0.774295092         0.631006956         0.295148462
     0.774295092         0.631006956         0.795148492
     0.225704923         0.368993074         0.204851523
     0.225704923         0.368993074         0.704851508
     0.225704923         0.868993044         0.204851523
     0.225704923         0.868993044         0.704851508
     0.725704908         0.368993074         0.204851523
     0.725704908         0.368993074         0.704851508
     0.725704908         0.868993044         0.204851523
     0.725704908         0.868993044         0.704851508
     0.368993044         0.225704908         0.454851508
     0.368993044         0.225704908         0.954851508
     0.368993044         0.725704908         0.454851508
     0.368993044         0.725704908         0.954851508
     0.868993044         0.225704908         0.454851508
     0.868993044         0.225704908         0.954851508
     0.868993044         0.725704908         0.454851508
     0.868993044         0.725704908         0.954851508
     0.131006941         0.274295092         0.045148477
     0.131006941         0.274295092         0.545148492
     0.131006941         0.774295092         0.045148477
     0.131006941         0.774295092         0.545148492
     0.631006956         0.274295092         0.045148477
     0.631006956         0.274295092         0.545148492
     0.631006956         0.774295092         0.045148477
     0.631006956         0.774295092         0.545148492
     0.333709419         0.390819192         0.014114861
     0.333709419         0.390819192         0.514114857
     0.333709419         0.890819192         0.014114861
     0.333709419         0.890819192         0.514114857
     0.833709419         0.390819192         0.014114861
     0.833709419         0.390819192         0.514114857
     0.833709419         0.890819192         0.014114861
     0.833709419         0.890819192         0.514114857
     0.166290566         0.109180793         0.485885143
     0.166290566         0.109180793         0.985885143
     0.166290566         0.609180808         0.485885143
     0.166290566         0.609180808         0.985885143
     0.666290581         0.109180793         0.485885143
     0.666290581         0.109180793         0.985885143
     0.666290581         0.609180808         0.485885143
     0.666290581         0.609180808         0.985885143
     0.109180793         0.166290566         0.235885143
     0.109180793         0.166290566         0.735885143
     0.109180793         0.666290581         0.235885143
     0.109180793         0.666290581         0.735885143
     0.609180808         0.166290566         0.235885143
     0.609180808         0.166290566         0.735885143
     0.609180808         0.666290581         0.235885143
     0.609180808         0.666290581         0.735885143
     0.390819222         0.333709449         0.264114887
     0.390819222         0.333709449         0.764114857
     0.390819222         0.833709478         0.264114887
     0.390819222         0.833709478         0.764114857
     0.890819192         0.333709449         0.264114887
     0.890819192         0.333709449         0.764114857
     0.890819192         0.833709478         0.264114887
     0.890819192         0.833709478         0.764114857
