Ca Mn V  P  O 
1.0
        9.8876199722         0.0000000000         0.0000000000
       -4.7501424024         8.6586232848         0.0000000000
       -1.2114516438        -2.0531417766         6.9390162580
   Ca   Mn    V    P    O
    3    1    3    8   28
Direct
     0.664465785         0.568306208         0.736418247
     0.676856816         0.086386308         0.263318628
     0.182056159         0.586057723         0.262877345
     0.397066802         0.385588348         0.257800162
     0.863769650         0.356106490         0.730122030
     0.364172012         0.856578588         0.732098520
     0.892177761         0.885920465         0.268028975
     0.094893649         0.288217455         0.497531444
     0.758118868         0.027710494         0.896174967
     0.256562740         0.526837289         0.890736282
     0.459664941         0.153042674         0.504681408
     0.599014997         0.790330708         0.501374245
     0.728067219         0.490904450         0.106831864
     0.222689092         0.990642846         0.105670691
     0.962993145         0.653421581         0.499761164
     0.068396255         0.119168185         0.461353391
     0.356239378         0.047231425         0.616459846
     0.603938520         0.025323002         0.918487132
     0.104265511         0.526450336         0.916175663
     0.198599219         0.358505219         0.727070391
     0.389442354         0.051571336         0.274141252
     0.223017469         0.142297551         0.076320730
     0.196414649         0.390778035         0.383006334
     0.457822263         0.309038460         0.526410639
     0.132216245         0.681381702         0.538912892
     0.628001869         0.178973198         0.539944410
     0.873881102         0.168069348         0.834942460
     0.371951550         0.664890468         0.825865269
     0.243697524         0.913624644         0.922505677
     0.747052491         0.419394225         0.918533027
     0.332361609         0.509127378         0.078048646
     0.831484735         0.008272116         0.082818523
     0.082958095         0.876572251         0.169341281
     0.592515349         0.372337312         0.172305301
     0.571556270         0.621145666         0.464103848
     0.443228036         0.792607367         0.483703882
     0.937994897         0.288177162         0.481690437
     0.858142734         0.548799336         0.611008108
     0.702491760         0.861388922         0.730528593
     0.897394121         0.551997840         0.270321161
     0.723162115         0.641732872         0.084064454
     0.701074660         0.892860353         0.386018038
     0.959725142         0.808606386         0.516904235
