V1 P2 O7
1.0
   5.3650510000000002   -0.0304650000000000   -0.6303420000000000
   1.0574610000000000    5.2599000000000000    0.6303529999999991
   0.0559459999999990   -0.0687010000000000    4.9191019999999996
V P O
1 2 7
direct
   0.1118740000000000    0.1118789999999990    0.0000020000000000 V
   0.6672200000000000    0.2460330000000000    0.4380630000000000 P
   0.2460320000000000    0.6672210000000000    0.5619379999999990 P
   0.7811500000000000    0.0959629999999990    0.7095330000000000 O
   0.3306900000000000    0.8463689999999990    0.7682479999999990 O
   0.1746560000000000    0.4491549999999990    0.7423590000000000 O
   0.0959619999999990    0.7811490000000000    0.2904660000000000 O
   0.5407090000000000    0.5407080000000000    0.4999989999999990 O
   0.4491560000000000    0.1746530000000000    0.2576400000000000 O
   0.8463689999999990    0.3306880000000000    0.2317519999999990 O
