V  P  O 
 1.0000000000000000
     5.3650510000000002   -0.0304650000000000   -0.6303420000000000
     1.0574610000000000    5.2599000000000000    0.6303529999999991
     0.0559459999999990   -0.0687010000000000    4.9191019999999996
 V   P   O  
   1   2   7
Cartesian
  0.6825017890696489  0.5557120650528787  0.0000009142011152
  3.8373985067988134  1.3295107524503711  1.7920556370466842
  2.1355588928723752  3.4196259902701689  3.1270558649273146
  4.4860632407364589  0.5491893907786932  2.9461569720568455
  2.4751524073543352  4.4806512061404042  4.2852879528957146
  1.3784559129201652  2.2648337446315185  3.7760968680944833
  1.5028880664178046  4.2129760220993333  1.9729584367184370
  3.5113483768630926  2.8019354795236642  2.4595552621934704
  2.5531331736215410  0.8221525164753958  1.1430129311374366
  4.9452286641617551  1.4470287154075430  0.6338248427264762
