Ca V  O                                 
   1.00000000000000     
    10.9655885695999995    0.0000000000000000    0.0000000000000000
    -1.8643554801000000   14.2891268287000006    0.0000000000000000
    -1.8525292359000001    0.1709672118000000    8.2915385771000008
   Ca   V    O 
    19    28    56
Direct
  0.7310411631848043  0.2807510492091402  0.5870070447730295
  0.0387624109736722  0.3286407072468497  0.6532782694924222
  0.0328261194429663  0.8282382227439040  0.6538968208020836
  0.5346634275650579  0.8240949184002188  0.6497132711598242
  0.2690307212377306  0.2569151597620557  0.5180825115067453
  0.2484525219776181  0.7523869794152030  0.4972240079990274
  0.7472415523620487  0.7497315874970205  0.4944420574950843
  0.4753364680858826  0.1751809117065693  0.3603716112143536
  0.4605943871008004  0.6726259386585501  0.3374416348213039
  0.9575694291435035  0.1795057520067825  0.3682080506885474
  0.9639350492769854  0.6758269640530650  0.3430287634655773
  0.3974365759022929  0.0307037261217709  0.0761674953881378
  0.3917915936632114  0.5301144932476163  0.0551501972451229
  0.8996340046349804  0.0358261319903196  0.0865154556140884
  0.8756181922905173  0.5319562417563597  0.0606527184981813
  0.1021451301534274  0.4713538168154963  0.9337750932473322
  0.1089573710964997  0.9688274264243526  0.9360301894603505
  0.5899081139024336  0.4486603682521543  0.8817589127173566
  0.6130010725279714  0.9634934864223939  0.9312995155407767
  0.4266404354566795  0.1011288035352311  0.7180050752392944
  0.4146074145286516  0.6033800221712310  0.6999430425427314
  0.9272769007925110  0.1071155283525572  0.7274550649417211
  0.9198242261524801  0.6041343328369897  0.7085411368957306
  0.0756659794750593  0.3998889353966607  0.2899612547763646
  0.0806969110263849  0.8988697757999902  0.2934950130333428
  0.5665367482287341  0.3906040954789018  0.2681087478190436
  0.5787884410016215  0.8947261701859954  0.2836208358499754
  0.2771309132888066  0.3143836747176098  0.1365043703384905
  0.2848082215183672  0.8153222852241425  0.1329390689981777
  0.7805776778131200  0.3161182164635193  0.1449475623989559
  0.7911836342183104  0.8178000593170514  0.1391014490909988
  0.1514988080160068  0.0401498528794272  0.5798133720795364
  0.1474542386817287  0.5395455193632830  0.5681089795107755
  0.6541264979781318  0.0351532909254088  0.5758904883702833
  0.6359152851455577  0.5343744582772598  0.5496803125805614
  1.0071547548644888  0.2522791030889373  0.0154288865299887
  0.9903007374201297  0.7520174361326430  0.9996077904532101
  0.4944016900373450  0.2498452116014598  0.9936169181383299
  0.5061785839349039  0.7455863897766694  0.9929539247036648
  0.3494506112798346  0.4620499895646392  0.4178932875659572
  0.3541222500170770  0.9635104574431680  0.4303356500883653
  0.8515538715365505  0.4701527700488424  0.4293622096341231
  0.8507401859383665  0.9663179990440445  0.4396879136813291
  0.2201140363747834  0.1834340811595181  0.8738340802061433
  0.2122957703243525  0.6857553901451742  0.8621886331411948
  0.7162487145117996  0.1774146521959208  0.8864885866044118
  0.7040556838385624  0.6778253803534775  0.8524749213918573
  0.3778381504534928  0.2262534338209361  0.7783866807825387
  0.3754737990925501  0.7341543652282426  0.7600794335636409
  0.8845322079100477  0.2384828938331624  0.7881425786968952
  0.8678359953995188  0.7311966559789483  0.7597372658949479
  0.0958709675684476  0.1765082415899536  0.6310961216447196
  0.0874315602775946  0.6744084898200366  0.6183209901780915
  0.5932817471631644  0.1588333545933000  0.6352471767109626
  0.5825400964050130  0.6705460082373965  0.6071878241136223
  0.4014200147538086  0.3287796811035163  0.3549839743173889
  0.4114638961561207  0.8272766920568038  0.3756424569441004
  0.9078666850548789  0.3356253175107910  0.3881617661924153
  0.9125151952866071  0.8313853733568543  0.3848220639556755
  0.3129424816357831  0.0969752775437720  0.4911049922801404
  0.3020213746368332  0.5969164152820179  0.4727217253643754
  0.8122609558655982  0.0964325230734345  0.5022524543200987
  0.8044662618728330  0.6004142964436259  0.4801861723968114
  0.1227186062409830  0.2687385597005597  0.2474490789408529
  0.1209567768925346  0.7677512643726552  0.2341029776295455
  0.6193995089444515  0.2665507973452307  0.2338606457101980
  0.6272954610712528  0.7640600176431160  0.2298198941936636
  0.4784437730582484  0.4844366379924969  0.6285036523792181
  0.4934325502079707  0.9769522410515088  0.6584245745615643
  0.9882370825758814  0.4821290574085246  0.6585117022126015
  0.9918755020666522  0.9831861207542576  0.6671191309224873
  0.4425316236698498  0.3785161469781539  0.0440655102210987
  0.4597336451620686  0.8786430905256000  0.0612481313407908
  0.9536478098413969  0.3843881303230736  0.0708646424340865
  0.9562488607651314  0.8850436836674141  0.0692747416497792
  0.1939771408511454  0.4067956434398685  0.5164807072123138
  0.1930811078598422  0.9068161370638317  0.5212964320937568
  0.6823395129955785  0.4155463543498553  0.4869261174543291
  0.6906125713897107  0.9019009035570690  0.5159914586176527
  0.0108833640823089  0.0240780592909058  0.3575112850059308
  0.0108411495288867  0.5237647227243133  0.3409842566302316
  0.5145715437161349  0.0190806434162884  0.3462605711153125
  0.5011639965769117  0.5183461687060137  0.3191469395909315
  0.3456746481383128  0.1884552674951836  0.0947027731605723
  0.3462767642197069  0.6893502357729437  0.0761401350662954
  0.8507755362504565  0.1917628021650905  0.1007728099076250
  0.8359642713810863  0.6877201842954775  0.0809891176256615
  0.1548161755020866  0.3119773853467035  0.9152706279012180
  0.1496267925085601  0.8100774621498205  0.9165221858756309
  0.6561332433612242  0.3014387183605886  0.9203150339376982
  0.6613111708350434  0.8086089515724456  0.9111167679799046
  0.0516112590745677  0.1203439388945759  0.9487859645654043
  0.0374558520258613  0.6197178433441427  0.9324873813712102
  0.5469063513190174  0.1131417381393507  0.9438118497453747
  0.5404487699484757  0.6111943987986714  0.9193641251768974
  0.2325869251667924  0.4450497821088309  0.1848610403842213
  0.2399858366080204  0.9443131863976221  0.1946304504752304
  0.7314800977859423  0.4434601452281017  0.1850004511472849
  0.7399321914733951  0.9450228527628560  0.1967111111139905
  0.2641281013915803  0.0546053573883504  0.8162003667412899
  0.2573926285217547  0.5565456124375796  0.8017604338355957
  0.7712066224901568  0.0548632392450865  0.8226037228306260
  0.7522051165522100  0.5496886816013483  0.7923666251729451
 
             NaN             NaN             NaN
             NaN             NaN             NaN
             NaN             NaN             NaN
             NaN             NaN             NaN
             NaN             NaN             NaN
             NaN             NaN             NaN
             NaN             NaN             NaN
             NaN             NaN             NaN
             NaN             NaN             NaN
             NaN             NaN             NaN
             NaN             NaN             NaN
             NaN             NaN             NaN
             NaN             NaN             NaN
             NaN             NaN             NaN
             NaN             NaN             NaN
             NaN             NaN             NaN
             NaN             NaN             NaN
             NaN             NaN             NaN
             NaN             NaN             NaN
             NaN             NaN             NaN
             NaN             NaN             NaN
             NaN             NaN             NaN
             NaN             NaN             NaN
             NaN             NaN             NaN
             NaN             NaN             NaN
             NaN             NaN             NaN
             NaN             NaN             NaN
             NaN             NaN             NaN
             NaN             NaN             NaN
             NaN             NaN             NaN
             NaN             NaN             NaN
             NaN             NaN             NaN
             NaN             NaN             NaN
             NaN             NaN             NaN
             NaN             NaN             NaN
             NaN             NaN             NaN
             NaN             NaN             NaN
             NaN             NaN             NaN
             NaN             NaN             NaN
             NaN             NaN             NaN
             NaN             NaN             NaN
             NaN             NaN             NaN
             NaN             NaN             NaN
             NaN             NaN             NaN
             NaN             NaN             NaN
             NaN             NaN             NaN
             NaN             NaN             NaN
             NaN             NaN             NaN
             NaN             NaN             NaN
             NaN             NaN             NaN
             NaN             NaN             NaN
             NaN             NaN             NaN
             NaN             NaN             NaN
             NaN             NaN             NaN
             NaN             NaN             NaN
             NaN             NaN             NaN
             NaN             NaN             NaN
             NaN             NaN             NaN
             NaN             NaN             NaN
             NaN             NaN             NaN
             NaN             NaN             NaN
             NaN             NaN             NaN
             NaN             NaN             NaN
             NaN             NaN             NaN
             NaN             NaN             NaN
             NaN             NaN             NaN
             NaN             NaN             NaN
             NaN             NaN             NaN
             NaN             NaN             NaN
             NaN             NaN             NaN
             NaN             NaN             NaN
             NaN             NaN             NaN
             NaN             NaN             NaN
             NaN             NaN             NaN
             NaN             NaN             NaN
             NaN             NaN             NaN
             NaN             NaN             NaN
             NaN             NaN             NaN
             NaN             NaN             NaN
             NaN             NaN             NaN
             NaN             NaN             NaN
             NaN             NaN             NaN
             NaN             NaN             NaN
             NaN             NaN             NaN
             NaN             NaN             NaN
             NaN             NaN             NaN
             NaN             NaN             NaN
             NaN             NaN             NaN
             NaN             NaN             NaN
             NaN             NaN             NaN
             NaN             NaN             NaN
             NaN             NaN             NaN
             NaN             NaN             NaN
             NaN             NaN             NaN
             NaN             NaN             NaN
             NaN             NaN             NaN
             NaN             NaN             NaN
             NaN             NaN             NaN
             NaN             NaN             NaN
             NaN             NaN             NaN
             NaN             NaN             NaN
             NaN             NaN             NaN
             NaN             NaN             NaN
