Ca V  O 
 1.0000000000000000
    10.9655885695999995    0.0000000000000000    0.0000000000000000
    -1.8643554801000000   14.2891268287000006    0.0000000000000000
    -1.8525292359000001    0.1709672118000000    8.2915385771000008
 Ca  V   O  
  19  28  56
Cartesian
  6.4467699543965091  4.0705658726012883  4.6972993013745112
 -1.3854017910153194  4.7850377123826826  5.4285376518226514
 -2.3359226791548773 11.9437977396086712  5.4161956962312443
  3.1524495573161024 11.9291248956235876  5.4113527510461914
  1.5095123736004357  3.7723602180733202  4.2864866014990364
  0.4007930186331996 10.8269834770561797  4.1323785516074514
  5.9065320314918806 10.8216937883470372  4.1200043212038349
  4.1613928591022518  2.6007016504752802  2.9676958081416589
  3.1333886737030632  9.6776653958177565  2.8258533086143900
  9.4636967383713912  2.5726222899170237  2.9998333824285708
  8.6692929233331792  9.6867630343302764  2.8327506831774363
  4.0696008825297865  0.5113583651646786  0.6161070397775760
  3.2430871036806010  7.6179944567405427  0.4649371583451965
  9.5892934120660858  0.4929999894603464  0.6483757097023483
  8.5403080291237394  7.6117041934602847  0.4761362493961888
 -1.4210861832204273  6.8413463762308089  7.7477190711805557
 -2.3422805983221591 13.9557629335115223  7.7548461920702634
  4.0635164035787605  6.5229270589615425  7.3532994521370751
  3.1322552120652856 13.9304177092571919  7.7851092866883382
  3.1606538576260430  1.6327377091513260  5.9660060890327147
  2.2270567069607941  8.7869523705533954  5.8641684567719432
  8.6341644224492278  1.6290016980126232  5.9730867711449731
  7.7040467560544750  8.7721726435990686  5.8893235207855330
 -0.4810332426034998  5.6814365817577750  2.3810868638668796
 -1.4100776850068037 12.8463905653724737  2.3858972039155146
  4.9938499547897113  5.7174970163060772  2.2887512021267229
  4.0686503787793029 12.8362032663363586  2.3827222762338893
  2.2677557468069449  4.5766196883129702  1.1742597200324927
  1.3305902737275626 11.7204049984358889  1.1697747711296567
  7.6947901123938438  4.5577607571993486  1.2312170998076337
  6.8166800447640128 11.7096598585428993  1.1705016531670982
  0.4731399510288407  0.6576055977409833  4.7440014200490186
 -0.4656985602024065  7.7712506228018636  4.7012264438665081
  5.9509188076218074  0.6191063785469858  4.7722945912475909
  4.9837037396961321  7.8131898588630335  4.6322671058186993
 -0.4843376421337093  3.5707902890353078  0.0653923330941305
 -1.4101817648314003 10.7059786160041437 -0.0124005921350945
  5.0112899190243443  3.5309017237116871 -0.0168354989462118
  4.0847753264785682 10.7027385797762200 -0.0126928991042115
  2.2406345725778425  6.7106613645467625  3.5134661053957816
  1.2846866532352887 13.8693819186060736  3.5938126281619591
  7.7085568686389694  6.7433048092553589  3.5072951320860284
  6.7700549371520626 13.8477954956049363  3.6050898306087915
  0.4121664200688334  2.7222524421093262  7.1679477457725156
 -0.5195023271096318  9.8790379731988267  7.1016290143372025
  5.8744597314268967  2.6588333299491249  7.2239933291481035
  4.9609625084647169  9.8567070131377275  7.0907254416934693
  2.2744403901280212  3.4010322585526964  6.4096654642813906
  1.3894421046538816 10.6329568564141290  6.2800700187436860
  7.7873712292500059  3.5064992964604613  6.4045337025141107
  6.8563135178212331 10.6395360541326518  6.2800605960558267
 -0.5028656176973851  2.6164956770822534  5.1405671049068467
 -1.4414893460289453  9.7492920747008274  5.0789624674176066
  5.0104225327768894  2.4481249480834246  5.1867157645398727
  4.0605489145242686  9.7521260891782759  5.0456528472896798
  3.1911022186687799  4.7799293832879437  3.0622078280846257
  2.2553588555917807 11.8809905164505345  3.1985869175372104
  8.5835593065690912  4.7847913644358311  3.2371947487175476
  7.7534765932174503 11.8727662329753212  3.2019209077505346
  2.3459824856963940  1.5431161677761494  4.1216763099222176
  1.3735480566325480  8.6791986625520039  4.0236477045704078
  7.7562613508011946  1.4674789962293682  4.1886027815430751
  6.8747824193908365  8.6753806910686908  4.0102356849771157
  0.3493028264958968  3.8626790085524290  2.0459795397831257
 -0.5514978740200328 10.9529616935612495  1.9875694027757151
  5.8597332935129911  3.8755373451245760  2.0295815715630736
  4.9146083227520290 10.9521976582630334  1.9843279268282410
  3.1823127751259461  7.0832159754705701  5.3673600962784764
  2.3216965544157770 14.0783471398370903  5.5331024647632958
  8.6567272670232729  6.9278612238993675  5.4865766191449312
  7.7574592151973878 14.1059375987203026  5.5587420252305977
  4.1631064842468222  5.4855050204223810  0.4252118331993511
  3.2165681916847606 12.6487027240831758  0.5240771848442056
  9.6015485829173173  5.4880365442048333  0.5537249931325435
  8.7025147687453472 12.6536121114530662  0.5259264537933360
  0.3734869353873759  5.8205247355877896  4.1972953038428180
 -0.5637363407536023 12.9819942008799547  4.2384621310854014
  5.8838426024637371  6.0787288465826101  4.0994363951756378
  4.9060285836338915 12.9822014293968717  4.2555215148340322
 -0.5528068207937854  0.4175036856686991  2.8176687305638906
 -1.4847161095579160  7.4918254692631745  2.7271538369586152
  4.9681093313388267  0.3990048910993060  2.8284909900577198
  4.0121874803431101  7.5547870891176583  2.6846566222563202
  3.2882189080116233  2.7277996623268934  0.7958782542389893
  2.3623789223087428  9.8511165993189067  0.6918582713672270
  8.7282290204257169  2.7191807004451110  0.8283962778415814
  7.8296872331526801  9.8363910039661011  0.7053375221289266
 -0.6164352332274241  4.5978733742296258  7.5970753531249136
 -1.5297084014721400 11.7381206696104030  7.5543631421131305
  4.9777474222595650  4.4642200335475115  7.6358585033963235
  3.9446129278509225 11.7208249086248717  7.5528078421322222
 -1.4779343737818427  1.7955830529728900  7.8088427660530382
 -2.4203007208687102  8.9410667004386504  7.7577212368731798
  4.0063934151302192  1.7523723460798728  7.8395694872699924
  3.0954280392028464  8.9191241633400189  7.6875892439337257
  1.3830569295052757  6.4691858291695450  1.5519311540439658
  0.4312287857512357 13.6245747106854260  1.6004235186597131
  6.8640883736349876  6.4192055254550633  1.4769418114923285
  5.9225114021073590 13.6145479776499059  1.6053783795596277
  1.3071427464892880  0.8212281120535893  6.7487501955539706
  0.3674120356588069  7.9880105382498741  6.6866642034969495
  6.7840866946373604  0.8244840765266263  6.7782755645666990
  5.8279088066616387  7.9592474882332880  6.6226686898525466
