Ca Mn Fe F 
1.0
        9.2708072662         0.0000000000         0.0000000000
       -4.6354047022         8.0287539889         0.0000000000
        0.0000000000         0.0000000000        15.4197778702
   Ca   Mn   Fe    F
    8    9    9   54
Direct
     0.367483348         0.367483348         0.666666687
     0.632516742         0.000000000         0.000000000
     0.632516742         0.000000000         0.333333343
     0.632516742         0.000000000         0.666666687
     0.000000000         0.632516742         0.000000000
     0.000000000         0.632516742         0.333333343
     0.000000000         0.632516742         0.666666687
     0.367483348         0.367483348         0.000000000
     0.297070473         0.999999583         0.166666672
     0.297070473         0.999999583         0.500000000
     0.297070473         0.999999583         0.833333313
     0.999999583         0.297070473         0.166666687
     0.999999583         0.297070473         0.500000000
     0.999999583         0.297070473         0.833333373
     0.702929676         0.702929676         0.166666672
     0.702929676         0.702929676         0.500000000
     0.702929676         0.702929676         0.833333313
     0.333333194         0.666667163         0.166784331
     0.333333194         0.666667163         0.500117660
     0.333333194         0.666667163         0.833450973
     0.666667163         0.333333194         0.166548997
     0.666667163         0.333333194         0.499882340
     0.666667163         0.333333194         0.833215654
     0.999999702         0.999999702         0.000000000
     0.999999702         0.999999702         0.333333343
     0.999999702         0.999999702         0.666666687
     0.116215251         0.531032681         0.092691146
     0.116215251         0.531032681         0.426024467
     0.116215251         0.531032681         0.759357810
     0.468967319         0.585182309         0.092691027
     0.468967319         0.585182309         0.426024348
     0.468967319         0.585182309         0.759357691
     0.531032681         0.116215251         0.240642190
     0.531032681         0.116215251         0.573975503
     0.531032681         0.116215251         0.907308877
     0.414817363         0.883784711         0.092691213
     0.414817363         0.883784711         0.426024556
     0.414817363         0.883784711         0.759357870
     0.585182309         0.468967319         0.240642309
     0.585182309         0.468967319         0.573975623
     0.585182309         0.468967319         0.907308996
     0.883784711         0.414817363         0.240642130
     0.883784711         0.414817363         0.573975444
     0.883784711         0.414817363         0.907308817
     0.119429886         0.217598230         0.076615058
     0.119429886         0.217598230         0.409948379
     0.119429886         0.217598230         0.743281722
     0.782401919         0.901831448         0.076615088
     0.782401919         0.901831448         0.409948409
     0.782401919         0.901831448         0.743281782
     0.217598230         0.119429894         0.256718278
     0.217598230         0.119429894         0.590051591
     0.217598230         0.119429894         0.923384964
     0.098168500         0.880570471         0.076615088
     0.098168500         0.880570471         0.409948409
     0.098168500         0.880570471         0.743281782
     0.901831448         0.782401919         0.256718248
     0.901831448         0.782401919         0.590051591
     0.901831448         0.782401919         0.923384905
     0.880570471         0.098168492         0.256718248
     0.880570471         0.098168492         0.590051591
     0.880570471         0.098168492         0.923384905
     0.446141690         0.225849718         0.092903875
     0.446141690         0.225849718         0.426237196
     0.446141690         0.225849718         0.759570539
     0.774150431         0.220292315         0.092904069
     0.774150431         0.220292315         0.426237404
     0.774150431         0.220292315         0.759570718
     0.225849718         0.446141690         0.240429461
     0.225849718         0.446141690         0.573762774
     0.225849718         0.446141690         0.907096148
     0.779707670         0.553858161         0.092903979
     0.779707670         0.553858161         0.426237315
     0.779707670         0.553858161         0.759570658
     0.220292315         0.774150431         0.240429267
     0.220292315         0.774150431         0.573762596
     0.220292315         0.774150431         0.907095909
     0.553858161         0.779707670         0.240429342
     0.553858161         0.779707670         0.573762655
     0.553858161         0.779707670         0.907096028
