Ca Mn V  P  O 
1.0
       10.0636873245         0.0000000000         0.0000000000
       -0.0031960689         8.4693254162         0.0000000000
       -0.4882916960        -0.0251563366        27.7789672905
   Ca   Mn    V    P    O
   15    4   12   32  112
Direct
     0.430021644         0.093504213         0.315833986
     0.067840911         0.594196081         0.684224069
     0.567840934         0.594196081         0.684224069
     0.068090349         0.588834822         0.184632137
     0.568090320         0.588834822         0.184632137
     0.181655467         0.093694881         0.565215051
     0.681655467         0.093694881         0.565215051
     0.180957481         0.092513762         0.066333205
     0.680957496         0.092513762         0.066333205
     0.316818535         0.592600942         0.934547603
     0.816818535         0.592600942         0.934547603
     0.318782121         0.590639591         0.434353292
     0.818782091         0.590639591         0.434353292
     0.432399064         0.092730999         0.815739632
     0.932399035         0.092730999         0.815739632
     0.074291028         0.009916362         0.185622826
     0.574291050         0.009916362         0.185622826
     0.324701279         0.010840951         0.435265809
     0.824701309         0.010840951         0.435265809
     0.073377885         0.007457799         0.682994723
     0.573377907         0.007457799         0.682994723
     0.179023296         0.508342564         0.567871213
     0.679023266         0.508342564         0.567871213
     0.176298320         0.507248163         0.066609703
     0.676298320         0.507248163         0.066609703
     0.322505891         0.006544065         0.933021545
     0.822505891         0.006544065         0.933021545
     0.427708894         0.506711721         0.817106068
     0.927708864         0.506711721         0.817106068
     0.427510858         0.508734405         0.317364007
     0.927510858         0.508734405         0.317364007
     0.068506762         0.807525694         0.875120580
     0.568506777         0.807525694         0.875120580
     0.081081703         0.231777832         0.973341823
     0.581081688         0.231777832         0.973341823
     0.068972774         0.807613909         0.375426680
     0.568972766         0.807613909         0.375426680
     0.080261692         0.238206416         0.473453164
     0.580261707         0.238206416         0.473453164
     0.169275448         0.731819987         0.776560843
     0.669275463         0.731819987         0.776560843
     0.181811482         0.307618380         0.874744058
     0.681811452         0.307618380         0.874744058
     0.170208573         0.729070604         0.276917577
     0.670208573         0.729070604         0.276917577
     0.180533797         0.308539778         0.373856157
     0.680533767         0.308539778         0.373856157
     0.319300175         0.809635162         0.625333130
     0.819300175         0.809635162         0.625333130
     0.331541747         0.231815770         0.723614573
     0.831541777         0.231815770         0.723614573
     0.318285972         0.805559695         0.125254378
     0.818285942         0.805559695         0.125254378
     0.329958051         0.238380998         0.223088712
     0.829958081         0.238380998         0.223088712
     0.420931190         0.730576932         0.527192593
     0.920931220         0.730576932         0.527192593
     0.431992382         0.307724744         0.625056088
     0.931992412         0.307724744         0.625056088
     0.418728471         0.730628729         0.026323307
     0.918728471         0.730628729         0.026323307
     0.430486679         0.308368564         0.123491101
     0.930486679         0.308368564         0.123491101
     0.004777646         0.149515122         0.620599687
     0.504777670         0.149515122         0.620599687
     0.020966338         0.449922502         0.615695298
     0.520966351         0.449922502         0.615695298
     0.050311703         0.307547510         0.846291900
     0.550311685         0.307547510         0.846291900
     0.001589038         0.149630934         0.118387975
     0.501589060         0.149630934         0.118387975
     0.018588953         0.451236248         0.113913983
     0.518588960         0.451236248         0.113913983
     0.086234994         0.579151690         0.770208240
     0.586234987         0.579151690         0.770208240
     0.046759970         0.309343189         0.346780896
     0.546759963         0.309343189         0.346780896
     0.063834079         0.709400356         0.543669164
     0.563834071         0.709400356         0.543669164
     0.097166777         0.841739118         0.817816496
     0.597166777         0.841739118         0.817816496
     0.087548256         0.575865746         0.271658003
     0.587548256         0.575865746         0.271658003
     0.103137113         0.332024783         0.519852638
     0.603137136         0.332024783         0.519852638
     0.062669329         0.706357300         0.041008797
     0.562669337         0.706357300         0.041008797
     0.153133437         0.341709554         0.931926370
     0.653133452         0.341709554         0.931926370
     0.100419834         0.840592265         0.318089038
     0.600419819         0.840592265         0.318089038
     0.099030279         0.327397764         0.019592660
     0.599030256         0.327397764         0.019592660
     0.151340142         0.826505601         0.730100989
     0.651340127         0.826505601         0.730100989
     0.163896099         0.079255641         0.979773879
     0.663896084         0.079255641         0.979773879
     0.154979557         0.342607439         0.431603789
     0.654979587         0.342607439         0.431603789
     0.188468471         0.208522990         0.707744241
     0.688468456         0.208522990         0.707744241
     0.150024816         0.821061730         0.230007663
     0.650024831         0.821061730         0.230007663
     0.200219229         0.807430446         0.903354943
     0.700219214         0.807430446         0.903354943
     0.157611653         0.081507653         0.479722410
     0.657611668         0.081507653         0.479722410
     0.186150491         0.221324816         0.207009792
     0.686150491         0.221324816         0.207009792
     0.198975340         0.804357529         0.404513896
     0.698975325         0.804357529         0.404513896
     0.230370805         0.951825738         0.634587944
     0.730370820         0.951825738         0.634587944
     0.254351795         0.149118692         0.870427907
     0.754351795         0.149118692         0.870427907
     0.246774837         0.651135921         0.630055308
     0.746774852         0.651135921         0.630055308
     0.230262876         0.948688745         0.134649426
     0.730262876         0.948688745         0.134649426
     0.270742625         0.449713439         0.865230918
     0.770742655         0.449713439         0.865230918
     0.252055824         0.150034964         0.368579984
     0.752055824         0.150034964         0.368579984
     0.242832229         0.648179173         0.128547698
     0.742832243         0.648179173         0.128547698
     0.268738568         0.451521963         0.364436269
     0.768738568         0.451521963         0.364436269
     0.300163478         0.307403594         0.596822083
     0.800163507         0.307403594         0.596822083
     0.312159240         0.708105087         0.792681277
     0.812159240         0.708105087         0.792681277
     0.338472962         0.577380180         0.521643281
     0.838472962         0.577380180         0.521643281
     0.297073662         0.309590012         0.096226141
     0.797073662         0.309590012         0.096226141
     0.349900633         0.326005071         0.770216405
     0.849900603         0.326005071         0.770216405
     0.314227760         0.707328141         0.292028785
     0.814227760         0.707328141         0.292028785
     0.348454922         0.842646062         0.568117678
     0.848454952         0.842646062         0.568117678
     0.335415542         0.577749312         0.020296454
     0.835415542         0.577749312         0.020296454
     0.352178156         0.333564252         0.269183457
     0.852178156         0.333564252         0.269183457
     0.399112821         0.824674308         0.979782820
     0.899112821         0.824674308         0.979782820
     0.403416157         0.341860294         0.682388067
     0.903416157         0.341860294         0.682388067
     0.349246264         0.840033233         0.067836985
     0.849246264         0.840033233         0.067836985
     0.438277274         0.208208501         0.957083762
     0.938277245         0.208208501         0.957083762
     0.402039021         0.823116720         0.480318278
     0.902039051         0.823116720         0.480318278
     0.414376557         0.079033934         0.729771793
     0.914376557         0.079033934         0.729771793
     0.404865533         0.342457473         0.181114390
     0.904865503         0.342457473         0.181114390
     0.436136872         0.221649289         0.457821339
     0.936136842         0.221649289         0.457821339
     0.450891078         0.809369445         0.653785527
     0.950891078         0.809369445         0.653785527
     0.407320231         0.081850529         0.229714513
     0.907320261         0.081850529         0.229714513
     0.479626864         0.949531972         0.884628654
     0.979626894         0.949531972         0.884628654
     0.495848238         0.649087608         0.879394054
     0.995848238         0.649087608         0.879394054
     0.448525012         0.802306294         0.154060319
     0.948525012         0.802306294         0.154060319
     0.480890602         0.951007485         0.384520710
     0.980890632         0.951007485         0.384520710
     0.493559241         0.650114000         0.379214406
     0.993559241         0.650114000         0.379214406
