Ca V  Fe P  O  F 
1.0
       10.8575067520         0.0000000000         0.0000000000
       -2.4812046091        10.6367267469         0.0000000000
       -3.9309346637        -5.1964740892        13.2090256250
   Ca    V   Fe    P    O    F
    7    8    8   16   64   16
Direct
     0.335706323         0.171246484         0.115281440
     0.335706323         0.171246484         0.615281463
     0.335706323         0.671246469         0.115281440
     0.335706323         0.671246469         0.615281463
     0.835706353         0.171246484         0.615281463
     0.835706353         0.671246469         0.115281440
     0.835706353         0.671246469         0.615281463
     0.999638796         0.995246470         0.493565202
     0.999638796         0.995246470         0.993565202
     0.999638796         0.495246470         0.493565202
     0.999638796         0.495246470         0.993565202
     0.499638796         0.995246470         0.493565202
     0.499638796         0.995246470         0.993565202
     0.499638796         0.495246470         0.493565202
     0.499638796         0.495246470         0.993565202
     0.008764434         0.507868826         0.256032377
     0.008764434         0.507868826         0.756032348
     0.008764434         0.007868826         0.256032377
     0.008764434         0.007868826         0.756032348
     0.508764446         0.507868826         0.256032377
     0.508764446         0.507868826         0.756032348
     0.508764446         0.007868826         0.256032377
     0.508764446         0.007868826         0.756032348
     0.340448409         0.160889551         0.375195861
     0.340448409         0.160889551         0.875195861
     0.340448409         0.660889566         0.375195861
     0.340448409         0.660889566         0.875195861
     0.840448380         0.160889551         0.375195861
     0.840448380         0.160889551         0.875195861
     0.840448380         0.660889566         0.375195861
     0.840448380         0.660889566         0.875195861
     0.160811588         0.344959944         0.121129252
     0.160811588         0.344959944         0.621129274
     0.160811588         0.844959974         0.121129252
     0.160811588         0.844959974         0.621129274
     0.660811603         0.344959944         0.121129252
     0.660811603         0.344959944         0.621129274
     0.660811603         0.844959974         0.121129252
     0.660811603         0.844959974         0.621129274
     0.193324402         0.122171618         0.304257095
     0.193324402         0.122171618         0.804257095
     0.193324402         0.622171640         0.304257095
     0.193324402         0.622171640         0.804257095
     0.693324387         0.122171618         0.304257095
     0.693324387         0.122171618         0.804257095
     0.693324387         0.622171640         0.304257095
     0.693324387         0.622171640         0.804257095
     0.428015232         0.146968707         0.306891531
     0.428015232         0.146968707         0.806891561
     0.428015232         0.646968722         0.306891531
     0.428015232         0.646968722         0.806891561
     0.928015232         0.146968707         0.306891531
     0.928015232         0.146968707         0.806891561
     0.928015232         0.646968722         0.306891531
     0.928015232         0.646968722         0.806891561
     0.383460790         0.306704462         0.451297611
     0.383460790         0.306704462         0.951297641
     0.383460790         0.806704462         0.451297611
     0.383460790         0.806704462         0.951297641
     0.883460760         0.306704462         0.451297611
     0.883460760         0.306704462         0.951297641
     0.883460760         0.806704462         0.451297611
     0.883460760         0.806704462         0.951297641
     0.163249984         0.452367663         0.069827370
     0.163249984         0.452367663         0.569827378
     0.163249984         0.952367663         0.069827370
     0.163249984         0.952367663         0.569827378
     0.663249969         0.452367663         0.069827370
     0.663249969         0.452367663         0.569827378
     0.663249969         0.952367663         0.069827370
     0.663249969         0.952367663         0.569827378
     0.352577180         0.070251256         0.440969139
     0.352577180         0.070251256         0.940969110
     0.352577180         0.570251226         0.440969139
     0.352577180         0.570251226         0.940969110
     0.852577209         0.070251256         0.440969139
     0.852577209         0.070251256         0.940969110
     0.852577209         0.570251226         0.440969139
     0.852577209         0.570251226         0.940969110
     0.127466455         0.198171571         0.045610383
     0.127466455         0.198171571         0.545610368
     0.127466455         0.698171556         0.045610383
     0.127466455         0.698171556         0.545610368
     0.627466440         0.198171571         0.045610383
     0.627466440         0.198171571         0.545610368
     0.627466440         0.698171556         0.045610383
     0.627466440         0.698171556         0.545610368
     0.053998481         0.345047086         0.173625991
     0.053998481         0.345047086         0.673626006
     0.053998481         0.845047116         0.173625991
     0.053998481         0.845047116         0.673626006
     0.553998470         0.345047086         0.173625991
     0.553998470         0.345047086         0.673626006
     0.553998470         0.845047116         0.173625991
     0.553998470         0.845047116         0.673626006
     0.307256073         0.375019908         0.193935320
     0.307256073         0.375019908         0.693935335
     0.307256073         0.875019908         0.193935320
     0.307256073         0.875019908         0.693935335
     0.807256103         0.375019908         0.193935320
     0.807256103         0.375019908         0.693935335
     0.807256103         0.875019908         0.193935320
     0.807256103         0.875019908         0.693935335
     0.468742520         0.045449473         0.127022475
     0.468742520         0.045449473         0.627022505
     0.468742520         0.545449495         0.127022475
     0.468742520         0.545449495         0.627022505
     0.968742490         0.045449473         0.127022475
     0.968742490         0.045449473         0.627022505
     0.968742490         0.545449495         0.127022475
     0.968742490         0.545449495         0.627022505
     0.041439872         0.449923933         0.369655997
     0.041439872         0.449923933         0.869655967
     0.041439872         0.949923933         0.369655997
     0.041439872         0.949923933         0.869655967
     0.541439891         0.449923933         0.369655997
     0.541439891         0.449923933         0.869655967
     0.541439891         0.949923933         0.369655997
     0.541439891         0.949923933         0.869655967
