Ca Cr Ge O 
1.0
       10.9912271500         0.0000000000         0.0000000000
        2.9032187414        13.7060637635         0.0000000000
        2.9032991732         1.1649166218        13.6565431682
   Ca   Cr   Ge    O
   15   16   32   96
Direct
     0.625003636         0.347175717         0.652816117
     0.125003621         0.347175717         0.152816117
     0.125003621         0.347175717         0.652816117
     0.125003621         0.847175717         0.152816117
     0.125003621         0.847175717         0.652816117
     0.625003636         0.347175717         0.152816117
     0.625003636         0.847175717         0.152816117
     0.625003636         0.847175717         0.652816117
     0.374991328         0.152825132         0.347176075
     0.374991328         0.152825132         0.847176075
     0.374991328         0.652825117         0.347176075
     0.874991298         0.152825132         0.347176075
     0.874991298         0.152825132         0.847176075
     0.874991298         0.652825117         0.347176075
     0.874991298         0.652825117         0.847176075
     0.375009626         0.452732146         0.047256660
     0.375009626         0.452732146         0.547256649
     0.375009626         0.952732146         0.047256660
     0.375009626         0.952732146         0.547256649
     0.875009656         0.452732146         0.047256660
     0.875009656         0.452732146         0.547256649
     0.875009656         0.952732146         0.047256660
     0.875009656         0.952732146         0.547256649
     0.125005543         0.047266986         0.452730268
     0.125005543         0.047266986         0.952730298
     0.125005543         0.547266960         0.452730268
     0.125005543         0.547266960         0.952730298
     0.625005543         0.047266986         0.452730268
     0.625005543         0.047266986         0.952730298
     0.625005543         0.547266960         0.452730268
     0.625005543         0.547266960         0.952730298
     0.388570487         0.191069528         0.092860252
     0.388570487         0.191069528         0.592860222
     0.388570487         0.691069543         0.092860252
     0.388570487         0.691069543         0.592860222
     0.888570487         0.191069528         0.092860252
     0.888570487         0.191069528         0.592860222
     0.888570487         0.691069543         0.092860252
     0.888570487         0.691069543         0.592860222
     0.361421674         0.407077909         0.308930188
     0.361421674         0.407077909         0.808930159
     0.361421674         0.907077909         0.308930188
     0.361421674         0.907077909         0.808930159
     0.861421704         0.407077909         0.308930188
     0.861421704         0.407077909         0.808930159
     0.861421704         0.907077909         0.308930188
     0.861421704         0.907077909         0.808930159
     0.111487724         0.308928370         0.407153428
     0.111487724         0.308928370         0.907153428
     0.111487724         0.808928370         0.407153428
     0.111487724         0.808928370         0.907153428
     0.611487746         0.308928370         0.407153428
     0.611487746         0.308928370         0.907153428
     0.611487746         0.808928370         0.407153428
     0.611487746         0.808928370         0.907153428
     0.138543338         0.092912555         0.191071823
     0.138543338         0.092912555         0.691071808
     0.138543338         0.592912555         0.191071823
     0.138543338         0.592912555         0.691071808
     0.638543367         0.092912555         0.191071823
     0.638543367         0.092912555         0.691071808
     0.638543367         0.592912555         0.191071823
     0.638543367         0.592912555         0.691071808
     0.261316508         0.161570415         0.194047406
     0.261316508         0.161570415         0.694047391
     0.261316508         0.661570430         0.194047406
     0.261316508         0.661570430         0.694047391
     0.761316538         0.161570415         0.194047406
     0.761316538         0.161570415         0.694047391
     0.761316538         0.661570430         0.194047406
     0.761316538         0.661570430         0.694047391
     0.988626957         0.305972815         0.338396192
     0.988626957         0.305972815         0.838396192
     0.988626957         0.805972815         0.338396192
     0.988626957         0.805972815         0.838396192
     0.488626957         0.305972815         0.338396192
     0.488626957         0.305972815         0.838396192
     0.488626957         0.805972815         0.338396192
     0.488626957         0.805972815         0.838396192
     0.238726154         0.338448822         0.305944115
     0.238726154         0.338448822         0.805944085
     0.238726154         0.838448822         0.305944115
     0.238726154         0.838448822         0.805944085
     0.738726139         0.338448822         0.305944115
     0.738726139         0.338448822         0.805944085
     0.738726139         0.838448822         0.305944115
     0.738726139         0.838448822         0.805944085
     0.511313021         0.194040745         0.161569804
     0.511313021         0.194040745         0.661569834
     0.511313021         0.694040775         0.161569804
     0.511313021         0.694040775         0.661569834
     0.011313021         0.194040745         0.161569804
     0.011313021         0.194040745         0.661569834
     0.011313021         0.694040775         0.161569804
     0.011313021         0.694040775         0.661569834
     0.074372791         0.054040119         0.309402317
     0.074372791         0.054040119         0.809402347
     0.074372791         0.554040134         0.309402317
     0.074372791         0.554040134         0.809402347
     0.574372768         0.054040119         0.309402317
     0.574372768         0.054040119         0.809402347
     0.574372768         0.554040134         0.309402317
     0.574372768         0.554040134         0.809402347
     0.175619215         0.190604135         0.445955157
     0.175619215         0.190604135         0.945955157
     0.175619215         0.690604150         0.445955157
     0.175619215         0.690604150         0.945955157
     0.675619245         0.190604135         0.445955157
     0.675619245         0.190604135         0.945955157
     0.675619245         0.690604150         0.445955157
     0.675619245         0.690604150         0.945955157
     0.425620407         0.445956975         0.190631345
     0.425620407         0.445956975         0.690631330
     0.425620407         0.945956945         0.190631345
     0.425620407         0.945956945         0.690631330
     0.925620437         0.445956975         0.190631345
     0.925620437         0.445956975         0.690631330
     0.925620437         0.945956945         0.190631345
     0.925620437         0.945956945         0.690631330
     0.324391454         0.309363276         0.054053266
     0.324391454         0.309363276         0.554053247
     0.324391454         0.809363246         0.054053266
     0.324391454         0.809363246         0.554053247
     0.824391484         0.309363276         0.054053266
     0.824391484         0.309363276         0.554053247
     0.824391484         0.809363246         0.054053266
     0.824391484         0.809363246         0.554053247
     0.436001569         0.103648514         0.006468905
     0.436001569         0.103648514         0.506468892
     0.436001569         0.603648543         0.006468905
     0.436001569         0.603648543         0.506468892
     0.936001539         0.103648514         0.006468905
     0.936001539         0.103648514         0.506468892
     0.936001539         0.603648543         0.006468905
     0.936001539         0.603648543         0.506468892
     0.313977450         0.493560046         0.396373123
     0.313977450         0.493560046         0.896373153
     0.313977450         0.993560076         0.396373123
     0.313977450         0.993560076         0.896373153
     0.813977480         0.493560046         0.396373123
     0.813977480         0.493560046         0.896373153
     0.813977480         0.993560076         0.396373123
     0.813977480         0.993560076         0.896373153
     0.063977614         0.396373242         0.493550420
     0.063977614         0.396373242         0.993550420
     0.063977614         0.896373272         0.493550420
     0.063977614         0.896373272         0.993550420
     0.563977599         0.396373242         0.493550420
     0.563977599         0.396373242         0.993550420
     0.563977599         0.896373272         0.493550420
     0.563977599         0.896373272         0.993550420
     0.186024025         0.006432521         0.103613168
     0.186024025         0.006432521         0.603613138
     0.186024025         0.506432533         0.103613168
     0.186024025         0.506432533         0.603613138
     0.686024010         0.006432521         0.103613168
     0.686024010         0.006432521         0.603613138
     0.686024010         0.506432533         0.103613168
     0.686024010         0.506432533         0.603613138
