Ca Mn P O                               
   1.00000000000000     
     9.4685152645305504   -0.0763056850907140   -0.0403233152070955
     0.6505492859063660    9.4199070033244894    0.0300338710999829
    -8.5300980097409109   -7.6965147535759302   21.4267349265466009
   Ca   Mn   P    O 
    11    24    24    96
Direct
  0.7129209114382639  0.7094567139278214  0.5973023913781529
  0.4994988968870682  0.4956967596721459  0.9974015446502387
  0.3314535923434149  0.3971736727726051  0.1753801967408478
  0.3275134879741714  0.3949620143842290  0.6754810051889709
  0.7592425818716583  0.7529608675550692  0.1292847687178069
  0.0153201200499537  0.0147846822007513  0.2634931691356212
  0.9796414189389057  0.9808765672852882  0.7328882803029824
  0.2805141837750956  0.2881615193166789  0.4000321037666287
  0.2386539832443469  0.2394838691871082  0.8668134078702351
  0.6697508721064138  0.6089636397760211  0.3269463375009133
  0.6709026792837085  0.5988017943817477  0.8241206128343975
  0.4624841723992420  0.1505642106520219  0.0463006179848970
  0.4623185844814197  0.1659348786348912  0.5466404744185562
  0.0213613089595417  0.3408133347663733  0.2001298113424984
  0.0127147962456236  0.3406550169887492  0.7033958042064828
  0.0884549022084047  0.8079246317393215  0.0728247158562603
  0.0809620997934217  0.7942822060145902  0.5733596639061409
  0.8756604640658415  0.3767712621361475  0.0600483654433925
  0.8650803758499270  0.3723115392439924  0.5581964464915818
  0.6380071127607447  0.1134209062924350  0.1875018689418012
  0.6212065468397948  0.1008699966183961  0.6844153838209189
  0.4039505167143669  0.7316160693193930  0.1723159435181369
  0.4017874099340403  0.7331576707698989  0.6727351074618777
  0.5953279955116241  0.2692582780353245  0.3259355002440399
  0.5968471406946044  0.2643287216950036  0.8281359099462686
  0.3751865045382075  0.8987427071288135  0.3143371373928206
  0.3624647841146817  0.8824497488882326  0.8125636883628505
  0.1343747789522126  0.6271734713759745  0.4399014892660350
  0.1263940046220735  0.6191094211612826  0.9401430715398009
  0.9833874656914063  0.6580386587256621  0.2955644662582035
  0.9791761609581527  0.6583137583012227  0.8004687884508137
  0.9161539267879104  0.1995402101052581  0.4251400634177244
  0.9139033834129561  0.1892839943374566  0.9271799875003469
  0.5334880345894919  0.8440337028269659  0.4542472795349924
  0.5404855943437616  0.8450390166915529  0.9542283474681436
  0.2052423749854600  0.4182364305381800  0.0380301148261966
  0.1961565374073766  0.4317455988453312  0.5383306699457261
  0.8192462944791005  0.0540464399980003  0.0874868808198380
  0.8140115414746881  0.0531995929434069  0.5874888430820970
  0.2973594297897796  0.0809734195941786  0.2077560951040918
  0.2914539564641564  0.0833244509055872  0.7105774234354976
  0.4223651420939085  0.8333912279680220  0.0628895883971379
  0.4132502365580915  0.8437801081374348  0.5623843187017903
  0.0843273384725676  0.6656264003303967  0.1811924245774895
  0.0792029934796579  0.6635787178912985  0.6859209691635724
  0.6623464081089472  0.4548246375071965  0.1665590747022004
  0.6620123117811597  0.4541806073484504  0.6714111240602955
  0.3347168117130993  0.5470935057754319  0.3281581413284450
  0.3384747387097801  0.5418985911511832  0.8329867278896521
  0.9192960960770601  0.3357879439322019  0.3139607146968278
  0.9157827684939214  0.3319024798211170  0.8185452435129044
  0.5815932040615635  0.1588287948643019  0.4357370149200823
  0.5800214359283206  0.1629240623360008  0.9381141483685757
  0.7072888356154408  0.9151714871154609  0.2891547276176343
  0.7013638213796156  0.9165155837950265  0.7914291109454046
  0.1845488335509186  0.9470706003886242  0.4113544053157422
  0.1836807546170924  0.9428793080934591  0.9133935981138090
  0.7972040451991491  0.5771515347974535  0.4602068307884685
  0.7975797635041200  0.5775886378437102  0.9622607306528255
  0.0364444230068147  0.3599330410954081  0.0149439950477603
  0.0318155955731935  0.3609789170406334  0.5162131766836611
  0.6580796434894369  0.0334932693833248  0.0375428593380091
  0.6546597939624216  0.0391478218909544  0.5375094072899780
  0.4543126269486046  0.0061077613455782  0.0942965186793549
  0.4397518746393294  0.0185377462595730  0.5926197045406670
  0.3061882145890994  0.3037618058809751  0.0653748267464226
  0.3077962484970573  0.3269416226888898  0.5683981571147757
  0.2048487071204488  0.2040246656424078  0.1843128108865191
  0.1997173736556477  0.2077859476925124  0.6880276338478185
  0.2520322361916152  0.7852388679741833  0.0283879164105424
  0.2436495730027564  0.7955644511494823  0.5279867441176238
  0.0521920059731105  0.4897915976457871  0.1518325388921201
  0.0451745842944416  0.4896371003346878  0.6538961188186232
  0.2391790662764546  0.5688713593902487  0.0930579629148290
  0.2180004605293076  0.5872353400424046  0.5910171070261739
  0.5099821558693725  0.7580184446572572  0.0174334544725559
  0.5067184118171766  0.7712525425937108  0.5192155168513091
  0.0096923766444568  0.7348331520136724  0.1294231326818155
 -0.0028605409957746  0.7488132792893146  0.6397535588041333
  0.7588306826330207  0.5591179868875548  0.0176118631637637
  0.7723727278744414  0.5530978691273195  0.5163126832771959
  0.8074006840708259  0.0168499311334960  0.1449841480809536
  0.7968247751740343  0.0172788056060962  0.6445826211966755
  0.2559739739485674  0.0590817846384748  0.2613260725873952
  0.2514457945264124  0.0667985933831103  0.7660864352413753
  0.5992735897692562  0.2879058122477873  0.1456889820452090
  0.5933865876763778  0.2882633285306118  0.6490498177118456
  0.8779375376117688  0.2222033971322523  0.1089528251495927
  0.8787820082244080  0.2197103503747879  0.6103133552243560
  0.4686381203555250  0.1352218499769638  0.2308638031996722
  0.4626666569806560  0.1342779437646630  0.7326739457885258
  0.6650840319153051  0.4972538740888589  0.1100041078368904
  0.6737817704171025  0.4964219613925470  0.6172772544921353
  0.4987916739794137  0.7607050337295770  0.1143249706566958
  0.4908540281474899  0.7807191838845159  0.6169722033120035
 -0.0019049785524217  0.7421234449889235  0.2270714070094543
  0.0135666210521846  0.7377154094564908  0.7384443449642235
  0.1756028189093723  0.5253053860818261  0.2766278428820200
  0.1777494576196596  0.5131421218256775  0.7832990382351785
  0.2684461905619369  0.9261075256427895  0.1546442004433939
  0.2559782503338266  0.9278192494082665  0.6585299122200702
  0.2573333696382419  0.7008262388295127  0.2160462282125884
  0.2552767518262502  0.6938283433584522  0.7162479526418681
  0.5512894178739312  0.5508988260283545  0.1980603869573070
  0.5495712515580606  0.5516615755474118  0.7023250909574086
  0.0844614385546065  0.0596158832083003  0.4386657791573108
  0.0797419906552641  0.0498673929576305  0.9404353288038376
  0.9225207506341830  0.9468986806267818  0.0600332834623652
  0.9154920659007716  0.9393744592599336  0.5616581779716316
  0.4470172112555468  0.4498652508352516  0.2970152787342493
  0.4507899893736855  0.4462672204106997  0.8020863764841295
  0.7443094323022373  0.3005848694029553  0.2815512363295486
  0.7425263861960836  0.2983511110286420  0.7842644625662955
  0.8238314148613679  0.4824347435839722  0.2157212293941213
  0.8212622223253839  0.4756773742642593  0.7229869033034461
  0.7415711310275735  0.0709946498710189  0.3409428111894419
  0.7318749385529900  0.0716051855040526  0.8445291882196231
  0.9923946957303909  0.2624122613113106  0.2637283691442798
  1.0001872480513248  0.2553182702720376  0.7719209077712715
  0.5030509341647913  0.2163246048106734  0.3796441694188790
  0.5029555333168437  0.2397930983054687  0.8879344331632917
  0.3225171044583414  0.5038721021131544  0.3820469325913111
  0.3350027931561267  0.4991553905019020  0.8894089787053894
  0.5363919093282643  0.8630257637479302  0.2672557219992273
  0.5299612391806572  0.8632682019548631  0.7688713245790425
  0.1215675033202742  0.7803402866280930  0.3883553224358285
  0.1238575484271758  0.7746561510603297  0.8914967898341399
  0.4035775920979907  0.7129162300565551  0.3507715332059080
  0.4011514056390160  0.7088793292903283  0.8541573253526320
  0.7471750546152682  0.9307869527719319  0.2335812947690781
  0.7411920412373481  0.9369079543107035  0.7372036964783386
  0.1993964429089420  0.9850232347952081  0.3543909932960347
  0.1972438627588816  0.9804872501289207  0.8563115527854225
  0.2252920832680679  0.4491833309058013  0.4818830717507185
  0.2436555931689743  0.4384503984834296  0.9829360761030588
  0.9980096009458933  0.2537379049336416  0.3615860599047729
  0.9919414259092840  0.2624553576946381  0.8701097071247768
  0.4891239664410701  0.2324788990251958  0.4787445355734344
  0.4946876794636451  0.2372969678644353  0.9844825192640702
  0.7642996196673885  0.4284082255797551  0.4036405679479488
  0.7648714585846801  0.4256461833093483  0.9080906779697113
  0.9509622134051259  0.5101087107482164  0.3449573339218218
  0.9487805457021363  0.5077723088878484  0.8480039534149721
  0.7514310943865686  0.2086879357415118  0.4693654666409486
  0.7506575489344209  0.2102120977646027  0.9719759841212997
  0.7996036507390362  0.7917315673995944  0.3123860024794732
  0.7941540301946478  0.7936941345065104  0.8150464313435072
  0.6895431400527088  0.6915863993627684  0.4349397107197712
  0.6952345193853543  0.6901924074367586  0.9341123965727214
  0.5568891869528515  0.9830052101627421  0.4068511297496842
  0.5473099461154758  0.9907949994968523  0.9058216746134616
  0.3449112929312235  0.9639164391102250  0.4614851173025936
  0.3443428368493804  0.9617068408544974  0.9634930674728013
  0.9631695217775789  0.6410360381292440  0.4806856107054176
  0.9659234149281892  0.6374916194549455  0.9854268815211698
 
             NaN             NaN             NaN
             NaN             NaN             NaN
             NaN             NaN             NaN
             NaN             NaN             NaN
             NaN             NaN             NaN
             NaN             NaN             NaN
             NaN             NaN             NaN
             NaN             NaN             NaN
             NaN             NaN             NaN
             NaN             NaN             NaN
             NaN             NaN             NaN
             NaN             NaN             NaN
             NaN             NaN             NaN
             NaN             NaN             NaN
             NaN             NaN             NaN
             NaN             NaN             NaN
             NaN             NaN             NaN
             NaN             NaN             NaN
             NaN             NaN             NaN
             NaN             NaN             NaN
             NaN             NaN             NaN
             NaN             NaN             NaN
             NaN             NaN             NaN
             NaN             NaN             NaN
             NaN             NaN             NaN
             NaN             NaN             NaN
             NaN             NaN             NaN
             NaN             NaN             NaN
             NaN             NaN             NaN
             NaN             NaN             NaN
             NaN             NaN             NaN
             NaN             NaN             NaN
             NaN             NaN             NaN
             NaN             NaN             NaN
             NaN             NaN             NaN
             NaN             NaN             NaN
             NaN             NaN             NaN
             NaN             NaN             NaN
             NaN             NaN             NaN
             NaN             NaN             NaN
             NaN             NaN             NaN
             NaN             NaN             NaN
             NaN             NaN             NaN
             NaN             NaN             NaN
             NaN             NaN             NaN
             NaN             NaN             NaN
             NaN             NaN             NaN
             NaN             NaN             NaN
             NaN             NaN             NaN
             NaN             NaN             NaN
             NaN             NaN             NaN
             NaN             NaN             NaN
             NaN             NaN             NaN
             NaN             NaN             NaN
             NaN             NaN             NaN
             NaN             NaN             NaN
             NaN             NaN             NaN
             NaN             NaN             NaN
             NaN             NaN             NaN
             NaN             NaN             NaN
             NaN             NaN             NaN
             NaN             NaN             NaN
             NaN             NaN             NaN
             NaN             NaN             NaN
             NaN             NaN             NaN
             NaN             NaN             NaN
             NaN             NaN             NaN
             NaN             NaN             NaN
             NaN             NaN             NaN
             NaN             NaN             NaN
             NaN             NaN             NaN
             NaN             NaN             NaN
             NaN             NaN             NaN
             NaN             NaN             NaN
             NaN             NaN             NaN
             NaN             NaN             NaN
             NaN             NaN             NaN
             NaN             NaN             NaN
             NaN             NaN             NaN
             NaN             NaN             NaN
             NaN             NaN             NaN
             NaN             NaN             NaN
             NaN             NaN             NaN
             NaN             NaN             NaN
             NaN             NaN             NaN
             NaN             NaN             NaN
             NaN             NaN             NaN
             NaN             NaN             NaN
             NaN             NaN             NaN
             NaN             NaN             NaN
             NaN             NaN             NaN
             NaN             NaN             NaN
             NaN             NaN             NaN
             NaN             NaN             NaN
             NaN             NaN             NaN
             NaN             NaN             NaN
             NaN             NaN             NaN
             NaN             NaN             NaN
             NaN             NaN             NaN
             NaN             NaN             NaN
             NaN             NaN             NaN
             NaN             NaN             NaN
             NaN             NaN             NaN
             NaN             NaN             NaN
             NaN             NaN             NaN
             NaN             NaN             NaN
             NaN             NaN             NaN
             NaN             NaN             NaN
             NaN             NaN             NaN
             NaN             NaN             NaN
             NaN             NaN             NaN
             NaN             NaN             NaN
             NaN             NaN             NaN
             NaN             NaN             NaN
             NaN             NaN             NaN
             NaN             NaN             NaN
             NaN             NaN             NaN
             NaN             NaN             NaN
             NaN             NaN             NaN
             NaN             NaN             NaN
             NaN             NaN             NaN
             NaN             NaN             NaN
             NaN             NaN             NaN
             NaN             NaN             NaN
             NaN             NaN             NaN
             NaN             NaN             NaN
             NaN             NaN             NaN
             NaN             NaN             NaN
             NaN             NaN             NaN
             NaN             NaN             NaN
             NaN             NaN             NaN
             NaN             NaN             NaN
             NaN             NaN             NaN
             NaN             NaN             NaN
             NaN             NaN             NaN
             NaN             NaN             NaN
             NaN             NaN             NaN
             NaN             NaN             NaN
             NaN             NaN             NaN
             NaN             NaN             NaN
             NaN             NaN             NaN
             NaN             NaN             NaN
             NaN             NaN             NaN
             NaN             NaN             NaN
             NaN             NaN             NaN
             NaN             NaN             NaN
             NaN             NaN             NaN
             NaN             NaN             NaN
             NaN             NaN             NaN
             NaN             NaN             NaN
             NaN             NaN             NaN
             NaN             NaN             NaN
             NaN             NaN             NaN
             NaN             NaN             NaN
             NaN             NaN             NaN
