Ca Mn P O  
1
   9.4685152645305504  -0.0763056850907140  -0.0403233152070955
   0.6505492859063660   9.4199070033244894   0.0300338710999829
  -8.5300980097409109  -7.6965147535759302  21.4267349265466009
Ca Mn P O  
11  24  24  96  
Direct
  0.6848016477670580  0.6851128556439990  0.5866332360771580  
  0.4996125078430950  0.4979483947392520  0.9992250203921860  
  0.3352111251679870  0.3954703863403130  0.1772250716230810  
  0.3251649350244210  0.3981064870630610  0.6753310487052160  
  0.7598012233739180  0.7518643008581600  0.1287116829228040  
  0.0167886756231578  0.0122812076481733  0.2631044153479010  
  0.9789634999342370  0.9824888026370260  0.7328974734514810  
  0.2784390235762430  0.2834323457671310  0.3987040097506690  
  0.2389329530386520  0.2427160399372870  0.8686140400420610  
  0.6697835059227030  0.6084082701195650  0.3254500156623800  
  0.6668335118588070  0.6018894820246370  0.8224503209662430  
  0.4600736184167450  0.1511793302964080  0.0463668631708598  
  0.4625534204208500  0.1636797299479050  0.5467517593509040  
  0.0225689887733401  0.3383006823423720  0.2000023876089000  
  0.0121341111307517  0.3422323841035460  0.7028455804696609  
  0.0892381672699240  0.8024693641968530  0.0729383080644732  
  0.0818220122165275  0.7967498475338030  0.5742905026922090  
  0.8753906990181790  0.3753035369902680  0.0606254731427154  
  0.8635132731646370  0.3766386509372390  0.5592682991319020  
  0.6383584715086090  0.1123049823177350  0.1872235288419040  
  0.6225701761176040  0.1030446856397200  0.6849710130892170  
  0.4065591801398720  0.7305089337849250  0.1719539210518030  
  0.4030944589199620  0.7350584587177210  0.6730783238299390  
  0.5971659050655470  0.2682792891423330  0.3264162546841370  
  0.5949749336587420  0.2672693494634740  0.8284929425107670  
  0.3768556771344270  0.8968588835062440  0.3147476067651630  
  0.3614796631166610  0.8852031917362230  0.8127087457753051  
  0.1343343110891280  0.6281746366712770  0.4407462404955580  
  0.1257257101682010  0.6222018147182790  0.9393993628171990  
  0.9860792304508980  0.6566264514944929  0.2966495260120830  
  0.9778291895329850  0.6604128642249890  0.8002648927300779  
  0.9169892128357170  0.2031022202663270  0.4263244050724670  
  0.9123127835194370  0.1959940371985630  0.9269870639539860  
  0.5358631503928580  0.8419241981901080  0.4543768284957620  
  0.5408596194049210  0.8460905529520070  0.9534861845999120  
  0.2037364879341900  0.4213830802537970  0.0381967580019381  
  0.1974310676741170  0.4307742204435690  0.5389595194653910  
  0.8195425194529160  0.0512667073638746  0.0870279577113604  
  0.8146358001576810  0.0545868917637972  0.5877023106171640  
  0.2989652132333110  0.0796747541443695  0.2078683873778450  
  0.2920530744308330  0.0859120391034018  0.7109775886981570  
  0.4212263448469020  0.8324169127266070  0.0613617591812601  
  0.4142216793914320  0.8428579116764811  0.5625951394985660  
  0.0864291275572523  0.6646722970611300  0.1824630685534440  
  0.0817290110001705  0.6661949409582369  0.6868025524486070  
  0.6643209782696620  0.4539732359145460  0.1668119849772810  
  0.6617003172169020  0.4546411220245910  0.6707114194326170  
  0.3367557365615170  0.5447866826314570  0.3290649673842990  
  0.3364390555763300  0.5440487532446030  0.8332058448956140  
  0.9203964332525760  0.3343537978875750  0.3141404799565650  
  0.9138778964523070  0.3341168061500030  0.8174851188014640  
  0.5829385743483740  0.1586372955140760  0.4362983614419890  
  0.5800652547693310  0.1653854749090730  0.9388974505036080  
  0.7090081834471980  0.9139530420996400  0.2894638397692310  
  0.7011511404138940  0.9196937181743510  0.7918986177077399  
  0.1852581819028150  0.9487182352001760  0.4120483971132740  
  0.1818618302569820  0.9468795339020990  0.9132264082857960  
  0.7993513955580061  0.5744704689183100  0.4607425463232420  
  0.7974979134343060  0.5763375003104469  0.9619978830901980  
  0.0357932724952775  0.3612776822775240  0.0154966015961345  
  0.0331103691273942  0.3620263862441620  0.5175662010261320  
  0.6591797039487850  0.0314062322053048  0.0368105092139776  
  0.6548488001305030  0.0388728381873240  0.5376765431940600  
  0.4553310246528150  0.0045692069950018  0.0940586040594330  
  0.4420598585942720  0.0172748987525733  0.5929473430704560  
  0.3071100145085310  0.3114215625014030  0.0671877076050618  
  0.3089587663598440  0.3251932412195460  0.5684361247258271  
  0.2059843055478120  0.2026136763265190  0.1845157387360800  
  0.1999722179641890  0.2095151267462460  0.6879045793708040  
  0.2504291332252350  0.7871058375584450  0.0276073733478670  
  0.2440088539723730  0.7961508747563870  0.5287545730988800  
  0.0519012640624504  0.4893003806569960  0.1523251770655490  
  0.0460846900754527  0.4924250318912790  0.6545731780862100  
  0.2342839614292390  0.5746890434774750  0.0913467600784872  
  0.2211929194087020  0.5859387669009281  0.5918457171516510  
  0.5059437914502650  0.7577366170620961  0.0148475998304330  
  0.5042260581862890  0.7692134339416700  0.5183124742325850  
  0.0109511745967338  0.7369404380125200  0.1318151267587880  
  0.0027608314542720  0.7523491436350070  0.6409691111986140  
  0.7587049027078980  0.5613321533253330  0.0178971915728696  
  0.7715435866893710  0.5535755060777821  0.5166773808469100  
  0.8058202020422570  0.0148856932676027  0.1444166727050300  
  0.7985363440868440  0.0216286916322158  0.6453419505091500  
  0.2581062906997610  0.0586893959648452  0.2617554512216900  
  0.2515611314652430  0.0699848077580583  0.7664228917454859  
  0.6002863250904700  0.2873197557595370  0.1457856592469660  
  0.5948811069420430  0.2886139437268020  0.6490356585809880  
  0.8790522515654040  0.2193785137023830  0.1089466098363290  
  0.8792501261094460  0.2207998025775350  0.6097761790975450  
  0.4699692022839550  0.1349407544914020  0.2306655770463010  
  0.4632167553168530  0.1372408092109280  0.7332789018223130  
  0.6687662923800179  0.4960550159608520  0.1104313879043800  
  0.6738093882185590  0.4940873437022380  0.6160483261010080  
  0.4981527568749490  0.7554142320954550  0.1113822499714350  
  0.4910538560418040  0.7784283970252950  0.6164156671788100  
  0.0038250390636529  0.7412533869156530  0.2295836593736830  
  0.0162956757078481  0.7408005923216250  0.7393467575298560  
  0.1781474964832420  0.5208686268124180  0.2772960894942340  
  0.1761835495092490  0.5154376759565180  0.7832695991410260  
  0.2706265843163980  0.9247872098588120  0.1550062578844850  
  0.2580858103730390  0.9301951693867930  0.6591178538955020  
  0.2600129538635060  0.6968073581461680  0.2159037531356340  
  0.2581625452427070  0.6939287773984240  0.7170898370687480  
  0.5527571489108950  0.5507047200940840  0.1977789101941280  
  0.5485163348164450  0.5523947545799380  0.7010235658646440  
  0.0851443651788033  0.0624515358522005  0.4388324098948000  
  0.0773160552064683  0.0546157598299845  0.9395734523877020  
  0.9239118510254040  0.9436087928316070  0.0605839816599629  
  0.9155700181368970  0.9401262163955620  0.5617826866428650  
  0.4496629894225770  0.4485267078261430  0.2981349999971310  
  0.4491413948752320  0.4483405551043320  0.8026041191755801  
  0.7450294828615410  0.3029032631143080  0.2828894627823070  
  0.7399882988382070  0.3030493702800450  0.7844861231760850  
  0.8249729558841600  0.4813153074785450  0.2163697359567920  
  0.8203109953905580  0.4793566240694000  0.7226779963847770  
  0.7436939385342720  0.0697062041360916  0.3411957741422270  
  0.7303715828817010  0.0744329512831303  0.8450637792573610  
  0.9902358152778670  0.2589451619251350  0.2631297042286820  
  0.9951686059995520  0.2573236469180220  0.7699183840750260  
  0.5049343100660010  0.2161520091895850  0.3801956889325870  
  0.5032063201317230  0.2439326194227430  0.8892834222683450  
  0.3250706488218560  0.5017072751973261  0.3830701013166760  
  0.3313644347855350  0.5014277139831880  0.8893944032311050  
  0.5381921920970180  0.8615065811990990  0.2679212474803910  
  0.5300202937345860  0.8651458337286860  0.7692434599627900  
  0.1217672033746030  0.7822455906492600  0.3893061879709640  
  0.1215653673115320  0.7787965964021720  0.8911853808053180  
  0.4032405776507590  0.7113299549352600  0.3514206539303550  
  0.3995713121260460  0.7110265914805820  0.8544857629553290  
  0.7477285473895320  0.9290168882130370  0.2335312051260620  
  0.7411187988846190  0.9409138235707700  0.7379179574808140  
  0.2013061958151220  0.9856173968600490  0.3549882627310000  
  0.1968194528226800  0.9835265370486690  0.8562083990797820  
  0.2269526878328260  0.4478326404762270  0.4823917333355830  
  0.2423872896650990  0.4378852764810670  0.9826389738550160  
  0.9992795112755000  0.2524831063745740  0.3615844816532060  
  0.9904107536135470  0.2624309473699480  0.8682382043453910  
  0.4897899572736770  0.2339168927831880  0.4791404032473760  
  0.4957415216703730  0.2394275185518950  0.9856221986328820  
  0.7721852270585150  0.4229095901704510  0.4062260248258720  
  0.7674696004633580  0.4218279745844660  0.9093479711969890  
  0.9547836261350700  0.5084042467299200  0.3453864551552420  
  0.9482123849137600  0.5097570100512731  0.8475805144031830  
  0.7524004176847520  0.2080905049806260  0.4704244477267190  
  0.7509538425737650  0.2106384731380990  0.9725958417909120  
  0.8015206053734080  0.7905063241518260  0.3125016461792310  
  0.7938845467573290  0.7964594084969400  0.8151644796413340  
  0.6897106463618961  0.6832936732805170  0.4332116533832880  
  0.6936508845494700  0.6854054635036860  0.9323813114698170  
  0.5575878169820250  0.9830575451631710  0.4073949467402620  
  0.5458451037692170  0.9934407045224380  0.9059139596319500  
  0.3451336414291020  0.9654459333321220  0.4622378131898610  
  0.3419815586631360  0.9657509348742080  0.9636458868707219  
  0.9641755094385110  0.6411049150157910  0.4817377575915600  
  0.9652956550960540  0.6367603732512410  0.9846494008164830  
