Ca4 V16 O32
1.0
       15.1002054214         0.0000000000         0.0000000000
        0.0000000000         8.4263896942         0.0000000000
        0.0000000000        -0.0000112213         8.4270582199
    Ca  V    O  
    7   32   64    
Direct
     0.500004828         0.499989271         0.749956489
     0.000004806         0.499989271         0.749956489
     0.250004858         0.500014007         0.749956548
     0.125000000         0.000289703         0.249908462
     0.625000000         0.000289703         0.249908462
     0.375000000         0.999709427         0.249908239
     0.875000000         0.999709427         0.249908239
     0.375000000         0.500262022         0.045281839
     0.875000000         0.500262022         0.045281839
     0.499937952         0.295240134         0.250173092
     0.999937952         0.295240134         0.250173092
     0.249936685         0.704758763         0.250173867
     0.749936700         0.704758763         0.250173867
     0.249999449         0.999999404         0.954912782
     0.749999464         0.999999404         0.954912782
     0.000063315         0.704758763         0.250173867
     0.500063300         0.704758763         0.250173867
     0.125000000         0.499735624         0.045290641
     0.625000000         0.499735624         0.045290641
     0.000000545         0.999999404         0.954912782
     0.500000536         0.999999404         0.954912782
     0.250062048         0.295240134         0.250173092
     0.750062048         0.295240134         0.250173092
     0.375000000         0.795483112         0.749950469
     0.875000000         0.795483112         0.749950469
     0.125000000         0.795057178         0.750196278
     0.625000000         0.795057178         0.750196278
     0.375000000         0.500142395         0.454735011
     0.875000000         0.500142395         0.454735011
     0.000000455         0.999999762         0.545528769
     0.500000477         0.999999762         0.545528769
     0.125000000         0.204516187         0.749952435
     0.625000000         0.204516187         0.749952435
     0.249999538         0.999999762         0.545528769
     0.749999523         0.999999762         0.545528769
     0.375000000         0.204942837         0.750196159
     0.875000000         0.204942837         0.750196159
     0.125000000         0.499854773         0.454729825
     0.625000000         0.499854773         0.454729825
     0.249999881         0.500000119         0.401496440
     0.749999881         0.500000119         0.401496440
     0.250042588         0.151334763         0.749856412
     0.750042558         0.151334763         0.749856412
     0.375000000         0.999991298         0.598345518
     0.875000000         0.999991298         0.598345518
     0.499957412         0.151334763         0.749856412
     0.999957442         0.151334763         0.749856412
     0.125000000         0.000007180         0.598341525
     0.625000000         0.000007180         0.598341525
     0.249998540         0.500000656         0.098709479
     0.749998569         0.500000656         0.098709479
     0.125000000         0.000019960         0.901096642
     0.625000000         0.000019960         0.901096642
     0.375000000         0.651546180         0.250097811
     0.875000000         0.651546180         0.250097811
     0.000041690         0.848666668         0.749861062
     0.500041664         0.848666668         0.749861062
     0.125000000         0.348459274         0.250093043
     0.625000000         0.348459274         0.250093043
     0.375000000         0.348794073         0.250329942
     0.875000000         0.348794073         0.250329942
     0.000000125         0.500000119         0.401496440
     0.500000119         0.500000119         0.401496440
     0.000001465         0.500000656         0.098709479
     0.500001490         0.500000656         0.098709479
     0.249958307         0.848666668         0.749861062
     0.749958277         0.848666668         0.749861062
     0.125000000         0.651201010         0.250326961
     0.625000000         0.651201010         0.250326961
     0.375000000         0.999979198         0.901092589
     0.875000000         0.999979198         0.901092589
     0.375000000         0.657555282         0.592554510
     0.875000000         0.657555282         0.592554510
     0.125000000         0.342611581         0.907201231
     0.625000000         0.342611581         0.907201231
     0.375000000         0.342876881         0.907393336
     0.875000000         0.342876881         0.907393336
     0.499886245         0.157251537         0.407175153
     0.999886274         0.157251537         0.407175153
     0.125000000         0.342451900         0.592549801
     0.625000000         0.342451900         0.592549801
     0.250113666         0.157262683         0.092653118
     0.750113666         0.157262683         0.092653118
     0.000113540         0.842735887         0.092652962
     0.500113547         0.842735887         0.092652962
     0.249886453         0.842735887         0.092652962
     0.749886453         0.842735887         0.092652962
     0.125000000         0.657121241         0.907401443
     0.625000000         0.657121241         0.907401443
     0.000113940         0.842747927         0.407175988
     0.500113964         0.842747927         0.407175988
     0.375000000         0.343043238         0.592993438
     0.875000000         0.343043238         0.592993438
     0.249886066         0.842747927         0.407175988
     0.749886036         0.842747927         0.407175988
     0.250113755         0.157251537         0.407175153
     0.750113726         0.157251537         0.407175153
     0.499886334         0.157262683         0.092653118
     0.999886334         0.157262683         0.092653118
     0.375000000         0.657399476         0.907194912
     0.875000000         0.657399476         0.907194912
     0.125000000         0.656955481         0.592989445
     0.625000000         0.656955481         0.592989445
