Ca V  Fe P  O 
1.0
       14.8499546051         0.0000000000         0.0000000000
       -0.0125117168         8.2040796242         0.0000000000
        3.6964733550        -0.0852234029         9.1101353431
   Ca    V   Fe    P    O
    3    4    4   16   56
Direct
     0.486284703         0.926885664         0.769013584
     0.236283422         0.926884711         0.269027531
     0.986284733         0.926885664         0.769013584
     0.485849768         0.498890609         0.762681663
     0.985849738         0.498890609         0.762681663
     0.235807285         0.498910666         0.262739867
     0.735807300         0.498910666         0.262739867
     0.008819377         0.013751091         0.246762767
     0.508819401         0.013751091         0.246762767
     0.258813053         0.013744004         0.746736526
     0.758813024         0.013744004         0.746736526
     0.218660593         0.204131648         0.058204148
     0.718660593         0.204131648         0.058204148
     0.468670964         0.204122707         0.558200777
     0.968670964         0.204122707         0.558200777
     0.086209975         0.771762431         0.949080706
     0.586209953         0.771762431         0.949080706
     0.336219996         0.771813571         0.449067414
     0.836220026         0.771813571         0.449067414
     0.413311541         0.269521803         0.064203389
     0.913311541         0.269521803         0.064203389
     0.163365141         0.269565701         0.564198554
     0.663365126         0.269565701         0.564198554
     0.278879613         0.695840120         0.948048830
     0.778879642         0.695840120         0.948048830
     0.028958362         0.695785165         0.448059618
     0.528958380         0.695785165         0.448059618
     0.213587895         0.301683515         0.400327235
     0.713587880         0.301683515         0.400327235
     0.463595361         0.301676124         0.900312126
     0.963595390         0.301676124         0.900312126
     0.268535703         0.678563476         0.390976727
     0.768535733         0.678563476         0.390976727
     0.018583193         0.678660214         0.891029179
     0.518583179         0.678660214         0.891029179
     0.151341006         0.072712176         0.157400772
     0.651341021         0.072712176         0.157400772
     0.401357651         0.072710998         0.657404304
     0.901357651         0.072710998         0.657404304
     0.195206195         0.375904977         0.116968744
     0.695206165         0.375904977         0.116968744
     0.445206642         0.375914335         0.616983950
     0.945206642         0.375914335         0.616983950
     0.258064717         0.701542974         0.114561588
     0.758064747         0.701542974         0.114561588
     0.508049667         0.701546609         0.614651978
     0.008049667         0.701546609         0.614651978
     0.371865094         0.420688599         0.158327326
     0.871865094         0.420688599         0.158327326
     0.121857651         0.420683295         0.658326566
     0.621857643         0.420683295         0.658326566
     0.319765419         0.147959083         0.080617286
     0.819765449         0.147959083         0.080617286
     0.069694504         0.147923186         0.580623031
     0.569694519         0.147923186         0.580623031
     0.177731901         0.657073498         0.927777827
     0.677731872         0.657073498         0.927777827
     0.427673668         0.657033443         0.427750856
     0.927673697         0.657033443         0.427750856
     0.122156568         0.922412038         0.847143710
     0.622156560         0.922412038         0.847143710
     0.372196108         0.922462344         0.347091973
     0.872196078         0.922462344         0.347091973
     0.232921913         0.185704455         0.898569763
     0.732921898         0.185704455         0.898569763
     0.482929140         0.185702980         0.398538619
     0.982929111         0.185702980         0.398538619
     0.313420475         0.865895510         0.881287158
     0.813420475         0.865895510         0.881287158
     0.063434064         0.866028845         0.381238490
     0.563434064         0.866028845         0.381238490
     0.346669585         0.560419619         0.866796494
     0.846669555         0.560419619         0.866796494
     0.096722864         0.560360670         0.366749704
     0.596722841         0.560360670         0.366749704
     0.224467799         0.158073366         0.617764294
     0.724467814         0.158073366         0.617764294
     0.474472374         0.158067957         0.117769182
     0.974472404         0.158067957         0.117769182
     0.286791831         0.820409000         0.609182894
     0.786791801         0.820409000         0.609182894
     0.036815386         0.820381761         0.109087870
     0.536815405         0.820381761         0.109087870
