Ca V  Fe P  O 
 1.0000000000000000
    14.8499546051000006    0.0000000000000000    0.0000000000000000
    -0.0125117168000000    8.2040796242000003    0.0000000000000000
     3.6964733550000002   -0.0852234029000000    9.1101353430999996
 Ca  V   Fe  P   O  
   3   4   4  16  56
Selective dynamics
Cartesian
 11.5201071449781764  7.3600243000945236  4.9645369186824171   T   T   T
  4.5407023330154077  7.5785513284804109  2.3543521923848578   T   T   T
 17.4519286744633710  7.5657237748924206  7.1219835330776879   T   T   T
  9.9996199517869062  4.0842160539165313  6.9709954206983289   T   T   T
 17.4438606425558334  4.0395351580204943  6.9447936021212291   T   T   T
  4.4434974968352936  4.0661772897058777  2.4133022790332475   T   T   T
 11.8898639648571134  4.1345228691940390  2.2969376185961647   T   T   T
  1.0459652797626879  0.0987916025005527  2.2109692241189598   T   T   T
  8.5051468795161504  0.1089077790041807  2.2337039364306577   T   T   T
  6.6872588703893694  0.0317155832437925  6.8268516430328781   T   T   T
 14.0531541411242049  0.0637927609923753  6.8618385071163690   T   T   T
  3.4646986760915870  1.6944309588610924  0.5219812885972137   T   T   T
 10.9556306861012001  1.5456573931428708  0.6191198074592006   T   T   T
  8.9917914862189452  1.6230903197487843  5.1048114120875487   T   T   T
 16.4573346790035799  1.6116187363933734  5.0889517250145326   T   T   T
  4.7779392249471258  6.2214013569715343  8.6191328351886707   T   T   T
 12.1353476379858645  6.2651662464806126  8.5448621178395179   T   T   T
  6.6160936617746460  6.2843108256790901  4.0841905686498192   T   T   T
 14.0841839896799819  6.3140978780502746  3.9725395159226933   T   T   T
  6.3664301944693014  2.2570919574646080  0.6139588096576902   T   T   T
 13.7935400191954187  2.1937032547677022  0.5671155076905201   T   T   T
  4.5014705301362410  2.1328892580038952  5.1602882678326116   T   T   T
 11.9318118467249779  2.2702219362015534  5.1350400236613378   T   T   T
  7.5839147156957001  5.6538067132622212  8.6443946555845201   T   T   T
 15.0337128578142689  5.5974036447444737  8.6362153903923051   T   T   T
  2.1016817404053754  5.6987314537465377  4.1039274311012974   T   T   T
  9.4159827920166723  5.5763527750662210  4.0290798282068652   T   T   T
  4.6222339452268875  2.4320211729684904  3.6645203487118043   T   T   T
 12.1603335642217836  2.7367023402376223  3.7078663700313048   T   T   T
 10.1868821519764818  2.5888720038572419  8.2604327693215307   T   T   T
 17.6356168793669994  2.4454837231658657  8.1906458185850131   T   T   T
  5.3710500121254414  5.5542434105307068  3.5597573635316775   T   T   T
 12.8496176174386729  5.5060914088752693  3.5426058139054919   T   T   T
  3.5238762682278706  5.4752476071688685  8.1303654211753624   T   T   T
 11.0203970027111016  5.3440221287713854  8.0517219423996700   T   T   T
  2.8429398254506393  0.6126959372593634  1.4364288925591271   T   T   T
 10.3010238649870676  0.5359327921720348  1.5428597284737386   T   T   T
  8.4262664614528706  0.5436463261436363  6.0083312972805585   T   T   T
 15.7983433354200589  0.5392785990419576  6.0034893669294567   T   T   T
  3.3307543646853852  3.0955739204492034  1.0883100786153446   T   T   T
 10.8658011167449438  2.9918948333824131  1.1435250617625194   T   T   T
  8.9473317509284414  3.0397913378671140  5.7006503822971295   T   T   T
 16.3288677088282022  3.0173136379706613  5.6310939976833074   T   T   T
  4.2292804792286853  5.6882707428530859  1.0477929542854048   T   T   T
 11.7021663362777009  5.6129353661051304  1.0216982643442323   T   T   T
  9.9026759240043862  5.5622889628310270  5.5116185686007491   T   T   T
  2.4092530701766379  5.7388807578286851  5.6214444966020087   T   T   T
  6.0712606812166916  3.4571469510443480  1.5319955799964797   T   T   T
 13.4952242189528135  3.4185404343243615  1.4533148313790425   T   T   T
  4.2164813326912629  3.3745744080976143  6.0149738000194946   T   T   T
 11.6537698418316786  3.3983599441972800  6.1231786753468480   T   T   T
  5.0550846789652573  1.2558685240378569  0.7133872129602279   T   T   T
 12.5351761407386793  1.1629153688553877  0.6481172950030034   T   T   T
  3.1765210126224863  1.1351114738862988  5.3069192088899246   T   T   T
 10.6149582383476595  1.2745837649840828  5.1086798518511207   T   T   T
  6.0250339074995738  5.2215636350734291  8.4520379459520090   T   T   T
 13.4593416626248530  5.3209619520617197  8.4987170440365638   T   T   T
  7.8523881248239000  5.2448929265150248  3.9146542372891733   T   T   T
 15.3684540729007999  5.3629870345842541  3.9533791917732328   T   T   T
  4.9313582231476474  7.4459052552329101  7.6731586527987448   T   T   T
 12.3451245743987172  7.4020076476081886  7.5073941004478488   T   T   T
  6.8187077801437539  7.4951726759587949  3.1292146168661614   T   T   T
 14.3038412055277142  7.5199749079819105  3.0682879170189836   T   T   T
  6.7679701124727911  1.5076426663927538  8.1815935220740172   T   T   T
 14.1855296596322518  1.3946576412718956  8.2763489395644232   T   T   T
  8.5648835361707913  1.5435148303118909  3.6549272728494122   T   T   T
 16.0865851015139683  1.4798865672970956  3.6347617742161562   T   T   T
  7.7025622675797960  7.0882940394852643  8.1614988159205790   T   T   T
 15.2908156129722457  7.0062132074687309  8.0362973315747617   T   T   T
  2.3659784822186483  7.0757440785225869  3.4648627305213422   T   T   T
  9.6126989484621284  7.0358503379686628  3.5599973945743701   T   T   T
  8.3521229651003459  4.6202722315870473  7.8347616020404658   T   T   T
 15.7379668006670848  4.5260039775813921  7.8260713075143213   T   T   T
  2.7930203621794418  4.5637880801965327  3.3803488770315595   T   T   T
 10.1513791207228490  4.5602416470387457  3.1828297368390346   T   T   T
  5.6117246119901489  1.2296390870303895  5.6473443968771235   T   T   T
 12.9679286241031893  1.2221594612269988  5.5683095435898426   T   T   T
  7.4902991001578654  1.3679785995469276  1.0870442015798021   T   T   T
 14.9631851843513317  1.3501991132394895  1.0279609920902251   T   T   T
  6.5129336368584134  6.6734026359720158  5.5369299859888139   T   T   T
 13.7977213381981958  6.7736569461751079  5.4186048388837103   T   T   T
  0.9764560297642941  6.7160410248457012  0.9627601251881696   T   T   T
  8.2306628464007527  6.8283003962906417  0.8542642376597854   T   T   T
