Ca V  P  O 
1.0
       16.3308334351         0.0000000000         0.0000000000
       -0.0000009954         7.4752583504         0.0000000000
       -0.0000078848         3.6558248088         9.1668549592
   Ca    V    P    O
    7    8   16   56
Direct
     0.746782660         0.765415668         0.738714039
     0.253218442         0.234589145         0.261282772
     0.753218412         0.234589145         0.261282772
     0.246782675         0.765415668         0.738714039
     0.003216340         0.765409887         0.238718063
     0.503216326         0.765409887         0.238718063
     0.996785581         0.234588116         0.761280537
     0.003179752         0.752718329         0.753441632
     0.503179729         0.752718329         0.753441632
     0.246822089         0.752707601         0.253444880
     0.746822119         0.752707601         0.253444880
     0.496820897         0.247288749         0.246559039
     0.996820927         0.247288749         0.246559039
     0.253177494         0.247287244         0.746550798
     0.753177524         0.247287244         0.746550798
     0.117901921         0.152195826         0.538150251
     0.617901921         0.152195826         0.538150251
     0.132123247         0.152165830         0.038103841
     0.632123232         0.152165830         0.038103841
     0.382101685         0.847807288         0.461881816
     0.882101655         0.847807288         0.461881816
     0.375880957         0.429520398         0.959280550
     0.875880957         0.429520398         0.959280550
     0.124118276         0.570450306         0.040749479
     0.624118268         0.570450306         0.040749479
     0.374095887         0.429572612         0.459258229
     0.874095917         0.429572612         0.459258229
     0.367892116         0.847832382         0.961877882
     0.867892146         0.847832382         0.961877882
     0.125884473         0.570357144         0.540758252
     0.625884473         0.570357144         0.540758252
     0.383513272         0.813084841         0.624746859
     0.883513272         0.813084841         0.624746859
     0.116487250         0.186901987         0.375279188
     0.616487265         0.186901987         0.375279188
     0.296969861         0.910064757         0.393264204
     0.796969891         0.910064757         0.393264204
     0.054379296         0.620400727         0.617877722
     0.554379284         0.620400727         0.617877722
     0.097273648         0.353901833         0.557657003
     0.597273648         0.353901833         0.557657003
     0.380586833         0.308613151         0.122894369
     0.880586863         0.308613151         0.122894369
     0.047888748         0.032927517         0.629561305
     0.547888756         0.032927517         0.629561305
     0.041950107         0.548575640         0.120927982
     0.541950107         0.548575640         0.120927982
     0.369410187         0.308562964         0.622958899
     0.869410157         0.308562964         0.622958899
     0.130589813         0.691444874         0.377041727
     0.630589843         0.691444874         0.377041727
     0.453009635         0.910052061         0.893284261
     0.953009605         0.910052061         0.893284261
     0.297895223         0.967050612         0.870443165
     0.797895193         0.967050612         0.870443165
     0.152735263         0.353885472         0.057662804
     0.652735233         0.353885472         0.057662804
     0.202112228         0.032935154         0.129572317
     0.702112198         0.032935154         0.129572317
     0.046965376         0.089925952         0.106740691
     0.546965361         0.089925952         0.106740691
     0.458038151         0.451424301         0.879085064
     0.958038151         0.451424301         0.879085064
     0.366487592         0.813094854         0.124700703
     0.866487622         0.813094854         0.124700703
     0.402734131         0.646133244         0.442337424
     0.902734160         0.646133244         0.442337424
     0.195615932         0.620384395         0.117872447
     0.695615947         0.620384395         0.117872447
     0.203005359         0.089952111         0.606709003
     0.703005373         0.089952111         0.606709003
     0.304400235         0.379626751         0.882147312
     0.804400206         0.379626751         0.882147312
     0.347266048         0.646115541         0.942340851
     0.847266078         0.646115541         0.942340851
     0.119410336         0.691425920         0.877049148
     0.619410336         0.691425920         0.877049148
     0.291955411         0.451424569         0.379073918
     0.791955411         0.451424569         0.379073918
     0.133511379         0.186911970         0.875279009
     0.633511364         0.186911970         0.875279009
     0.445632935         0.379598886         0.382106781
     0.945632935         0.379598886         0.382106781
     0.452128261         0.967092633         0.370411694
     0.952128291         0.967092633         0.370411694
     0.208045572         0.548580766         0.620922029
     0.708045602         0.548580766         0.620922029
