Ca V  Cr P  O 
1.0
        9.9934797287         0.0000000000         0.0000000000
       -2.3008402301        10.8015368443         0.0000000000
       -2.4679968576        -2.3938351387        11.0247323982
   Ca    V   Cr    P    O
    7    4    4   16   56
Direct
     0.118789919         0.324131966         0.416127563
     0.118814364         0.824137390         0.916132748
     0.618814349         0.824137390         0.916132748
     0.373676002         0.329168320         0.930752754
     0.873676002         0.329168320         0.930752754
     0.373693705         0.829175293         0.430727631
     0.873693705         0.829175293         0.430727631
     0.109083459         0.110092089         0.616975307
     0.609083474         0.110092089         0.616975307
     0.109023370         0.610023439         0.116971225
     0.609023392         0.610023439         0.116971225
     0.391080618         0.626981437         0.637266755
     0.891080618         0.626981437         0.637266755
     0.390949935         0.126954362         0.137196526
     0.890949965         0.126954362         0.137196526
     0.190435052         0.340875566         0.152629852
     0.690435052         0.340875566         0.152629852
     0.190441132         0.840911925         0.652740359
     0.690441132         0.840911925         0.652740359
     0.113113880         0.439867765         0.672164559
     0.613113880         0.439867765         0.672164559
     0.113178380         0.939888477         0.172176108
     0.613178372         0.939888477         0.172176108
     0.393855482         0.581538260         0.305866957
     0.893855453         0.581538260         0.305866957
     0.393835723         0.081559651         0.805884361
     0.893835723         0.081559651         0.805884361
     0.307143539         0.600888133         0.910597324
     0.807143569         0.600888133         0.910597324
     0.307126939         0.100909509         0.410585672
     0.807126939         0.100909509         0.410585672
     0.019555274         0.558151186         0.260904849
     0.519555271         0.558151186         0.260904849
     0.019462481         0.058095131         0.760904908
     0.519462466         0.058095131         0.760904908
     0.081985243         0.797932923         0.125522852
     0.581985235         0.797932923         0.125522852
     0.082006052         0.297915757         0.625490963
     0.582006037         0.297915757         0.625490963
     0.090613723         0.253225803         0.205623105
     0.590613723         0.253225803         0.205623105
     0.090524137         0.753145933         0.705524266
     0.590524137         0.753145933         0.705524266
     0.113959134         0.409474164         0.064301729
     0.613959134         0.409474164         0.064301729
     0.114067025         0.909411609         0.564340055
     0.614067018         0.909411609         0.564340055
     0.195174038         0.650061786         0.962495863
     0.695174038         0.650061786         0.962495863
     0.195165440         0.150058493         0.462505430
     0.695165455         0.150058493         0.462505430
     0.314729542         0.671058834         0.245563745
     0.814729571         0.671058834         0.245563745
     0.314727306         0.171043679         0.745493650
     0.814727306         0.171043679         0.745493650
     0.278981924         0.441651791         0.279130846
     0.778981924         0.441651791         0.279130846
     0.279071242         0.941705227         0.779069185
     0.779071212         0.941705227         0.779069185
     0.225903228         0.469934046         0.805619299
     0.725903213         0.469934046         0.805619299
     0.225902557         0.969924867         0.305602819
     0.725902557         0.969924867         0.305602819
     0.190953419         0.503194630         0.585567653
     0.690953434         0.503194630         0.585567653
     0.190981001         0.003227829         0.085533828
     0.690981030         0.003227829         0.085533828
     0.292912692         0.278516740         0.097634584
     0.792912722         0.278516740         0.097634584
     0.292836398         0.778625071         0.597611487
     0.792836428         0.778625071         0.597611487
     0.387340367         0.698503137         0.853859961
     0.887340367         0.698503137         0.853859961
     0.387386173         0.198531076         0.353894264
     0.887386203         0.198531076         0.353894264
     0.400420696         0.542176247         0.996335328
     0.900420666         0.542176247         0.996335328
     0.400367796         0.042172663         0.496321261
     0.900367796         0.042172663         0.496321261
     0.425329000         0.128911823         0.942760527
     0.925328970         0.128911823         0.942760527
     0.425336838         0.628908455         0.442710042
     0.925336838         0.628908455         0.442710042
     0.485020190         0.486491352         0.689633369
     0.985020161         0.486491352         0.689633369
     0.485046059         0.986427128         0.189672515
     0.985046029         0.986427128         0.189672515
