Ca V  P  O 
1.0
       12.7212667465         0.0000000000         0.0000000000
       -0.0000014283        10.7263660431         0.0000000000
        0.0000000000         0.0000000000        12.7262611389
   Ca    V    P    O
   15   16   16   80
Direct
     0.878196359         0.034016851         0.120020896
     0.378196329         0.034016851         0.120020896
     0.145226583         0.778589785         0.167174503
     0.645226598         0.778589785         0.167174503
     0.395223945         0.278591424         0.332827181
     0.128197864         0.534014702         0.379978836
     0.628197849         0.534014702         0.379978836
     0.371801108         0.034012526         0.620021760
     0.871801138         0.034012526         0.620021760
     0.104776666         0.778591335         0.667171299
     0.604776680         0.778591335         0.667171299
     0.354775697         0.278589845         0.832826436
     0.854775667         0.278589845         0.832826436
     0.121803537         0.534014881         0.879976630
     0.621803522         0.534014881         0.879976630
     0.515201628         0.517956316         0.136769578
     0.015201628         0.517956316         0.136769578
     0.139827654         0.259604543         0.240559846
     0.639827669         0.259604543         0.240559846
     0.389824957         0.759598792         0.259453923
     0.889824986         0.759598792         0.259453923
     0.265200317         0.017953785         0.363235056
     0.765200317         0.017953785         0.363235056
     0.234801546         0.517952740         0.636766672
     0.734801531         0.517952740         0.636766672
     0.110172547         0.259599447         0.740544975
     0.610172570         0.259599447         0.740544975
     0.360172689         0.759603858         0.759443760
     0.860172689         0.759603858         0.759443760
     0.984795809         0.017957555         0.863229156
     0.484795809         0.017957555         0.863229156
     0.427552193         0.769784927         0.004695546
     0.927552223         0.769784927         0.004695546
     0.263577729         0.517898679         0.179431126
     0.763577700         0.517898679         0.179431126
     0.513579428         0.017879188         0.320604861
     0.013579428         0.017879188         0.320604861
     0.177552879         0.269783437         0.495308816
     0.677552879         0.269783437         0.495308816
     0.322437078         0.769794047         0.504695654
     0.822437048         0.769794047         0.504695654
     0.986450136         0.517875373         0.679395437
     0.486450136         0.517875373         0.679395437
     0.236444876         0.017899735         0.820568204
     0.736444890         0.017899735         0.820568204
     0.072425954         0.269793600         0.995306551
     0.572425961         0.269793600         0.995306551
     0.021549037         0.402114660         0.001016092
     0.521549046         0.402114660         0.001016092
     0.518647790         0.673102379         0.017716102
     0.018647790         0.673102379         0.017716102
     0.145309076         0.239054188         0.087723546
     0.645309091         0.239054188         0.087723546
     0.354505062         0.774783850         0.102674641
     0.854505062         0.774783850         0.102674641
     0.361850291         0.499573708         0.115221083
     0.861850262         0.499573708         0.115221083
     0.172197610         0.541174531         0.101257697
     0.672197580         0.541174531         0.101257697
     0.026970390         0.392721832         0.241827682
     0.526970387         0.392721832         0.241827682
     0.520951152         0.650997341         0.243763581
     0.020951152         0.650997341         0.243763581
     0.495940000         0.906309664         0.243252277
     0.995939970         0.906309664         0.243252277
     0.012018289         0.132818341         0.243362471
     0.512018263         0.132818341         0.243362471
     0.262019545         0.632804930         0.256627589
     0.762019515         0.632804930         0.256627589
     0.245939896         0.406309128         0.256742954
     0.745939910         0.406309128         0.256742954
     0.270953000         0.150995016         0.256236166
     0.770953000         0.150995016         0.256236166
     0.276970953         0.892724514         0.258172691
     0.776970983         0.892724514         0.258172691
     0.422202885         0.041175161         0.398729891
     0.922202885         0.041175161         0.398729891
     0.111846961         0.999577701         0.384768307
     0.611846983         0.999577701         0.384768307
     0.104490928         0.274783313         0.397300124
     0.604490936         0.274783313         0.397300124
     0.395321578         0.739049435         0.412247807
     0.895321608         0.739049435         0.412247807
     0.268657953         0.173088878         0.482282341
     0.768657923         0.173088878         0.482282341
     0.271535724         0.902142227         0.498982430
     0.771535754         0.902142227         0.498982430
     0.228468522         0.402150422         0.501021206
     0.728468537         0.402150422         0.501021206
     0.231340051         0.673089385         0.517718017
     0.731340051         0.673089385         0.517718017
     0.104687072         0.239052713         0.587740779
     0.604687095         0.239052713         0.587740779
     0.395509958         0.774785161         0.602705002
     0.895509958         0.774785161         0.602705002
     0.388135076         0.499578893         0.615223885
     0.888135076         0.499578893         0.615223885
     0.077786565         0.541170895         0.601276398
     0.577786565         0.541170895         0.601276398
     0.223029882         0.392726719         0.741826713
     0.723029852         0.392726719         0.741826713
     0.229044527         0.650991976         0.743762970
     0.729044557         0.650991976         0.743762970
     0.254057884         0.906307161         0.743257940
     0.754057884         0.906307161         0.743257940
     0.237982407         0.132808134         0.743370891
     0.737982392         0.132808134         0.743370891
     0.487983137         0.632822633         0.756642997
     0.987983108         0.632822633         0.756642997
     0.004054590         0.406318545         0.756740868
     0.504054606         0.406318545         0.756740868
     0.979046166         0.150992051         0.756237566
     0.479046166         0.150992051         0.756237566
     0.473030061         0.892722964         0.758172929
     0.973030090         0.892722964         0.758172929
     0.327794909         0.041173231         0.898738682
     0.827794909         0.041173231         0.898738682
     0.138140038         0.999572515         0.884785473
     0.638140023         0.999572515         0.884785473
     0.145501733         0.274782300         0.897319376
     0.645501733         0.274782300         0.897319376
     0.354693949         0.739056170         0.912277281
     0.854693949         0.739056170         0.912277281
     0.981358945         0.173107997         0.982285857
     0.481358945         0.173107997         0.982285857
     0.478457242         0.902128041         0.998982906
     0.978457212         0.902128041         0.998982906
