Ca V  F 
1.0
        7.6435108185         0.0000000000         0.0000000000
        0.0000000000         7.9106974602         0.0000000000
        0.0000000000         0.0000000000        11.2468595505
   Ca    V    F
    7    8   32
Direct
     0.750000000         0.880371511         0.453630328
     0.750000000         0.619628429         0.953630328
     0.750000000         0.118618965         0.991392195
     0.250000000         0.618618965         0.508607805
     0.250000000         0.119628429         0.546369672
     0.250000000         0.881381035         0.008607864
     0.250000000         0.380371511         0.046369672
     0.003312349         0.135523215         0.258690685
     0.496687621         0.135523215         0.258690685
     0.996687591         0.635523200         0.241309315
     0.503312409         0.635523200         0.241309315
     0.003312349         0.364476800         0.758690715
     0.496687621         0.364476800         0.758690715
     0.503312409         0.864476800         0.741309345
     0.996687591         0.864476800         0.741309345
     0.078176513         0.100664757         0.078744598
     0.421823472         0.100664757         0.078744598
     0.077475406         0.652221620         0.060958881
     0.422524601         0.652221620         0.060958881
     0.250000000         0.108450457         0.341575921
     0.250000000         0.671108484         0.313408703
     0.564690650         0.884113312         0.289675236
     0.935309350         0.884113312         0.289675236
     0.064690664         0.384113342         0.210324779
     0.435309350         0.384113342         0.210324779
     0.750000000         0.171108454         0.186591282
     0.750000000         0.608450472         0.158424065
     0.922524571         0.152221635         0.439041108
     0.577475369         0.152221635         0.439041108
     0.921823502         0.600664794         0.421255410
     0.578176498         0.600664794         0.421255410
     0.078176513         0.399335235         0.578744590
     0.421823472         0.399335235         0.578744590
     0.422524601         0.847778380         0.560958862
     0.077475406         0.847778380         0.560958862
     0.250000000         0.391549528         0.841575980
     0.250000000         0.828891516         0.813408732
     0.564690650         0.615886688         0.789675236
     0.935309350         0.615886688         0.789675236
     0.064690664         0.115886666         0.710324764
     0.435309350         0.115886666         0.710324764
     0.750000000         0.328891546         0.686591268
     0.750000000         0.891549528         0.658424079
     0.922524571         0.347778380         0.939041138
     0.577475369         0.347778380         0.939041138
     0.578176498         0.899335265         0.921255410
     0.921823502         0.899335265         0.921255410
