Ca Mn Bi O 
1.0
       17.4960498810         0.0000000000         0.0000000000
        0.0000000000         7.6311411858         0.0000000000
        0.0000000000         0.0258001044         8.6209082778
   Ca   Mn   Bi    O
    2   24    9   60
Direct
     0.666666687         0.352242917         0.668383718
     0.000000000         0.352242917         0.668383718
     0.166666672         0.089186326         0.846053183
     0.500000000         0.089186326         0.846053183
     0.833333313         0.089186326         0.846053183
     0.166666672         0.905922532         0.151763260
     0.500000000         0.905922532         0.151763260
     0.833333313         0.905922532         0.151763260
     0.166666672         0.591026485         0.650552571
     0.500000000         0.591026485         0.650552571
     0.833333313         0.591026485         0.650552571
     0.166666672         0.410403073         0.351288110
     0.500000000         0.410403073         0.351288110
     0.833333313         0.410403073         0.351288110
     0.247896239         0.499803811         0.997484386
     0.581229568         0.499803811         0.997484386
     0.914562881         0.499803811         0.997484386
     0.085886426         0.001487374         0.501281977
     0.419219762         0.001487374         0.501281977
     0.752553105         0.001487374         0.501281977
     0.085437089         0.499803811         0.997484386
     0.418770432         0.499803811         0.997484386
     0.752103746         0.499803811         0.997484386
     0.247446895         0.001487374         0.501281977
     0.580780208         0.001487374         0.501281977
     0.914113581         0.001487374         0.501281977
     0.000000000         0.650371075         0.337333769
     0.333333343         0.650371075         0.337333769
     0.666666687         0.650371075         0.337333769
     0.000000000         0.851972461         0.831472218
     0.333333343         0.851972461         0.831472218
     0.666666687         0.851972461         0.831472218
     0.000000000         0.155532345         0.169137120
     0.333333343         0.155532345         0.169137120
     0.666666687         0.155532345         0.169137120
     0.166666672         0.354434222         0.923348010
     0.500000000         0.354434222         0.923348010
     0.833333313         0.354434222         0.923348010
     0.166666672         0.645573437         0.071478724
     0.500000000         0.645573437         0.071478724
     0.833333313         0.645573437         0.071478724
     0.166666672         0.851290405         0.568761945
     0.500000000         0.851290405         0.568761945
     0.833333313         0.851290405         0.568761945
     0.166666672         0.147798494         0.428949296
     0.500000000         0.147798494         0.428949296
     0.833333313         0.147798494         0.428949296
     0.239914313         0.499564677         0.501180291
     0.573247671         0.499564677         0.501180291
     0.906580985         0.499564677         0.501180291
     0.093811534         0.000243545         0.000601566
     0.427144855         0.000243545         0.000601566
     0.760478199         0.000243545         0.000601566
     0.093419015         0.499564677         0.501180291
     0.426752359         0.499564677         0.501180291
     0.760085702         0.499564677         0.501180291
     0.239521801         0.000243545         0.000601566
     0.572855115         0.000243545         0.000601566
     0.906188488         0.000243545         0.000601566
     0.000000000         0.346654177         0.944325209
     0.333333343         0.346654177         0.944325209
     0.666666687         0.346654177         0.944325209
     0.000000000         0.654660642         0.055439819
     0.333333343         0.654660642         0.055439819
     0.666666687         0.654660642         0.055439819
     0.000000000         0.844667912         0.555169761
     0.333333343         0.844667912         0.555169761
     0.666666687         0.844667912         0.555169761
     0.000000000         0.154946357         0.443912446
     0.333333343         0.154946357         0.443912446
     0.666666687         0.154946357         0.443912446
     0.250870734         0.102753140         0.703628302
     0.584204078         0.102753140         0.703628302
     0.917537391         0.102753140         0.703628302
     0.250588298         0.890949368         0.297445923
     0.583921611         0.890949368         0.297445923
     0.917254984         0.890949368         0.297445923
     0.082378432         0.611566126         0.796917081
     0.415711761         0.611566126         0.796917081
     0.749045074         0.611566126         0.796917081
     0.083303809         0.390289098         0.202775881
     0.416637152         0.390289098         0.202775881
     0.749970496         0.390289098         0.202775881
     0.082745038         0.890949368         0.297445923
     0.416078359         0.890949368         0.297445923
     0.749411702         0.890949368         0.297445923
     0.082462601         0.102753140         0.703628302
     0.415795922         0.102753140         0.703628302
     0.749129295         0.102753140         0.703628302
     0.250029534         0.390289098         0.202775881
     0.583362877         0.390289098         0.202775881
     0.916696191         0.390289098         0.202775881
     0.250954896         0.611566126         0.796917081
     0.584288239         0.611566126         0.796917081
     0.917621553         0.611566126         0.796917081
