Mn V  P  O 
 1.0000000000000000
     8.1738800000000005    0.0000000000000000    0.0000000000000000
    -0.3223840000000000    9.7270819999999993    0.0000000000000000
    -0.0929150000000000   -0.8585480000000000    9.9505490000000005
 Mn  V   P   O  
   3   3  12  42
Cartesian
 -0.2958764751651626  8.6179728881955420  3.4946064800764254
  8.1275873340381608  2.4318272526271687  0.1777817179545881
 -0.2211270067846999  5.0963324076838221  6.8159696062630806
  3.9581369605823218  3.7203327384946299  3.1058865615179907
  3.7938643480439898  6.3934962901471488  9.7404963580668795
  4.0349095316759476  0.1944675075631692  6.4234657780866478
  5.9984182825506833  9.5318045896340493  1.1055063380226953
  2.0360527972558362  6.3537858554806457  2.2606422028213533
  5.4901203018035281  4.4577366106496363  0.3426471705983666
  1.1467330554663027  7.9615567566552592  6.2925884155400418
  6.0701347914990595  5.9993132608858568  4.4238145178302641
  5.3184979512080890  7.1275294499536557  6.9714651156689653
  1.3881697400533441  1.7678422218575947  2.9770389049567432
  2.1163470470977521  2.8304508626795672  5.5786571082340455
  5.5658859374034844  0.9270245994563595  3.6521654398850432
  1.2227898815240932  4.4367712593778617  9.6108034841644674
  6.1487848307197153  2.4746513326543949  7.7438147258199619
  2.1901396100617676 -0.7006413311491690  8.8918917191426203
  5.1440174720254470  8.5907343294515144  0.2211316664930738
  7.2073908987328057  8.7981010203143999  1.6800920271180071
  3.2459636781412375  7.0721154209221355  1.5554522904420460
  1.0003447343211065  5.9737189831241597  1.0925206271434571
  1.2989746823773387  7.2035530252181754  3.2308410686533811
  6.4195508985496117  7.2617671022805723  3.6638265756584345
  0.0762881489284482  8.5417449943641444  5.3875118893080032
  6.8824357373128482  4.1530134153935956  0.7817590158925185
  2.5683173529259489  8.5102991873529135  5.9261845702930209
  4.3741291123538337  3.9274263650552648  1.2769541906864514
  5.0734692567212427  8.6432514853062106  6.7246262425105519
  2.5668390868528768  5.0355515977569940  2.8650430148473318
  5.2142799174825942  5.0603464671637468  3.5400836256777826
  0.8329344455366668  8.6431122762109851  7.7251162069627135
  5.0017792407796167  6.3759559599236324  5.5872877591221224
  6.6654533919439052  1.0720021203938912  0.3518489834086206
  7.2793873237146558  5.2696337200235472  5.0011316234994379
  1.2030944665860270  6.4575165416775375  6.4548162646292901
  0.3218969320709803  2.3547930571072211  2.0716744649482433
  2.8119963872867437  2.3112905652800411  2.6125510848443567
  6.7103730403646660  6.8207162291511771  7.4106233433151596
  4.2076889547060210  6.5950843164516373  7.9117140286362986
  5.3187627419418408  2.4416871683336590  3.3990401959004242
  3.3315135835506506  3.5428096948214289  4.8742130009809044
  2.4058681981831720  7.7124125635322525  9.4943394302314950
  1.0821058721522314  2.4545658483386248  4.4091975935149295
  5.2477923174364705  0.1765216247760853  2.2677618920179032
  1.3821217924960691  3.6824187911688524  6.5486912133534778
  1.4442727100637316  0.2634196724933707  3.1334159860752058
  6.4900124796267749  3.7410657041716853  6.9857372571279557
  0.1512658608246464  5.0160982103344631  8.7063275163222897
  6.9572989613970826  0.6138279254070662  4.0894307315962273
  2.6421279222311420  4.9892408526316663  9.2468245472391715
  4.4553562996727187  0.4009344221901276  4.5963431953372842
  5.1460639629469451  5.1151199646133438 10.0455985868570714
  2.6474479259903392  1.5118637827264725  6.1821267907732453
  5.2929940241644662  1.5352323560624621  6.8613818458359477
  5.0802283214803667  2.8460923826903795  8.9100080639498334
  7.3629486516064704  1.7457241294251751  8.3151496281477790
  1.2864053252727403  2.9320136525165497  9.7669693171442571
  3.4000871112207967  0.0192690205428137  8.1844256170659300
  1.4587463290815625  0.1537945785127749  9.8613504819570537
