Mn3 V3 P12 O42
1.0
   8.1738800000000005    0.0000000000000000    0.0000000000000000
  -0.3223840000000000    9.7270819999999993    0.0000000000000000
  -0.0929150000000000   -0.8585480000000000    9.9505490000000005
Mn V P O
3 3 12 42
direct
   0.0076720000000000    0.9162520000000000    0.3500030000000000 Mn
   0.9931409999999991    0.2556239999999990    0.0235510000000000 Mn
   0.0060339999999990    0.5824579999999990    0.6822849999999990 Mn
   0.5047469999999999    0.4127349999999990    0.3144679999999990 V
   0.4959190000000000    0.7433480000000000    0.9750620000000000 V
   0.4946350000000000    0.0776319999999990    0.6402120000000000 V
   0.7807350000000000    0.9876090000000000    0.1039519999999990 P
   0.2886060000000000    0.6795059999999991    0.2343370000000000 P
   0.6820769999999990    0.4553029999999990    0.0276130000000000 P
   0.1761500000000000    0.8788020000000000    0.6418180000000000 P
   0.7821750000000000    0.6544470000000000    0.4360520000000000 P
   0.6793730000000000    0.7885179999999991    0.6958029999999999 P
   0.1751889999999990    0.2119400000000000    0.3061550000000000 P
   0.2868790000000000    0.3478509999999990    0.5659830000000000 P
   0.6784089999999990    0.1224820000000000    0.3628570000000000 P
   0.1774420000000000    0.5467930000000000    0.9756610000000000 P
   0.7812519999999999    0.3214079999999990    0.7701100000000001 P
   0.2890210000000000    0.0120830000000000    0.8984080000000000 P
   0.6863440000000000    0.8774660000000000    0.0110750000000000 O
   0.9328100000000000    0.9248800000000000    0.1608900000000000 O
   0.4390610000000000    0.7384560000000000    0.1615000000000000 O
   0.1510300000000000    0.6318330000000000    0.1187360000000000 O
   0.2038740000000000    0.7771810000000000    0.3311719999999990 O
   0.8276140000000000    0.7814070000000000    0.3619420000000000 O
   0.0385589999999990    0.9284319999999990    0.5547280000000000 O
   0.8476490000000000    0.4258300000000000    0.0803980000000000 O
   0.3470189999999990    0.9229579999999999    0.5943510000000000 O
   0.5370150000000000    0.4072230000000000    0.1115130000000000 O
   0.6708109999999990    0.9418390000000000    0.6648740000000000 O
   0.3417389999999990    0.5467210000000000    0.2952510000000000 O
   0.6804549999999990    0.5518890000000000    0.3421579999999990 O
   0.1496090000000000    0.9670240000000000    0.7855800000000001 O
   0.6531700000000000    0.6989960000000000    0.5540830000000000 O
   0.8211240000000000    0.1126480000000000    0.0267759999999990 O
   0.9319630000000000    0.5928639999999999    0.4966560000000000 O
   0.1722900000000000    0.7265100000000001    0.6632939999999991 O
   0.0384030000000000    0.2545280000000000    0.2159120000000000 O
   0.3446559999999990    0.2590890000000000    0.2543530000000000 O
   0.8440360000000000    0.7567539999999990    0.7547119999999991 O
   0.5359710000000000    0.7466320000000000    0.7836630000000000 O
   0.6620630000000000    0.2742330000000000    0.3316330000000000 O
   0.4404710000000000    0.4079830000000000    0.4998160000000000 O
   0.3330130000000000    0.8800910000000000    0.9628040000000000 O
   0.1526420000000000    0.2989150000000000    0.4493840000000000 O
   0.6523610000000000    0.0319430000000000    0.2202690000000000 O
   0.2008080000000000    0.4435320000000000    0.6640079999999990 O
   0.1741879999999990    0.0595609999999990    0.3306350000000000 O
   0.8262160000000000    0.4477390000000000    0.6963290000000000 O
   0.0388970000000000    0.5924680000000000    0.8878330000000000 O
   0.8435819999999991    0.0909239999999990    0.4199640000000000 O
   0.3482810000000000    0.5886950000000000    0.9268719999999990 O
   0.5352120000000000    0.0771470000000000    0.4490539999999990 O
   0.6707040000000000    0.6085510000000000    0.9979030000000000 O
   0.3375910000000000    0.2150429999999990    0.6300160000000000 O
   0.6894260000000000    0.2112069999999990    0.6755500000000001 O
   0.6491070000000000    0.3645250000000000    0.8842749999999990 O
   0.9310910000000000    0.2589289999999990    0.8325730000000000 O
   0.1765390000000000    0.3926300000000000    0.9969650000000000 O
   0.4412160000000000    0.0724160000000000    0.8299660000000000 O
   0.2127049999999990    0.1173810000000000    0.9955849999999991 O
