Ca Ti P  O 
1.0
       13.0728540421         0.0000000000         0.0000000000
        0.0000000000        14.8689174652         0.0000000000
        0.0000038794        -0.0000077587        14.5667686462
   Ca   Ti    P    O
   15   32   32  144
Direct
     0.374999642         0.446767300         0.779374301
     0.374999642         0.946767330         0.779374301
     0.874999642         0.446767300         0.779374301
     0.874999642         0.946767330         0.779374301
     0.374999672         0.303242087         0.279372782
     0.374999672         0.803242087         0.279372782
     0.874999642         0.303242087         0.279372782
     0.874999642         0.803242087         0.279372782
     0.125001550         0.196762189         0.720631361
     0.125001550         0.696762204         0.720631361
     0.625001550         0.196762189         0.720631361
     0.125001639         0.053232167         0.220625475
     0.125001639         0.553232193         0.220625475
     0.625001669         0.053232167         0.220625475
     0.625001669         0.553232193         0.220625475
     0.374998003         0.173931047         0.881937563
     0.374998003         0.673931062         0.881937563
     0.874997973         0.173931047         0.881937563
     0.874997973         0.673931062         0.881937563
     0.125001460         0.326071203         0.118048154
     0.125001460         0.826071203         0.118048154
     0.625001431         0.326071203         0.118048154
     0.625001431         0.826071203         0.118048154
     0.125003472         0.423936218         0.618015707
     0.125003472         0.923936248         0.618015707
     0.625003457         0.423936218         0.618015707
     0.625003457         0.923936248         0.618015707
     0.374996603         0.076055229         0.381979346
     0.374996603         0.576055229         0.381979346
     0.874996603         0.076055229         0.381979346
     0.874996603         0.576055229         0.381979346
     0.250000775         0.999997318         0.000007449
     0.250000775         0.499997318         0.000007449
     0.750000775         0.999997318         0.000007449
     0.750000775         0.499997318         0.000007449
     0.249993995         0.249999896         0.500007570
     0.249993995         0.749999881         0.500007570
     0.749993980         0.249999896         0.500007570
     0.749993980         0.749999881         0.500007570
     0.000006060         0.250000328         0.500006258
     0.000006060         0.750000358         0.500006258
     0.500006080         0.250000328         0.500006258
     0.500006080         0.750000358         0.500006258
     0.999999225         0.999996483         0.000005889
     0.999999225         0.499996483         0.000005889
     0.499999225         0.999996483         0.000005889
     0.499999225         0.499996483         0.000005889
     0.125010893         0.183099017         0.931459606
     0.125010893         0.683099031         0.931459606
     0.625010908         0.183099017         0.931459606
     0.625010908         0.683099031         0.931459606
     0.374989718         0.316930681         0.068521418
     0.374989718         0.816930652         0.068521418
     0.874989748         0.316930681         0.068521418
     0.874989748         0.816930652         0.068521418
     0.374983668         0.433100253         0.568525553
     0.374983668         0.933100224         0.568525553
     0.874983668         0.433100253         0.568525553
     0.874983668         0.933100224         0.568525553
     0.125013366         0.066926740         0.431510419
     0.125013366         0.566926718         0.431510419
     0.625013351         0.066926740         0.431510419
     0.625013351         0.566926718         0.431510419
     0.374990076         0.195687994         0.692398310
     0.374990076         0.695688009         0.692398310
     0.874990106         0.195687994         0.692398310
     0.874990106         0.695688009         0.692398310
     0.374989748         0.054317642         0.192357868
     0.374989748         0.554317653         0.192357868
     0.874989748         0.054317642         0.192357868
     0.874989748         0.554317653         0.192357868
     0.124996148         0.445665479         0.807618320
     0.124996148         0.945665479         0.807618320
     0.624996126         0.445665479         0.807618320
     0.624996126         0.945665479         0.807618320
     0.124997675         0.304333478         0.307609916
     0.124997675         0.804333448         0.307609916
     0.624997675         0.304333478         0.307609916
     0.624997675         0.804333448         0.307609916
     0.027240330         0.302826673         0.368326008
     0.027240330         0.802826643         0.368326008
     0.527240336         0.302826673         0.368326008
     0.527240336         0.802826643         0.368326008
     0.277238876         0.197168767         0.631666601
     0.277238876         0.697168767         0.631666601
     0.777238846         0.197168767         0.631666601
     0.777238846         0.697168767         0.631666601
     0.472746402         0.052839637         0.131683886
     0.472746402         0.552839637         0.131683886
     0.972746372         0.052839637         0.131683886
     0.972746372         0.552839637         0.131683886
     0.222756431         0.447166324         0.868315458
     0.222756431         0.947166324         0.868315458
     0.722756445         0.447166324         0.868315458
     0.722756445         0.947166324         0.868315458
     0.472768962         0.197167814         0.631662965
     0.472768962         0.697167814         0.631662965
     0.972768962         0.197167814         0.631662965
     0.972768962         0.697167814         0.631662965
     0.222762153         0.302826822         0.368327618
     0.222762153         0.802826822         0.368327618
     0.722762167         0.302826822         0.368327618
     0.722762167         0.802826822         0.368327618
     0.027247170         0.447166532         0.868313551
     0.027247170         0.947166562         0.868313551
     0.527247190         0.447166532         0.868313551
     0.527247190         0.947166562         0.868313551
     0.277261645         0.052838866         0.131687447
     0.277261645         0.552838862         0.131687447
     0.777261615         0.052838866         0.131687447
     0.777261615         0.552838862         0.131687447
     0.125000522         0.161403447         0.479254782
     0.125000522         0.661403418         0.479254782
     0.625000536         0.161403447         0.479254782
     0.625000536         0.661403418         0.479254782
     0.375000268         0.338581085         0.520734966
     0.375000268         0.838581085         0.520734966
     0.875000238         0.338581085         0.520734966
     0.875000238         0.838581085         0.520734966
     0.374999702         0.411399215         0.020740965
     0.374999702         0.911399245         0.020740965
     0.874999702         0.411399215         0.020740965
     0.874999702         0.911399245         0.020740965
     0.125000000         0.088578485         0.979274392
     0.125000000         0.588578463         0.979274392
     0.625000000         0.088578485         0.979274392
     0.625000000         0.588578463         0.979274392
     0.375000328         0.062412251         0.938421071
     0.375000328         0.562412262         0.938421071
     0.875000358         0.062412251         0.938421071
     0.875000358         0.562412262         0.938421071
     0.124999665         0.437582761         0.061573565
     0.124999665         0.937582731         0.061573565
     0.624999642         0.437582761         0.061573565
     0.624999642         0.937582731         0.061573565
     0.124999434         0.312413335         0.561570466
     0.124999434         0.812413335         0.561570466
     0.624999404         0.312413335         0.561570466
     0.624999404         0.812413335         0.561570466
     0.375000149         0.187587723         0.438423514
     0.375000149         0.687587738         0.438423514
     0.875000119         0.187587723         0.438423514
     0.875000119         0.687587738         0.438423514
     0.375001281         0.108807214         0.752675653
     0.375001281         0.608807206         0.752675653
     0.875001311         0.108807214         0.752675653
     0.875001311         0.608807206         0.752675653
     0.124999762         0.391196549         0.247329295
     0.124999762         0.891196549         0.247329295
     0.624999762         0.391196549         0.247329295
     0.624999762         0.891196549         0.247329295
     0.124999948         0.358829886         0.747344971
     0.124999948         0.858829856         0.747344971
     0.624999940         0.358829886         0.747344971
     0.624999940         0.858829856         0.747344971
     0.375001013         0.141183421         0.252651781
     0.375001013         0.641183436         0.252651781
     0.875001013         0.141183421         0.252651781
     0.875001013         0.641183436         0.252651781
     0.218693286         0.060654968         0.366747350
     0.218693286         0.560654998         0.366747350
     0.718693256         0.060654968         0.366747350
     0.718693256         0.560654998         0.366747350
     0.468694180         0.439348787         0.633254290
     0.468694180         0.939348817         0.633254290
     0.968694210         0.439348787         0.633254290
     0.968694210         0.939348817         0.633254290
     0.281298071         0.310644686         0.133232772
     0.281298071         0.810644686         0.133232772
     0.781298041         0.310644686         0.133232772
     0.781298041         0.810644686         0.133232772
     0.031268202         0.189351842         0.866759896
     0.031268202         0.689351857         0.866759896
     0.531268179         0.189351842         0.866759896
     0.531268179         0.689351857         0.866759896
     0.281320214         0.439345688         0.633245945
     0.281320214         0.939345717         0.633245945
     0.781320214         0.439345688         0.633245945
     0.781320214         0.939345717         0.633245945
     0.031295851         0.060652867         0.366739094
     0.031295851         0.560652852         0.366739094
     0.531295836         0.060652867         0.366739094
     0.531295836         0.560652852         0.366739094
     0.218722805         0.189350575         0.866766214
     0.218722805         0.689350605         0.866766214
     0.718722820         0.189350575         0.866766214
     0.718722820         0.689350605         0.866766214
     0.468710512         0.310643196         0.133238509
     0.468710512         0.810643196         0.133238509
     0.968710542         0.310643196         0.133238509
     0.968710542         0.810643196         0.133238509
     0.375000477         0.245693892         0.994089246
     0.375000477         0.745693922         0.994089246
     0.875000477         0.245693892         0.994089246
     0.875000477         0.745693922         0.994089246
     0.124999411         0.023664452         0.736640573
     0.124999411         0.523664474         0.736640573
     0.624999404         0.023664452         0.736640573
     0.624999404         0.523664474         0.736640573
     0.124999829         0.226328284         0.236637905
     0.124999829         0.726328254         0.236637905
     0.624999821         0.226328284         0.236637905
     0.624999821         0.726328254         0.236637905
     0.375000685         0.273659885         0.763357103
     0.375000685         0.773659885         0.763357103
     0.875000715         0.273659885         0.763357103
     0.875000715         0.773659885         0.763357103
     0.374999762         0.504337311         0.494042069
     0.374999762         0.004337311         0.494042069
     0.874999762         0.504337311         0.494042069
     0.874999762         0.004337311         0.494042069
     0.124999195         0.995663464         0.505952060
     0.124999195         0.495663464         0.505952060
     0.624999166         0.995663464         0.505952060
     0.624999166         0.495663464         0.505952060
     0.124999151         0.254306912         0.005926761
     0.124999151         0.754306912         0.005926761
     0.624999166         0.254306912         0.005926761
     0.624999166         0.754306912         0.005926761
     0.375000685         0.476323664         0.263377994
     0.375000685         0.976323664         0.263377994
     0.875000715         0.476323664         0.263377994
     0.875000715         0.976323664         0.263377994
