Ca Cr P  O 
1.0
        8.3806552887         0.0000000000         0.0000000000
       -2.9715418401         7.8361068698         0.0000000000
        0.5681503360         0.8230886558         8.0751827316
   Ca   Cr    P    O
    1    2    8   24
Direct
     0.487463713         0.170061097         0.688017368
     0.843262136         0.112299472         0.272121698
     0.112277262         0.843070209         0.772064507
     0.748861134         0.448192537         0.347385019
     0.547596097         0.229783133         0.116996050
     0.794340849         0.963375449         0.688304067
     0.448188752         0.748837829         0.847300529
     0.229750782         0.547637820         0.617031097
     0.213868603         0.075798683         0.342757702
     0.075730726         0.213902444         0.842749834
     0.963343382         0.794334710         0.188313901
     0.640192389         0.395218700         0.508422256
     0.706414521         0.025405483         0.556748867
     0.125289470         0.884064972         0.291834146
     0.372453123         0.887493193         0.815547764
     0.025381271         0.706395388         0.056795552
     0.651905417         0.835881174         0.829814851
     0.099096209         0.614671469         0.690992713
     0.875280023         0.917136073         0.146229908
     0.917136908         0.875303864         0.646253049
     0.411834270         0.631617188         0.694185078
     0.395240724         0.640230894         0.008351344
     0.267841011         0.559668720         0.434222162
     0.175308496         0.347721279         0.684472442
     0.835902810         0.651883841         0.329739988
     0.614558041         0.099092841         0.190971628
     0.631653011         0.411851496         0.194174066
     0.061037134         0.301466495         0.993612170
     0.087648422         0.168016195         0.346130759
     0.559707880         0.267840713         0.934171736
     0.168021664         0.087805688         0.846134961
     0.887484968         0.372457117         0.315500855
     0.347733885         0.175195143         0.184530914
     0.301494807         0.061019927         0.493584335
     0.884056509         0.125204176         0.791820526
