Ca V  P  O 
1.0
       10.3623352051         0.0000000000         0.0000000000
        8.2017855710         6.3331433230         0.0000000000
       -0.3294594072        -0.1124019799        10.7366612023
   Ca    V    P    O
    5    6    8   32
Direct
     0.386681408         0.613320410         0.749999881
     0.948696434         0.245728478         0.982509315
     0.754278004         0.051289864         0.517496109
     0.051286701         0.754283249         0.017495561
     0.613322973         0.386678606         0.249990165
     0.684948027         0.634944975         0.750797808
     0.634937286         0.684951782         0.250783354
     0.999996185         0.499999940         0.499997526
     0.500015259         0.999997556         0.000007120
     0.365050286         0.315053463         0.749213040
     0.315048456         0.365054697         0.249213696
     0.413904250         0.743846834         0.995727658
     0.743831515         0.413916677         0.495747179
     0.217472300         0.172199503         0.740870595
     0.172235757         0.217431054         0.240842178
     0.827847421         0.782468975         0.759103417
     0.782558382         0.827780902         0.259133041
     0.256075799         0.586161971         0.504292011
     0.586151302         0.256087452         0.004282951
     0.223032758         0.808419287         0.951303065
     0.808377266         0.223088756         0.451307625
     0.638929367         0.502571285         0.624608874
     0.593284607         0.578842103         0.897467196
     0.502595484         0.638906300         0.124653585
     0.578858614         0.593238413         0.397498578
     0.335012972         0.947053969         0.995412588
     0.947071433         0.335011244         0.495413512
     0.999190450         0.303090632         0.788106620
     0.344925046         0.949767113         0.696788371
     0.303146183         0.999102592         0.288122296
     0.949686348         0.344984055         0.196776599
     0.729013443         0.781258464         0.866676986
     0.827441454         0.677818656         0.650787830
     0.781259418         0.729036331         0.366659433
     0.677779138         0.827455819         0.150759384
     0.322177500         0.172562525         0.849204540
     0.218741581         0.270943850         0.633360386
     0.172536492         0.322244823         0.349255592
     0.270956933         0.218744546         0.133345470
     0.050278369         0.655046582         0.803216755
     0.696864784         0.000885224         0.711873829
     0.655037701         0.050285961         0.303220868
     0.000857060         0.696881056         0.211886168
     0.053004049         0.664949238         0.504586339
     0.664960980         0.052958149         0.004588217
     0.421129256         0.406763792         0.602490842
     0.497398436         0.361109644         0.875372291
     0.406748325         0.421150595         0.102491952
     0.361100525         0.497401506         0.375371724
     0.191613868         0.776906431         0.548691690
     0.776925147         0.191619530         0.048694883
