Ca Mn Fe O 
1.0
       12.3942213058         0.0000000000         0.0000000000
       -0.0225426700        12.3942008055         0.0000000000
        3.0474706356         3.0530184398        13.5027818956
   Ca   Mn   Fe    O
   15   40   16   96
Direct
     0.145235464         0.517789960         0.413361877
     0.017789943         0.145235464         0.913361847
     0.017789943         0.645235479         0.913361847
     0.517789960         0.145235464         0.913361847
     0.517789960         0.645235479         0.913361847
     0.306167990         0.188702703         0.752016187
     0.306167990         0.688702703         0.752016187
     0.806167960         0.188702703         0.752016187
     0.806167960         0.688702703         0.752016187
     0.145235464         0.017789939         0.413361877
     0.645235479         0.017789939         0.413361877
     0.645235479         0.517789960         0.413361877
     0.188702717         0.306167990         0.252016187
     0.688702703         0.306167990         0.252016187
     0.688702703         0.806167960         0.252016187
     0.238788664         0.248558924         0.004691727
     0.238788664         0.748558939         0.004691727
     0.738788664         0.248558924         0.004691727
     0.738788664         0.748558939         0.004691727
     0.169687867         0.417553872         0.831492245
     0.169687867         0.917553902         0.831492245
     0.669687867         0.417553872         0.831492245
     0.669687867         0.917553902         0.831492245
     0.418619782         0.417382210         0.834673703
     0.418619782         0.917382240         0.834673703
     0.918619752         0.417382210         0.834673703
     0.918619752         0.917382240         0.834673703
     0.081183173         0.081628606         0.661473274
     0.081183173         0.581628621         0.661473274
     0.581183195         0.081628606         0.661473274
     0.581183195         0.581628621         0.661473274
     0.090221405         0.333181739         0.660935462
     0.090221405         0.833181739         0.660935462
     0.590221405         0.333181739         0.660935462
     0.590221405         0.833181739         0.660935462
     0.248558924         0.238788664         0.504691720
     0.248558924         0.738788664         0.504691720
     0.748558939         0.238788664         0.504691720
     0.748558939         0.738788664         0.504691720
     0.417382210         0.418619782         0.334673762
     0.417382210         0.918619752         0.334673762
     0.917382240         0.418619782         0.334673762
     0.917382240         0.918619752         0.334673762
     0.417553872         0.169687852         0.331492275
     0.417553872         0.669687867         0.331492275
     0.917553902         0.169687852         0.331492275
     0.917553902         0.669687867         0.331492275
     0.333181739         0.090221390         0.160935447
     0.333181739         0.590221405         0.160935447
     0.833181739         0.090221390         0.160935447
     0.833181739         0.590221405         0.160935447
     0.081628621         0.081183180         0.161473289
     0.081628621         0.581183195         0.161473289
     0.581628621         0.081183180         0.161473289
     0.581628621         0.581183195         0.161473289
     0.248824298         0.996962309         0.006531013
     0.248824298         0.496962309         0.006531013
     0.748824298         0.996962309         0.006531013
     0.748824298         0.496962309         0.006531013
     0.359480172         0.480226398         0.583605945
     0.359480172         0.980226398         0.583605945
     0.859480143         0.480226398         0.583605945
     0.859480143         0.980226398         0.583605945
     0.996962309         0.248824298         0.506531000
     0.996962309         0.748824298         0.506531000
     0.496962309         0.248824298         0.506531000
     0.496962309         0.748824298         0.506531000
     0.480226398         0.359480202         0.083605915
     0.480226398         0.859480202         0.083605915
     0.980226398         0.359480202         0.083605915
     0.980226398         0.859480202         0.083605915
     0.379522026         0.393801391         0.997747660
     0.379522026         0.893801391         0.997747660
     0.879522026         0.393801391         0.997747660
     0.879522026         0.893801391         0.997747660
     0.133309215         0.369529903         0.008691524
     0.133309215         0.869529903         0.008691524
     0.633309245         0.369529903         0.008691524
     0.633309245         0.869529903         0.008691524
     0.276676893         0.021018445         0.855170667
     0.276676893         0.521018445         0.855170667
     0.776676893         0.021018445         0.855170667
     0.776676893         0.521018445         0.855170667
     0.275561750         0.301050901         0.859814823
     0.275561750         0.801050901         0.859814823
     0.775561750         0.301050901         0.859814823
     0.775561750         0.801050901         0.859814823
     0.063748404         0.032878850         0.806854904
     0.063748404         0.532878876         0.806854904
     0.563748419         0.032878850         0.806854904
     0.563748419         0.532878876         0.806854904
     0.059785314         0.312926769         0.810579956
     0.059785314         0.812926769         0.810579956
     0.559785306         0.312926769         0.810579956
     0.559785306         0.812926769         0.810579956
     0.212106913         0.438921481         0.659223735
     0.212106913         0.938921452         0.659223735
     0.712106943         0.438921481         0.659223735
     0.712106943         0.938921452         0.659223735
     0.461242855         0.470958829         0.669543445
     0.461242855         0.970958829         0.669543445
     0.961242855         0.470958829         0.669543445
     0.961242855         0.970958829         0.669543445
     0.198372334         0.193534926         0.647188187
     0.198372334         0.693534911         0.647188187
     0.698372364         0.193534926         0.647188187
     0.698372364         0.693534911         0.647188187
     0.475087494         0.228778467         0.657630622
     0.475087494         0.728778481         0.657630622
     0.975087523         0.228778467         0.657630622
     0.975087523         0.728778481         0.657630622
     0.102456503         0.125653967         0.518337846
     0.102456503         0.625653982         0.518337846
     0.602456510         0.125653967         0.518337846
     0.602456510         0.625653982         0.518337846
     0.130394116         0.346945822         0.509851158
     0.130394116         0.846945822         0.509851158
     0.630394101         0.346945822         0.509851158
     0.630394101         0.846945822         0.509851158
     0.393801421         0.379522026         0.497747660
     0.393801421         0.879522026         0.497747660
     0.893801451         0.379522026         0.497747660
     0.893801451         0.879522026         0.497747660
     0.369529933         0.133309230         0.508691549
     0.369529933         0.633309245         0.508691549
     0.869529963         0.133309230         0.508691549
     0.869529963         0.633309245         0.508691549
     0.021018464         0.276676923         0.355170667
     0.021018464         0.776676893         0.355170667
     0.521018445         0.276676923         0.355170667
     0.521018445         0.776676893         0.355170667
     0.301050901         0.275561780         0.359814852
     0.301050901         0.775561810         0.359814852
     0.801050901         0.275561780         0.359814852
     0.801050901         0.775561810         0.359814852
     0.312926769         0.059785333         0.310579896
     0.312926769         0.559785306         0.310579896
     0.812926769         0.059785333         0.310579896
     0.812926769         0.559785306         0.310579896
     0.032878857         0.063748412         0.306854874
     0.032878857         0.563748419         0.306854874
     0.532878876         0.063748412         0.306854874
     0.532878876         0.563748419         0.306854874
     0.438921452         0.212106898         0.159223750
     0.438921452         0.712106884         0.159223750
     0.938921452         0.212106898         0.159223750
     0.938921452         0.712106884         0.159223750
     0.470958769         0.461242795         0.169543445
     0.470958769         0.961242795         0.169543445
     0.970958769         0.461242795         0.169543445
     0.970958769         0.961242795         0.169543445
     0.193534911         0.198372334         0.147188142
     0.193534911         0.698372364         0.147188142
     0.693534911         0.198372334         0.147188142
     0.693534911         0.698372364         0.147188142
     0.228778452         0.475087464         0.157630682
     0.228778452         0.975087464         0.157630682
     0.728778481         0.475087464         0.157630682
     0.728778481         0.975087464         0.157630682
     0.346945792         0.130394101         0.009851167
     0.346945792         0.630394101         0.009851167
     0.846945763         0.130394101         0.009851167
     0.846945763         0.630394101         0.009851167
     0.125653982         0.102456510         0.018337836
     0.125653982         0.602456510         0.018337836
     0.625653982         0.102456510         0.018337836
     0.625653982         0.602456510         0.018337836
