V  F  Ca
1.0
       13.6105937958         0.0000000000         0.0000000000
       -0.0000284119        11.8538551330         0.0000000000
       -0.0003154349        -0.0000974742        10.1668491310
    Ca  V    F 
    15  16   80  
Direct
     0.627547145         0.204572797         0.476929635
     0.627547145         0.204572797         0.976929665
     0.627547145         0.704572797         0.976929665
     0.372421116         0.454566866         0.273081750
     0.372421116         0.454566866         0.773081779
     0.372421116         0.954566836         0.273081750
     0.372421116         0.954566836         0.773081779
     0.872430325         0.295467108         0.226935267
     0.872430325         0.295467108         0.726935267
     0.872430325         0.795467138         0.226935267
     0.872430325         0.795467138         0.726935267
     0.127556339         0.045437865         0.023048192
     0.127556339         0.045437865         0.523048162
     0.127556339         0.545437872         0.023048192
     0.127556339         0.545437872         0.523048162
     0.154735252         0.298298270         0.264915377
     0.154735252         0.298298270         0.764915347
     0.154735252         0.798298240         0.264915377
     0.154735252         0.798298240         0.764915347
     0.345261872         0.201742277         0.514830351
     0.345261872         0.201742277         0.014830351
     0.345261872         0.701742291         0.514830351
     0.345261872         0.701742291         0.014830351
     0.654749453         0.451719105         0.234990343
     0.654749453         0.451719105         0.734990358
     0.654749453         0.951719105         0.234990343
     0.654749453         0.951719105         0.734990358
     0.845255554         0.048235327         0.985192358
     0.845255554         0.048235327         0.485192358
     0.845255554         0.548235297         0.985192358
     0.845255554         0.548235297         0.485192358
     0.030232370         0.319925845         0.174437299
     0.030232370         0.319925845         0.674437284
     0.030232370         0.819925845         0.174437299
     0.030232370         0.819925845         0.674437284
     0.111870557         0.387205303         0.411260098
     0.111870557         0.387205303         0.911260128
     0.111870557         0.887205303         0.411260098
     0.111870557         0.887205303         0.911260128
     0.115239091         0.155815452         0.339663833
     0.115239091         0.155815452         0.839663863
     0.115239091         0.655815482         0.339663833
     0.115239091         0.655815482         0.839663863
     0.208801910         0.209409058         0.106473945
     0.208801910         0.209409058         0.606473923
     0.208801910         0.709409058         0.106473945
     0.208801910         0.709409058         0.606473923
     0.207831502         0.439714640         0.185129344
     0.207831502         0.439714640         0.685129344
     0.207831502         0.939714670         0.185129344
     0.207831502         0.939714670         0.685129344
     0.292181402         0.060335536         0.435128421
     0.292181402         0.060335536         0.935128450
     0.292181402         0.560335517         0.435128421
     0.292181402         0.560335517         0.935128450
     0.291177809         0.290609658         0.356457114
     0.291177809         0.290609658         0.856457114
     0.291177809         0.790609658         0.356457114
     0.291177809         0.790609658         0.856457114
     0.384791911         0.344212860         0.089687042
     0.384791911         0.344212860         0.589687049
     0.384791911         0.844212890         0.089687042
     0.384791911         0.844212890         0.589687049
     0.388161272         0.112715274         0.161314979
     0.388161272         0.112715274         0.661314964
     0.388161272         0.612715244         0.161314979
     0.388161272         0.612715244         0.661314964
     0.469727337         0.180062711         0.424442768
     0.469727337         0.180062711         0.924442768
     0.469727337         0.680062711         0.424442768
     0.469727337         0.680062711         0.924442768
     0.530203879         0.430051774         0.325610280
     0.530203879         0.430051774         0.825610280
     0.530203879         0.930051804         0.325610280
     0.530203879         0.930051804         0.825610280
     0.611882389         0.362810045         0.088806577
     0.611882389         0.362810045         0.588806570
     0.611882389         0.862810016         0.088806577
     0.611882389         0.862810016         0.588806570
     0.615237057         0.094123617         0.160318002
     0.615237057         0.094123617         0.660318017
     0.615237057         0.594123602         0.160318002
     0.615237057         0.594123602         0.660318017
     0.708818138         0.040599119         0.393539965
     0.708818138         0.040599119         0.893539965
     0.708818138         0.540599108         0.393539965
     0.708818138         0.540599108         0.893539965
     0.707841992         0.310303509         0.314867795
     0.707841992         0.310303509         0.814867795
     0.707841992         0.810303509         0.314867795
     0.707841992         0.810303509         0.814867795
     0.792187274         0.189670488         0.064862110
     0.792187274         0.189670488         0.564862132
     0.792187274         0.689670503         0.064862110
     0.792187274         0.689670503         0.564862132
     0.791175723         0.459422052         0.143518105
     0.791175723         0.459422052         0.643518090
     0.791175723         0.959422052         0.143518105
     0.791175723         0.959422052         0.643518090
     0.884767473         0.405814737         0.410346895
     0.884767473         0.405814737         0.910346866
     0.884767473         0.905814767         0.410346895
     0.884767473         0.905814767         0.910346866
     0.888151765         0.137241229         0.338666499
     0.888151765         0.137241229         0.838666499
     0.888151765         0.637241244         0.338666499
     0.888151765         0.637241244         0.838666499
     0.969762087         0.069917448         0.075545609
     0.969762087         0.069917448         0.575545609
     0.969762087         0.569917440         0.075545609
     0.969762087         0.569917440         0.575545609
