Ca Co C  O 
1.0
       13.5099534988         0.0000000000         0.0000000000
       -0.8382875520        10.5270163632         0.0000000000
       -0.4887083037        -1.5767353496        16.2038079642
   Ca   Co    C    O
   15   16   32   96
Direct
     0.394574523         0.718616724         0.683577538
     0.146643355         0.218303472         0.183746681
     0.146643355         0.218303472         0.683746696
     0.646643341         0.218303472         0.183746681
     0.646643341         0.218303472         0.683746696
     0.394574523         0.718616724         0.183577538
     0.894574523         0.718616724         0.183577538
     0.894574523         0.718616724         0.683577538
     0.285344243         0.123701617         0.415941149
     0.285344243         0.123701617         0.915941119
     0.785344243         0.123701617         0.415941149
     0.785344243         0.123701617         0.915941119
     0.034612801         0.623507500         0.415641367
     0.034612801         0.623507500         0.915641367
     0.534612775         0.623507500         0.415641367
     0.217045426         0.464851856         0.005495495
     0.217045426         0.464851856         0.505495489
     0.717045426         0.464851856         0.005495495
     0.717045426         0.464851856         0.505495489
     0.431640536         0.339377314         0.247059315
     0.431640536         0.339377314         0.747059345
     0.931640506         0.339377314         0.247059315
     0.931640506         0.339377314         0.747059345
     0.468758225         0.965407848         0.005660423
     0.468758225         0.965407848         0.505660415
     0.968758225         0.965407848         0.005660423
     0.968758225         0.965407848         0.505660415
     0.179492906         0.838393688         0.247437984
     0.179492906         0.838393688         0.747437954
     0.679492891         0.838393688         0.247437984
     0.679492891         0.838393688         0.747437954
     0.381153136         0.164748460         0.119015917
     0.381153136         0.164748460         0.619015932
     0.881153107         0.164748460         0.119015917
     0.881153107         0.164748460         0.619015932
     0.128998250         0.664966941         0.119761154
     0.128998250         0.664966941         0.619761169
     0.628998280         0.664966941         0.119761154
     0.628998280         0.664966941         0.619761169
     0.127204046         0.358706534         0.340735197
     0.127204046         0.358706534         0.840735197
     0.627204061         0.358706534         0.340735197
     0.627204061         0.358706534         0.840735197
     0.377181441         0.858122826         0.340654463
     0.377181441         0.858122826         0.840654492
     0.877181411         0.858122826         0.340654463
     0.877181411         0.858122826         0.840654492
     0.302777201         0.467100590         0.139193684
     0.302777201         0.467100590         0.639193654
     0.802777171         0.467100590         0.139193684
     0.802777171         0.467100590         0.639193654
     0.053197365         0.968455613         0.140415236
     0.053197365         0.968455613         0.640415251
     0.553197384         0.968455613         0.140415236
     0.553197384         0.968455613         0.640415251
     0.371228099         0.371041298         0.404191285
     0.371228099         0.371041298         0.904191256
     0.871228099         0.371041298         0.404191285
     0.871228099         0.371041298         0.904191256
     0.121153906         0.871287465         0.405460656
     0.121153906         0.871287465         0.905460656
     0.621153891         0.871287465         0.405460656
     0.621153891         0.871287465         0.905460656
     0.378461421         0.104912065         0.044803739
     0.378461421         0.104912065         0.544803739
     0.878461421         0.104912065         0.044803739
     0.878461421         0.104912065         0.544803739
     0.125360340         0.604455292         0.045891516
     0.125360340         0.604455292         0.545891523
     0.625360370         0.604455292         0.045891516
     0.625360370         0.604455292         0.545891523
     0.077987134         0.389828920         0.275946826
     0.077987134         0.389828920         0.775946856
     0.577987134         0.389828920         0.275946826
     0.577987134         0.389828920         0.775946856
     0.326440483         0.887759387         0.276213318
     0.326440483         0.887759387         0.776213288
     0.826440454         0.887759387         0.276213318
     0.826440454         0.887759387         0.776213288
     0.083192363         0.045413662         0.086921468
     0.083192363         0.045413662         0.586921453
     0.583192348         0.045413662         0.086921468
     0.583192348         0.045413662         0.586921453
     0.331062615         0.545596778         0.086099468
     0.331062615         0.545596778         0.586099446
     0.831062615         0.545596778         0.086099468
     0.831062615         0.545596778         0.586099446
     0.400622278         0.484394133         0.391876042
     0.400622278         0.484394133         0.891876042
     0.900622249         0.484394133         0.391876042
     0.900622249         0.484394133         0.891876042
     0.150897130         0.984710157         0.393871486
     0.150897130         0.984710157         0.893871486
     0.650897145         0.984710157         0.393871486
     0.650897145         0.984710157         0.893871486
     0.224154934         0.390300959         0.119435482
     0.224154934         0.390300959         0.619435489
     0.724154949         0.390300959         0.119435482
     0.724154949         0.390300959         0.619435489
     0.474254489         0.892280281         0.120603807
     0.474254489         0.892280281         0.620603800
     0.974254489         0.892280281         0.120603807
     0.974254489         0.892280281         0.620603800
     0.394081831         0.272858053         0.353730828
     0.394081831         0.272858053         0.853730798
     0.894081831         0.272858053         0.353730828
     0.894081831         0.272858053         0.853730798
     0.143570736         0.773247302         0.354691267
     0.143570736         0.773247302         0.854691267
     0.643570721         0.773247302         0.354691267
     0.643570721         0.773247302         0.854691267
     0.305004001         0.166171446         0.163218811
     0.305004001         0.166171446         0.663218796
     0.805004001         0.166171446         0.163218811
     0.805004001         0.166171446         0.663218796
     0.053620122         0.667129099         0.165029764
     0.053620122         0.667129099         0.665029764
     0.553620100         0.667129099         0.165029764
     0.553620100         0.667129099         0.665029764
     0.171405420         0.255701572         0.335359246
     0.171405420         0.255701572         0.835359216
     0.671405435         0.255701572         0.335359246
     0.671405435         0.255701572         0.835359216
     0.421482682         0.755101681         0.335149050
     0.421482682         0.755101681         0.835149050
     0.921482682         0.755101681         0.335149050
     0.921482682         0.755101681         0.835149050
     0.464324057         0.227945819         0.149769217
     0.464324057         0.227945819         0.649769187
     0.964324057         0.227945819         0.149769217
     0.964324057         0.227945819         0.649769187
     0.212517142         0.728336513         0.149853975
     0.212517142         0.728336513         0.649853945
     0.712517142         0.728336513         0.149853975
     0.712517142         0.728336513         0.649853945
     0.129441872         0.438921511         0.407542229
     0.129441872         0.438921511         0.907542229
     0.629441857         0.438921511         0.407542229
     0.629441857         0.438921511         0.907542229
     0.381099135         0.939843357         0.406763971
     0.381099135         0.939843357         0.906763971
     0.881099105         0.939843357         0.406763971
     0.881099105         0.939843357         0.906763971
     0.350805700         0.473796785         0.210005969
     0.350805700         0.473796785         0.710005999
     0.850805700         0.473796785         0.210005969
     0.850805700         0.473796785         0.710005999
     0.100489631         0.975556195         0.211685807
     0.100489631         0.975556195         0.711685777
     0.600489616         0.975556195         0.211685807
     0.600489616         0.975556195         0.711685777
     0.315411091         0.341551721         0.464578897
     0.315411091         0.341551721         0.964578867
     0.815411091         0.341551721         0.464578897
     0.815411091         0.341551721         0.964578867
     0.065112978         0.841201603         0.465673715
     0.065112978         0.841201603         0.965673685
     0.565112948         0.841201603         0.465673715
     0.565112948         0.841201603         0.965673685
