Ca V  P  O 
 1.0000000000000000
    11.1296310424999998    0.0000000000000000    0.0000000000000000
     2.8994549615000000   10.7443060018000001    0.0000000000000000
    -1.6016288384999999    2.0900824976000001   13.7540809288000005
 Ca  V   P   O  
  11  12  24  84
Selective dynamics
Cartesian
  4.1489666611984779  5.0102424974339366  8.4459803087716487   T   T   T
  3.5044465618366907  6.0435968553069479 13.7994340073053330   T   T   T
  5.5050033682769124 10.6813147570194502  9.1447653801609796   T   T   T
  4.9925716776502842 11.3981477836182634 13.7282067430627031   T   T   T
  6.0714835121636952  9.9959309830260974  4.5449611183341228   T   T   T
  9.6418314923967259  5.3373538616131331  9.2034912412762218   T   T   T
  9.0571088588785500  6.0363030485766549 13.7843916819426191   T   T   T
 10.1491381303357535  4.6043442075493610  4.5515875462982596   T   T   T
 11.1057301814520351 10.6863023748562060  9.1596069445166748   T   T   T
 10.5446478286800289 11.4002341268553842 13.7598840660319262   T   T   T
 11.6149329098138399  9.9983245717924945  4.5716949409245649   T   T   T
  0.7878770604154469  0.5957842034293790  0.0046280799536217   T   T   T
  0.2812397399729155  1.2862741133535400  4.5552653725446763   T   T   T
 -0.3033468441010105  2.0118223575907193  9.1854080410064345   T   T   T
  2.2162366833880398  5.9586524480421543  0.0196231408526524   T   T   T
  1.7313353127463926  6.6195904860781880  4.5870112042502518   T   T   T
  1.1709399141568329  7.3449037055916442  9.1590913857184528   T   T   T
  6.3348067645329902  0.6071206649838171 -0.0096262426965262   T   T   T
  5.7785689732618115  1.3593072240853765  4.5895221754921156   T   T   T
  5.2844787924314502  1.9511526119014166  9.1640214564695288   T   T   T
  7.7664840560551447  5.9553930221409477 -0.0105270824337894   T   T   T
  7.1142340669322026  6.5505588768541694  4.5741483576386823   T   T   T
  6.6867201449506242  7.3274530187952305  9.1854339990727194   T   T   T
  3.6979171281144372  1.5176595855642454  1.8902182101544414   T   T   T
  3.2019273401652013  2.1501291450212405  6.4560970312426456   T   T   T
  2.6710350587560261  2.9081319113922581 11.0337811251934639   T   T   T
  5.1703581064339259  6.8397714580356928  1.8973213878496498   T   T   T
  4.5971423139335554  7.6203765282833151  6.4904166099645701   T   T   T
  4.0654741028618790  8.2670983039313999 11.0826421405374020   T   T   T
  9.3126432404209254  1.5167587566288605  1.8788217313895004   T   T   T
  8.7940234988024777  2.1896681532842437  6.4646603001280925   T   T   T
  8.1981091290139556  2.8752411611712843 11.0778996406316725   T   T   T
 10.7177963442519992  6.8729290925593132  1.9110217855931011   T   T   T
 10.1854024473762976  7.5325238700623514  6.4602256114465240   T   T   T
  9.6635633807168446  8.2471497943094398 11.0700765630145987   T   T   T
  1.8812040014069924  3.9366613298387989  2.6930427711600169   T   T   T
  1.2800479452918101  4.5559006128543418  7.2578610127168650   T   T   T
  0.8080879583412055  5.2840382498653629 11.8623355198450025   T   T   T
  3.3212899126959967  9.2536975400720607  2.6745529462108508   T   T   T
  2.8162988484510971 10.0056235568803693  7.2690738191793098   T   T   T
  2.2715119785384106 10.6727816062211165 11.8736984284418998   T   T   T
  7.4503232112285014  3.8395065892276490  2.6562548898385860   T   T   T
  6.9883905621554581  4.5754144642927876  7.2339120391341520   T   T   T
  6.3188891465682762  5.2878124835929228 11.8126416572919624   T   T   T
  8.8697432108526471  9.2776458842471161  2.6964502623101234   T   T   T
  8.3535908302015418  9.9436155633670271  7.2617884163754010   T   T   T
  7.8177085837571596 10.6571708220226711 11.8498194949614337   T   T   T
  4.1208829373155567  0.9018765271478851  3.2323504892912238   T   T   T
  3.5917769984125365  1.5295653882793077  7.8195846720053597   T   T   T
  3.1095170331118918  2.2487189629577760 12.3523284897515850   T   T   T
  5.5992486406242810  6.2442503541806875  3.2173952837757556   T   T   T
  5.0717804591769307  6.9792964228457937  7.8071026424143053   T   T   T
  4.5026901689112311  7.6050970151736692 12.3980965185590737   T   T   T
  9.7005619465614430  0.8993135183613568  3.2299940264356919   T   T   T
  9.1678297710233423  1.5863989897319055  7.8267088469452544   T   T   T
  8.6327894414349036  2.2577637158430828 12.4161142573306051   T   T   T
 11.1343389016174861  6.2431991081972695  3.2436904339699364   T   T   T
 10.6094309773206152  6.9200163531208672  7.8024825238909772   T   T   T
 10.0733835353778591  7.6261872951297711 12.4110293756001777   T   T   T
  2.5297800715046788  5.0073862477072231  3.5452935541545765   T   T   T
  1.9791109778175404  5.6120844909569580  8.1395374468130157   T   T   T
  1.4760699846651970  6.3523745944506373 12.7483262749177122   T   T   T
  4.0076781340452419 10.3252285149987166  3.5497450588935280   T   T   T
  3.4469410099796787 11.1045568923608808  8.1517723765659564   T   T   T
  2.9274016513758245 11.7703831523331832 12.7433104281538423   T   T   T
  8.0686686099953651  4.9142660046476019  3.5862990082854114   T   T   T
  7.6181470466915053  5.6233454347599201  8.1843427592108871   T   T   T
  7.0253386312508823  6.3595203736463128 12.6816073803333698   T   T   T
  9.5367991038887130 10.3456457668157302  3.5889032885457648   T   T   T
  9.0506698919780035 10.9940479928170696  8.1495955574327752   T   T   T
  8.5045890136771565 11.7252750746955723 12.7255248386097435   T   T   T
  0.8006794181477769  3.1101417179457198  3.4231417598798535   T   T   T
  0.1687411560582266  3.8175590326260926  8.0139266690604902   T   T   T
 -0.2945582556717360  4.5086243647977398 12.5956246783244410   T   T   T
  2.2288413094370658  8.4836146174820666  3.4260828088118762   T   T   T
  1.7354518133980328  9.2033245326756248  8.0016814065710964   T   T   T
  1.1815448937657327  9.8906691047788371 12.6146628956771760   T   T   T
  6.5192525357374578  2.8609073923516797  3.3057127284826491   T   T   T
  5.9861844629383425  3.6744730343996808  7.9722716416667003   T   T   T
  5.2673472899183311  4.5033659851119161 12.6012785690782980   T   T   T
  7.7834834536448199  8.4760710296983000  3.4279185798472902   T   T   T
  7.2775842042652439  9.1513902246019789  8.0116530902329224   T   T   T
  6.7404279156612654  9.8720465720620556 12.6013860440442382   T   T   T
  1.3403692590999934  4.4798765087240229  1.3450967091252632   T   T   T
  0.8055613468130128  5.1275232613708273  5.9178904635664793   T   T   T
  0.3249761890938371  5.8535658559689576 10.5224396107654989   T   T   T
  2.8156365872735249  9.8417990470037768  1.3468647065410688   T   T   T
  2.3207396893995562 10.5305714369906678  5.9141549548844710   T   T   T
  1.7818982798318868 11.2186763664494649 10.5243509583978359   T   T   T
  6.9426247955846661  4.4563413277671495  1.3435558345267222   T   T   T
  6.4150639283415023  5.1840716277963823  5.9760354354074074   T   T   T
  5.8226130646546155  5.8114005907363380 10.4628283754900959   T   T   T
  8.3898497939657926  9.8398744635610704  1.3519182194234010   T   T   T
  7.8524927049987738 10.5309607343210558  5.9368263349042589   T   T   T
  7.3144485212534951 11.2119928876517374 10.5125845221973684   T   T   T
  3.1030213613311917  2.9715271896596511  2.2115726196800325   T   T   T
  2.5296474705974847  3.5829648497302662  6.9249048304191199   T   T   T
  2.0591208537394285  4.3308348452660903 11.5040483759675176   T   T   T
  4.5686094135252207  8.3214325133904374  2.2684395262563801   T   T   T
  4.1547779384991781  9.1365844112848613  6.9571553682461875   T   T   T
  3.5780221834230361  9.7719695454361641 11.5528678902688924   T   T   T
  8.8224297741277411  3.0370166799849367  2.1794953998664401   T   T   T
  8.2821122006034003  3.6987265319084051  6.7790912077359486   T   T   T
  7.6009203882554868  4.3289852256095722 11.4506001024172122   T   T   T
 10.1500961560303811  8.3459855376303320  2.3158415577057045   T   T   T
  9.6163680708706103  9.0066131275418755  6.8450744388852600   T   T   T
  9.0864182556713260  9.7174425806328006 11.4555646181954671   T   T   T
  2.6776174447590018  0.6321634401652457  1.1514107338406083   T   T   T
  2.1564980271573329  1.2962065075255773  5.7159107339658641   T   T   T
  1.6183571074409577  2.0635825425420999 10.3004489672593902   T   T   T
  4.1295207536534280  6.0206982656792141  1.1230378821472493   T   T   T
  3.4229569199236711  6.9034907096469489  5.8813327363669972   T   T   T
  2.9424946421720035  7.5537022189226279 10.3708723996754841   T   T   T
  8.2573394858644704  0.6829428455412440  1.1438055133488576   T   T   T
  7.7384947856643498  1.3555809416948703  5.7344380570242528   T   T   T
  7.1826615578658046  2.0008930358408588 10.3369314196834985   T   T   T
  9.6717042489261900  6.0415954049908187  1.1620216884246419   T   T   T
  9.1310357642349143  6.6972584458465585  5.7215695750980702   T   T   T
  8.6227330125542316  7.4035350125780948 10.3272602718532713   T   T   T
  4.9027591206838625  1.8648224873794852  0.9915205820718921   T   T   T
  4.3989757271108365  2.5663586458269956  5.6316964120591777   T   T   T
  3.8520217921237752  3.3096582368205123 10.1282778515470415   T   T   T
  6.3604652107101858  7.2497370677171666  0.9849270667366667   T   T   T
  5.7835290237315373  7.9335082829047652  5.5511842844912236   T   T   T
  5.2771747653748990  8.6296364151216327 10.1942759429392318   T   T   T
 10.5413648867241765  1.8418441627790354  0.9987717081301053   T   T   T
 10.0218626579118002  2.5258824985606090  5.5935481298947431   T   T   T
  9.4120492054323019  3.2625687710038278 10.2058984322201791   T   T   T
 11.9232079256208028  7.2552176670705526  1.0279405113980264   T   T   T
 11.3954634893067812  7.9086190954429538  5.5768694275605801   T   T   T
 10.8698470903813575  8.6261205879492611 10.1873733200242782   T   T   T
