Ca Mn V  P  O 
1.0
       14.4780883789         0.0000000000         0.0000000000
        0.4950513162        16.6143169461         0.0000000000
        2.9938572661         0.0114361743         9.2583397026
   Ca   Mn    V    P    O
    7    8    8   32  112
Direct
     0.630562365         0.462390274         0.597884059
     0.130562380         0.462390274         0.597884059
     0.130562380         0.962390304         0.597884059
     0.630562365         0.962390304         0.597884059
     0.368736297         0.707215905         0.888275087
     0.868736267         0.207215935         0.888275087
     0.868736267         0.707215905         0.888275087
     0.372709572         0.004281006         0.382636577
     0.372709572         0.504280984         0.382636577
     0.872709572         0.004281006         0.382636577
     0.872709572         0.504280984         0.382636577
     0.364109844         0.493851453         0.898413301
     0.364109844         0.993851423         0.898413301
     0.864109874         0.493851453         0.898413301
     0.864109874         0.993851423         0.898413301
     0.132124141         0.250552922         0.118224405
     0.132124141         0.750552893         0.118224405
     0.632124126         0.250552922         0.118224405
     0.632124126         0.750552893         0.118224405
     0.135076374         0.249643832         0.605527639
     0.135076374         0.749643803         0.605527639
     0.635076404         0.249643832         0.605527639
     0.635076404         0.749643803         0.605527639
     0.254685730         0.092449971         0.193194166
     0.254685730         0.592449963         0.193194166
     0.754685760         0.092449971         0.193194166
     0.754685760         0.592449963         0.193194166
     0.443829358         0.378755599         0.114947319
     0.443829358         0.878755569         0.114947319
     0.943829358         0.378755599         0.114947319
     0.943829358         0.878755569         0.114947319
     0.057523631         0.132887796         0.392173111
     0.057523631         0.632887781         0.392173111
     0.557523608         0.132887796         0.392173111
     0.557523608         0.632887781         0.392173111
     0.246056512         0.340014249         0.305605263
     0.246056512         0.840014219         0.305605263
     0.746056497         0.340014249         0.305605263
     0.746056497         0.840014219         0.305605263
     0.251773596         0.099747807         0.694675028
     0.251773596         0.599747777         0.694675028
     0.751773596         0.099747807         0.694675028
     0.751773596         0.599747777         0.694675028
     0.440509796         0.385465056         0.611272573
     0.440509796         0.885465026         0.611272573
     0.940509796         0.385465056         0.611272573
     0.940509796         0.885465026         0.611272573
     0.058543038         0.137987509         0.893256843
     0.058543038         0.637987494         0.893256843
     0.558543026         0.137987509         0.893256843
     0.558543026         0.637987494         0.893256843
     0.244812131         0.351059616         0.804099619
     0.244812131         0.851059616         0.804099619
     0.744812131         0.351059616         0.804099619
     0.744812131         0.851059616         0.804099619
     0.097509123         0.160303503         0.016585119
     0.097509123         0.660303473         0.016585119
     0.597509146         0.160303503         0.016585119
     0.597509146         0.660303473         0.016585119
     0.032699246         0.321790457         0.085883938
     0.032699246         0.821790457         0.085883938
     0.532699227         0.321790457         0.085883938
     0.532699227         0.821790457         0.085883938
     0.274653137         0.024846409         0.082918860
     0.274653137         0.524846435         0.082918860
     0.774653137         0.024846409         0.082918860
     0.774653137         0.524846435         0.082918860
     0.252096683         0.176925510         0.122136310
     0.252096683         0.676925540         0.122136310
     0.752096653         0.176925510         0.122136310
     0.752096653         0.676925540         0.122136310
     0.185303107         0.332874924         0.198468968
     0.185303107         0.832874894         0.198468968
     0.685303092         0.332874924         0.198468968
     0.685303092         0.832874894         0.198468968
     0.052630123         0.207620874         0.297333390
     0.052630123         0.707620859         0.297333390
     0.552630126         0.207620874         0.297333390
     0.552630126         0.707620859         0.297333390
     0.146647319         0.075594299         0.296135664
     0.146647319         0.575594306         0.296135664
     0.646647334         0.075594299         0.296135664
     0.646647334         0.575594306         0.296135664
     0.356494397         0.322987050         0.209553480
     0.356494397         0.822987080         0.209553480
     0.856494427         0.322987050         0.209553480
     0.856494427         0.822987080         0.209553480
     0.449375212         0.453733265         0.199801579
     0.449375212         0.953733265         0.199801579
     0.949375212         0.453733265         0.199801579
     0.949375212         0.953733265         0.199801579
     0.322905332         0.091046244         0.285644770
     0.322905332         0.591046214         0.285644770
     0.822905302         0.091046244         0.285644770
     0.822905302         0.591046214         0.285644770
     0.234301150         0.423423380         0.373455256
     0.234301150         0.923423409         0.373455256
     0.734301150         0.423423380         0.373455256
     0.734301150         0.923423409         0.373455256
     0.224783733         0.271109730         0.412727922
     0.224783733         0.771109700         0.412727922
     0.724783719         0.271109730         0.412727922
     0.724783719         0.771109700         0.412727922
     0.083156057         0.154554844         0.528596461
     0.083156057         0.654554844         0.528596461
     0.583156049         0.154554844         0.528596461
     0.583156049         0.654554844         0.528596461
     0.037101895         0.338528752         0.570170164
     0.037101895         0.838528752         0.570170164
     0.537101865         0.338528752         0.570170164
     0.537101865         0.838528752         0.570170164
     0.470303446         0.081004828         0.428764492
     0.470303446         0.581004858         0.428764492
     0.970303416         0.081004828         0.428764492
     0.970303416         0.581004858         0.428764492
     0.405654252         0.409031898         0.484404355
     0.405654252         0.909031868         0.484404355
     0.905654252         0.409031898         0.484404355
     0.905654252         0.909031868         0.484404355
     0.270154089         0.034247994         0.578190684
     0.270154089         0.534247994         0.578190684
     0.770154119         0.034247994         0.578190684
     0.770154119         0.534247994         0.578190684
     0.247123241         0.185436338         0.644014835
     0.247123241         0.685436368         0.644014835
     0.747123241         0.185436338         0.644014835
     0.747123241         0.685436368         0.644014835
     0.183414176         0.346656084         0.700403273
     0.183414176         0.846656084         0.700403273
     0.683414161         0.346656084         0.700403273
     0.683414161         0.846656084         0.700403273
     0.044425577         0.213720232         0.805639327
     0.044425577         0.713720202         0.805639327
     0.544425607         0.213720232         0.805639327
     0.544425607         0.713720202         0.805639327
     0.138725862         0.076317675         0.788420439
     0.138725862         0.576317668         0.788420439
     0.638725877         0.076317675         0.788420439
     0.638725877         0.576317668         0.788420439
     0.360511243         0.325565547         0.714873552
     0.360511243         0.825565577         0.714873552
     0.860511243         0.325565547         0.714873552
     0.860511243         0.825565577         0.714873552
     0.453151524         0.459220648         0.700790167
     0.453151524         0.959220648         0.700790167
     0.953151524         0.459220648         0.700790167
     0.953151524         0.959220648         0.700790167
     0.317044079         0.094181880         0.792322040
     0.317044079         0.594181895         0.792322040
     0.817044079         0.094181880         0.792322040
     0.817044079         0.594181895         0.792322040
     0.244899213         0.434633583         0.859752238
     0.244899213         0.934633613         0.859752238
     0.744899213         0.434633583         0.859752238
     0.744899213         0.934633613         0.859752238
     0.225667536         0.282393515         0.916171551
     0.225667536         0.782393515         0.916171551
     0.725667536         0.282393515         0.916171551
     0.725667536         0.782393515         0.916171551
     0.463198453         0.094232224         0.936738014
     0.463198453         0.594232202         0.936738014
     0.963198423         0.094232224         0.936738014
     0.963198423         0.594232202         0.936738014
     0.422715247         0.396289855         0.972568989
     0.422715247         0.896289825         0.972568989
     0.922715247         0.396289855         0.972568989
     0.922715247         0.896289825         0.972568989
