Ca V  O 
1.0
       23.7008686066         0.0000000000         0.0000000000
       22.5234737998         7.3772827448         0.0000000000
        4.2469334560         0.6777993428        11.2450770706
   Ca    V    O
    7   48  104
Direct
     0.592007101         0.092007123         0.293158174
     0.407996655         0.407996655         0.706838250
     0.407996655         0.907996655         0.706838250
     0.907996655         0.407996655         0.706838250
     0.907996655         0.907996655         0.706838250
     0.092007123         0.092007123         0.293158174
     0.592007101         0.592007101         0.293158174
     0.388068587         0.388068587         0.076355048
     0.388068587         0.888068557         0.076355048
     0.888068557         0.388068587         0.076355048
     0.888068557         0.888068557         0.076355048
     0.111935012         0.111935012         0.923628211
     0.111935012         0.611935019         0.923628211
     0.611935019         0.111935012         0.923628211
     0.611935019         0.611935019         0.923628211
     0.113766797         0.113766797         0.610085189
     0.113766797         0.613766789         0.610085189
     0.613766789         0.113766797         0.610085189
     0.613766789         0.613766789         0.610085189
     0.386241555         0.386241555         0.389889270
     0.386241555         0.886241555         0.389889270
     0.886241555         0.386241555         0.389889270
     0.886241555         0.886241555         0.389889270
     0.471781015         0.471781015         0.965830207
     0.471781015         0.971781015         0.965830207
     0.971781015         0.471781015         0.965830207
     0.971781015         0.971781015         0.965830207
     0.028227737         0.028227737         0.034160279
     0.028227737         0.528227746         0.034160279
     0.528227746         0.028227737         0.034160279
     0.528227746         0.528227746         0.034160279
     0.217909783         0.217909783         0.480627209
     0.217909783         0.717909813         0.480627209
     0.717909813         0.217909783         0.480627209
     0.717909813         0.717909813         0.480627209
     0.282072157         0.282072157         0.519330442
     0.282072157         0.782072186         0.519330442
     0.782072186         0.282072157         0.519330442
     0.782072186         0.782072186         0.519330442
     0.468455940         0.468455940         0.274850219
     0.468455940         0.968455911         0.274850219
     0.968455911         0.468455940         0.274850219
     0.968455911         0.968455911         0.274850219
     0.031547271         0.031547271         0.725160241
     0.031547271         0.531547248         0.725160241
     0.531547248         0.031547271         0.725160241
     0.531547248         0.531547248         0.725160241
     0.217960492         0.217960492         0.774854064
     0.217960492         0.717960477         0.774854064
     0.717960477         0.217960492         0.774854064
     0.717960477         0.717960477         0.774854064
     0.282042831         0.282042831         0.225136042
     0.282042831         0.782042861         0.225136042
     0.782042861         0.282042831         0.225136042
     0.782042861         0.782042861         0.225136042
     0.376253843         0.376253843         0.927944243
     0.376253843         0.876253843         0.927944243
     0.876253843         0.376253843         0.927944243
     0.876253843         0.876253843         0.927944243
     0.123738892         0.123738892         0.072059244
     0.123738892         0.623738885         0.072059244
     0.623738885         0.123738892         0.072059244
     0.623738885         0.623738885         0.072059244
     0.121911913         0.121911913         0.427040905
     0.121911913         0.621911883         0.427040905
     0.621911883         0.121911913         0.427040905
     0.621911883         0.621911883         0.427040905
     0.378090203         0.378090203         0.572959840
     0.378090203         0.878090203         0.572959840
     0.878090203         0.378090203         0.572959840
     0.878090203         0.878090203         0.572959840
     0.470128000         0.470128000         0.443937331
     0.470128000         0.970128000         0.443937331
     0.970128000         0.470128000         0.443937331
     0.970128000         0.970128000         0.443937331
     0.029878631         0.029878631         0.556048334
     0.029878631         0.529878616         0.556048334
     0.529878616         0.029878631         0.556048334
     0.529878616         0.529878616         0.556048334
     0.220608354         0.220608354         0.934200585
     0.220608354         0.720608354         0.934200585
     0.720608354         0.220608354         0.934200585
     0.720608354         0.720608354         0.934200585
     0.279392183         0.279392183         0.065795369
     0.279392183         0.779392183         0.065795369
     0.779392183         0.279392183         0.065795369
     0.779392183         0.779392183         0.065795369
     0.479262471         0.479262471         0.780797720
     0.479262471         0.979262471         0.780797720
     0.979262471         0.479262471         0.780797720
     0.979262471         0.979262471         0.780797720
     0.020750502         0.020750502         0.219161391
     0.020750502         0.520750523         0.219161391
     0.520750523         0.020750502         0.219161391
     0.520750523         0.520750523         0.219161391
     0.226810738         0.226810738         0.301350087
     0.226810738         0.726810753         0.301350087
     0.726810753         0.226810738         0.301350087
     0.726810753         0.726810753         0.301350087
     0.273194224         0.273194224         0.698645949
     0.273194224         0.773194194         0.698645949
     0.773194194         0.273194224         0.698645949
     0.773194194         0.773194194         0.698645949
     0.375245124         0.375245124         0.241891250
     0.375245124         0.875245094         0.241891250
     0.875245094         0.375245124         0.241891250
     0.875245094         0.875245094         0.241891250
     0.124749944         0.124749944         0.758132875
     0.124749944         0.624749959         0.758132875
     0.624749959         0.124749944         0.758132875
     0.624749959         0.624749959         0.758132875
     0.426480770         0.426480770         0.029400907
     0.426480770         0.926480770         0.029400907
     0.926480770         0.426480770         0.029400907
     0.926480770         0.926480770         0.029400907
     0.073501743         0.073501743         0.970623612
     0.073501743         0.573501766         0.970623612
     0.573501766         0.073501743         0.970623612
     0.573501766         0.573501766         0.970623612
     0.179778904         0.179778904         0.559007347
     0.179778904         0.679778934         0.559007347
     0.679778934         0.179778904         0.559007347
     0.679778934         0.679778934         0.559007347
     0.320221156         0.320221156         0.440996289
     0.320221156         0.820221186         0.440996289
     0.820221186         0.320221156         0.440996289
     0.820221186         0.820221186         0.440996289
     0.428473383         0.428473383         0.319335550
     0.428473383         0.928473353         0.319335550
     0.928473353         0.428473383         0.319335550
     0.928473353         0.928473353         0.319335550
     0.071511842         0.071511842         0.680677533
     0.071511842         0.571511865         0.680677533
     0.571511865         0.071511842         0.680677533
     0.571511865         0.571511865         0.680677533
     0.180267513         0.180267513         0.795272529
     0.180267513         0.680267513         0.795272529
     0.680267513         0.180267513         0.795272529
     0.680267513         0.680267513         0.795272529
     0.319721222         0.319721222         0.204734400
     0.319721222         0.819721222         0.204734400
     0.819721222         0.319721222         0.204734400
     0.819721222         0.819721222         0.204734400
     0.480753124         0.480753124         0.109290197
     0.480753124         0.980753124         0.109290197
     0.980753124         0.480753124         0.109290197
     0.980753124         0.980753124         0.109290197
     0.019252777         0.019252777         0.890743792
     0.019252777         0.519252777         0.890743792
     0.519252777         0.019252777         0.890743792
     0.519252777         0.519252777         0.890743792
     0.231718183         0.231718183         0.600404441
     0.231718183         0.731718183         0.600404441
     0.731718183         0.231718183         0.600404441
     0.731718183         0.731718183         0.600404441
     0.268291414         0.268291414         0.399645537
     0.268291414         0.768291414         0.399645537
     0.768291414         0.268291414         0.399645537
     0.768291414         0.768291414         0.399645537
