Ca V  P  O                              
   1.00000000000000     
    11.1296310424999998    0.0000000000000000    0.0000000000000000
     2.8994549615000000   10.7443060018000001    0.0000000000000000
    -1.6016288384999999    2.0900824976000001   13.7540809288000005
   Ca   V    P    O 
    11    12    24    84
Selective dynamics
Direct
  0.3616379309497262  0.3689114801905191  0.3408050636902260   T   T   T
  0.3689373075376281  0.3616442156245583  0.9925375339503333   T   T   T
  0.3656118986846053  0.8669037926376575  0.6674850427340004   T   T   T
  0.3665353439953520  0.8641086858583265  0.9961827926108029   T   T   T
  0.3658868252515077  0.8667962975445889  0.3356176476228683   T   T   T
  0.8668736886212827  0.3655820693783127  0.6658207197344126   T   T   T
  0.8667817811918610  0.3658989255072598  0.9977261957913228   T   T   T
  0.8640935006523307  0.3665223840283147  0.3371272308535254   T   T   T
  0.8670381103688243  0.8671250750191888  0.6666597110331409   T   T   T
  0.8674858972532888  0.8652495487458722  0.9997657014814934   T   T   T
  0.8652399554229291  0.8674967409148451  0.3335746689847241   T   T   T
  0.0532717867043289  0.0560567395199172  0.0005989701055356   T   T   T
  0.0560847174691119  0.0532875751754531  0.3327479428656375   T   T   T
  0.0565234831796815  0.0565173217664210  0.6666571588356831   T   T   T
  0.0554804884027789  0.5530228056309170  0.9995048809427729   T   T   T
  0.0530645805114247  0.5533888498925350  0.3349100802148754   T   T   T
  0.0597054172816200  0.5515498559021381  0.6672603306408433   T   T   T
  0.5533934264870553  0.0530553355224441  0.9984314504439311   T   T   T
  0.5530319622882516  0.0554721774737885  0.3338594271147812   T   T   T
  0.5515560989626067  0.0597195095903871  0.6660600371524197   T   T   T
  0.5529533632854395  0.5523379339221677  0.9991576959816015   T   T   T
  0.5523368304966993  0.5529495327445346  0.3341965543793819   T   T   T
  0.5436095122488851  0.5436053506719247  0.6666636137081525   T   T   T
  0.3241160361603121  0.1116659714990291  0.1377936535349988   T   T   T
  0.3217882147093363  0.1143221745564418  0.4712424740146233   T   T   T
  0.3286077612143359  0.1122500655476841  0.8029542050277172   T   T   T
  0.3242161850642802  0.6097711204226002  0.1378819806338711   T   T   T
  0.3252090463709578  0.6108419324031900  0.4719547713678693   T   T   T
  0.3177637323704658  0.6167618794571439  0.8054099609224394   T   T   T
  0.8234404380571121  0.1119845092323075  0.1376345302054531   T   T   T
  0.8278562143066637  0.1146123667229801  0.4698300613411277   T   T   T
  0.8244248833752152  0.1122864640562966  0.8048672140735675   T   T   T
  0.8241309991725245  0.6112715434024452  0.1380310270438727   T   T   T
  0.8238607284770580  0.6131221090863122  0.4727127223331848   T   T   T
  0.8245400355089245  0.6106656134672548  0.8025078912255026   T   T   T
  0.1116770129949529  0.3240987247928970  0.1955869123102900   T   T   T
  0.1122512227041383  0.3285759351764099  0.5303361321106763   T   T   T
  0.1143412785624420  0.3217385423932058  0.8620830561118495   T   T   T
  0.1119829637994982  0.8234229736921748  0.1957514499482826   T   T   T
  0.1122958923566486  0.8244736621117781  0.5284250921284439   T   T   T
  0.1146280413712475  0.8278578001314614  0.8634904226871996   T   T   T
  0.6097651020774606  0.3242080654096355  0.1954967643981007   T   T   T
  0.6167678211561167  0.3177201368364635  0.5279106766605182   T   T   T
  0.6108288397748964  0.3252148085703368  0.8613620720438604   T   T   T
  0.6112751206401299  0.8241144332879244  0.1953546624425186   T   T   T
  0.6106412473130405  0.8245799775680993  0.5308039091355710   T   T   T
  0.6131029560644166  0.8239260853665016  0.8605846503286827   T   T   T
  0.3961769674439708  0.0342305666560847  0.2353415837045247   T   T   T
  0.3942546419449968  0.0370656533632570  0.5687445268903062   T   T   T
  0.3977623218096582  0.0324637561857770  0.9021041480092791   T   T   T
  0.3955719698825106  0.5324358575406762  0.2355957130500670   T   T   T
  0.3983376425696861  0.5356366011261287  0.5672098524557114   T   T   T
  0.3940620911503245  0.5360605614068135  0.9008031280260980   T   T   T
  0.8964316653208328  0.0347923553536660  0.2349772504725038   T   T   T
  0.8959990610612891  0.0389120257292035  0.5690094652396738   T   T   T
  0.8969985762427797  0.0340807977405078  0.9022063152773185   T   T   T
  0.8951004735281245  0.5342513973283900  0.2359702112192821   T   T   T
  0.8971389831513648  0.5357550207872777  0.5696787475608360   T   T   T
  0.8966064889908623  0.5356266040387965  0.9008523531729793   T   T   T
  0.1583031626014915  0.4110647587738825  0.2602441780089819   T   T   T
  0.1548304654898232  0.4173437739848040  0.5921615729256189   T   T   T
  0.1594218937720981  0.4084549244889999  0.9281991963592020   T   T   T
  0.1602664698918019  0.9096435235186746  0.2603014463567064   T   T   T
  0.1588944008132671  0.9115558741942138  0.5932423410137062   T   T   T
  0.1561910340331352  0.9174093039137432  0.9284719425055954   T   T   T
  0.6582860740554679  0.4109516873773700  0.2595450335937244   T   T   T
  0.6582982244090303  0.4035733541973769  0.5965447212194022   T   T   T
  0.6599856079589372  0.4088088856957128  0.9294335111964216   T   T   T
  0.6584473053800792  0.9111371057739106  0.2599096029051893   T   T   T
  0.6575165216981773  0.9112797292595332  0.5959831733063297   T   T   T
  0.6609365692451945  0.9090308106268452  0.9265962139547241   T   T   T
  0.0451621798034978  0.2388692232635705  0.2493950755721102   T   T   T
  0.0457917253476694  0.2407138451217961  0.5830227631592635   T   T   T
  0.0439907527786758  0.2393203362673830  0.9157612341914927   T   T   T
  0.0438359505488606  0.7399886109235894  0.2498181297756616   T   T   T
  0.0444958971349436  0.7402269820823619  0.5821281349129777   T   T   T
  0.0484378729063408  0.7409934608577231  0.9162061659672105   T   T   T
  0.5441382289401915  0.2392358086104522  0.2502292739147691   T   T   T
  0.5682669384808179  0.2144543538777555  0.5742685579325695   T   T   T
  0.5468054611778754  0.2385026836665958  0.9170925181242708   T   T   T
  0.5451797530962565  0.7390636445468672  0.2497469558125545   T   T   T
  0.5435027490047162  0.7392706458721889  0.5835603677831571   T   T   T
  0.5467893101946402  0.7380315478749964  0.9139605321495807   T   T   T
  0.0342348762786102  0.3961419710055694  0.0980421686283321   T   T   T
  0.0324660150977181  0.3977057431516045  0.4311826110469283   T   T   T
  0.0370542884905163  0.3942008345644226  0.7645783578677054   T   T   T
  0.0347887692294790  0.8963950023178668  0.0984049099844952   T   T   T
  0.0341130339017397  0.8970456726479767  0.4310735504340286   T   T   T
  0.0389248670232476  0.8959915973849562  0.7643023169000713   T   T   T
  0.5324574139314038  0.3955530629627759  0.0977724149285706   T   T   T
  0.5360433351853757  0.3940054358466512  0.4325351827353430   T   T   T
  0.5356635122384503  0.3983201233983920  0.7660866216247442   T   T   T
  0.5342711478898536  0.8950639443493600  0.0974098715008296   T   T   T
  0.5355899799177450  0.8966558339966113  0.4324642097996829   T   T   T
  0.5357837149880993  0.8972055205891181  0.7636001058790924   T   T   T
  0.2429227341908060  0.2428949148040971  0.1667125999744883   T   T   T
  0.2393959812319864  0.2460043803374461  0.4955733671023665   T   T   T
  0.2460383271260440  0.2393947578786424  0.8377261070670912   T   T   T
  0.2425054526546546  0.7412778493809355  0.1669806865733392   T   T   T
  0.2426291332457851  0.7446844568747863  0.4987111294704647   T   T   T
  0.2527922827904163  0.7523284888457411  0.8417670963562358   T   T   T
  0.7413005216873643  0.2424879421956732  0.1664559900484051   T   T   T
  0.7523066948811135  0.2527665286215495  0.4915594494444733   T   T   T
  0.7446532036393521  0.2426187321017181  0.8345933758228341   T   T   T
  0.7434182146406059  0.7433956423148373  0.1667140084569070   T   T   T
  0.7436165728609296  0.7443758121177382  0.5027198595501190   T   T   T
  0.7443172975192240  0.7436535186030611  0.8305848070682984   T   T   T
  0.2388893015660472  0.0451293328757458  0.0840003824876163   T   T   T
  0.2393930816779672  0.0439395154010498  0.4175835141607109   T   T   T
  0.2407693243440931  0.0458027798363432  0.7502237393658362   T   T   T
  0.2392615295812917  0.5441083683838883  0.0831793318588154   T   T   T
  0.2385072625566096  0.5468110507086550  0.4162101793873560   T   T   T
  0.2145079370650365  0.5682529771925147  0.7590418438979754   T   T   T
  0.7400260863831534  0.0438065318459806  0.0835866161062953   T   T   T
  0.7409812516219247  0.0484213265378770  0.4171136336081958   T   T   T
  0.7401474794300569  0.0445331838554921  0.7511304476212715   T   T   T
  0.7390810455051238  0.5451506507557582  0.0836403854831573   T   T   T
  0.7379622187658512  0.5468275715545658  0.4193097213574717   T   T   T
  0.7392351418263843  0.5435105223336052  0.7497551684988082   T   T   T
  0.4110649743437520  0.1583024026063100  0.0731387143019120   T   T   T
  0.4084957795304121  0.1594039597012582  0.4051318189229747   T   T   T
  0.4173704547195882  0.1548316090189843  0.7411266840337802   T   T   T
  0.4109552902126694  0.6582959069879379  0.0738305121396721   T   T   T
  0.4087961103295257  0.6599949137519801  0.4038847572989326   T   T   T
  0.4035958851852968  0.6583249608194635  0.7367802550845255   T   T   T
  0.9096459783536091  0.1602756040581781  0.0730861616644560   T   T   T
  0.9173755896222033  0.1562043138160618  0.4048589143584351   T   T   T
  0.9114912724893784  0.1588590876534894  0.7400355725756143   T   T   T
  0.9111345483111322  0.6584602870548650  0.0734893515653354   T   T   T
  0.9089584652189586  0.6609571373347691  0.4067081858158730   T   T   T
  0.9112080760106451  0.6575811831441456  0.7373228715176268   T   T   T
 
  0.00000000E+00  0.00000000E+00  0.00000000E+00
  0.00000000E+00  0.00000000E+00  0.00000000E+00
  0.00000000E+00  0.00000000E+00  0.00000000E+00
  0.00000000E+00  0.00000000E+00  0.00000000E+00
  0.00000000E+00  0.00000000E+00  0.00000000E+00
  0.00000000E+00  0.00000000E+00  0.00000000E+00
  0.00000000E+00  0.00000000E+00  0.00000000E+00
  0.00000000E+00  0.00000000E+00  0.00000000E+00
  0.00000000E+00  0.00000000E+00  0.00000000E+00
  0.00000000E+00  0.00000000E+00  0.00000000E+00
  0.00000000E+00  0.00000000E+00  0.00000000E+00
  0.00000000E+00  0.00000000E+00  0.00000000E+00
  0.00000000E+00  0.00000000E+00  0.00000000E+00
  0.00000000E+00  0.00000000E+00  0.00000000E+00
  0.00000000E+00  0.00000000E+00  0.00000000E+00
  0.00000000E+00  0.00000000E+00  0.00000000E+00
  0.00000000E+00  0.00000000E+00  0.00000000E+00
  0.00000000E+00  0.00000000E+00  0.00000000E+00
  0.00000000E+00  0.00000000E+00  0.00000000E+00
  0.00000000E+00  0.00000000E+00  0.00000000E+00
  0.00000000E+00  0.00000000E+00  0.00000000E+00
  0.00000000E+00  0.00000000E+00  0.00000000E+00
  0.00000000E+00  0.00000000E+00  0.00000000E+00
  0.00000000E+00  0.00000000E+00  0.00000000E+00
  0.00000000E+00  0.00000000E+00  0.00000000E+00
  0.00000000E+00  0.00000000E+00  0.00000000E+00
  0.00000000E+00  0.00000000E+00  0.00000000E+00
  0.00000000E+00  0.00000000E+00  0.00000000E+00
  0.00000000E+00  0.00000000E+00  0.00000000E+00
  0.00000000E+00  0.00000000E+00  0.00000000E+00
  0.00000000E+00  0.00000000E+00  0.00000000E+00
  0.00000000E+00  0.00000000E+00  0.00000000E+00
  0.00000000E+00  0.00000000E+00  0.00000000E+00
  0.00000000E+00  0.00000000E+00  0.00000000E+00
  0.00000000E+00  0.00000000E+00  0.00000000E+00
  0.00000000E+00  0.00000000E+00  0.00000000E+00
  0.00000000E+00  0.00000000E+00  0.00000000E+00
  0.00000000E+00  0.00000000E+00  0.00000000E+00
  0.00000000E+00  0.00000000E+00  0.00000000E+00
  0.00000000E+00  0.00000000E+00  0.00000000E+00
  0.00000000E+00  0.00000000E+00  0.00000000E+00
  0.00000000E+00  0.00000000E+00  0.00000000E+00
  0.00000000E+00  0.00000000E+00  0.00000000E+00
  0.00000000E+00  0.00000000E+00  0.00000000E+00
  0.00000000E+00  0.00000000E+00  0.00000000E+00
  0.00000000E+00  0.00000000E+00  0.00000000E+00
  0.00000000E+00  0.00000000E+00  0.00000000E+00
  0.00000000E+00  0.00000000E+00  0.00000000E+00
  0.00000000E+00  0.00000000E+00  0.00000000E+00
  0.00000000E+00  0.00000000E+00  0.00000000E+00
  0.00000000E+00  0.00000000E+00  0.00000000E+00
  0.00000000E+00  0.00000000E+00  0.00000000E+00
  0.00000000E+00  0.00000000E+00  0.00000000E+00
  0.00000000E+00  0.00000000E+00  0.00000000E+00
  0.00000000E+00  0.00000000E+00  0.00000000E+00
  0.00000000E+00  0.00000000E+00  0.00000000E+00
  0.00000000E+00  0.00000000E+00  0.00000000E+00
  0.00000000E+00  0.00000000E+00  0.00000000E+00
  0.00000000E+00  0.00000000E+00  0.00000000E+00
  0.00000000E+00  0.00000000E+00  0.00000000E+00
  0.00000000E+00  0.00000000E+00  0.00000000E+00
  0.00000000E+00  0.00000000E+00  0.00000000E+00
  0.00000000E+00  0.00000000E+00  0.00000000E+00
  0.00000000E+00  0.00000000E+00  0.00000000E+00
  0.00000000E+00  0.00000000E+00  0.00000000E+00
  0.00000000E+00  0.00000000E+00  0.00000000E+00
  0.00000000E+00  0.00000000E+00  0.00000000E+00
  0.00000000E+00  0.00000000E+00  0.00000000E+00
  0.00000000E+00  0.00000000E+00  0.00000000E+00
  0.00000000E+00  0.00000000E+00  0.00000000E+00
  0.00000000E+00  0.00000000E+00  0.00000000E+00
  0.00000000E+00  0.00000000E+00  0.00000000E+00
  0.00000000E+00  0.00000000E+00  0.00000000E+00
  0.00000000E+00  0.00000000E+00  0.00000000E+00
  0.00000000E+00  0.00000000E+00  0.00000000E+00
  0.00000000E+00  0.00000000E+00  0.00000000E+00
  0.00000000E+00  0.00000000E+00  0.00000000E+00
  0.00000000E+00  0.00000000E+00  0.00000000E+00
  0.00000000E+00  0.00000000E+00  0.00000000E+00
  0.00000000E+00  0.00000000E+00  0.00000000E+00
  0.00000000E+00  0.00000000E+00  0.00000000E+00
  0.00000000E+00  0.00000000E+00  0.00000000E+00
  0.00000000E+00  0.00000000E+00  0.00000000E+00
  0.00000000E+00  0.00000000E+00  0.00000000E+00
  0.00000000E+00  0.00000000E+00  0.00000000E+00
  0.00000000E+00  0.00000000E+00  0.00000000E+00
  0.00000000E+00  0.00000000E+00  0.00000000E+00
  0.00000000E+00  0.00000000E+00  0.00000000E+00
  0.00000000E+00  0.00000000E+00  0.00000000E+00
  0.00000000E+00  0.00000000E+00  0.00000000E+00
  0.00000000E+00  0.00000000E+00  0.00000000E+00
  0.00000000E+00  0.00000000E+00  0.00000000E+00
  0.00000000E+00  0.00000000E+00  0.00000000E+00
  0.00000000E+00  0.00000000E+00  0.00000000E+00
  0.00000000E+00  0.00000000E+00  0.00000000E+00
  0.00000000E+00  0.00000000E+00  0.00000000E+00
  0.00000000E+00  0.00000000E+00  0.00000000E+00
  0.00000000E+00  0.00000000E+00  0.00000000E+00
  0.00000000E+00  0.00000000E+00  0.00000000E+00
  0.00000000E+00  0.00000000E+00  0.00000000E+00
  0.00000000E+00  0.00000000E+00  0.00000000E+00
  0.00000000E+00  0.00000000E+00  0.00000000E+00
  0.00000000E+00  0.00000000E+00  0.00000000E+00
  0.00000000E+00  0.00000000E+00  0.00000000E+00
  0.00000000E+00  0.00000000E+00  0.00000000E+00
  0.00000000E+00  0.00000000E+00  0.00000000E+00
  0.00000000E+00  0.00000000E+00  0.00000000E+00
  0.00000000E+00  0.00000000E+00  0.00000000E+00
  0.00000000E+00  0.00000000E+00  0.00000000E+00
  0.00000000E+00  0.00000000E+00  0.00000000E+00
  0.00000000E+00  0.00000000E+00  0.00000000E+00
  0.00000000E+00  0.00000000E+00  0.00000000E+00
  0.00000000E+00  0.00000000E+00  0.00000000E+00
  0.00000000E+00  0.00000000E+00  0.00000000E+00
  0.00000000E+00  0.00000000E+00  0.00000000E+00
  0.00000000E+00  0.00000000E+00  0.00000000E+00
  0.00000000E+00  0.00000000E+00  0.00000000E+00
  0.00000000E+00  0.00000000E+00  0.00000000E+00
  0.00000000E+00  0.00000000E+00  0.00000000E+00
  0.00000000E+00  0.00000000E+00  0.00000000E+00
  0.00000000E+00  0.00000000E+00  0.00000000E+00
  0.00000000E+00  0.00000000E+00  0.00000000E+00
  0.00000000E+00  0.00000000E+00  0.00000000E+00
  0.00000000E+00  0.00000000E+00  0.00000000E+00
  0.00000000E+00  0.00000000E+00  0.00000000E+00
  0.00000000E+00  0.00000000E+00  0.00000000E+00
  0.00000000E+00  0.00000000E+00  0.00000000E+00
  0.00000000E+00  0.00000000E+00  0.00000000E+00
  0.00000000E+00  0.00000000E+00  0.00000000E+00
  0.00000000E+00  0.00000000E+00  0.00000000E+00
  0.00000000E+00  0.00000000E+00  0.00000000E+00
