Ca Ti V  O 
1.0
       19.4241828918         0.0000000000         0.0000000000
      -15.9212540370        11.1271088296         0.0000000000
       -3.7087455940         1.1675514418        12.5704134662
   Ca   Ti    V    O
   17   18   54  144
Direct
     0.334446996         0.332219690         0.502098739
     0.334446996         0.998886347         0.502098739
     0.334446996         0.998886347         0.002098739
     0.334446996         0.332219690         0.002098739
     0.334446996         0.665553033         0.502098739
     0.334446996         0.665553033         0.002098739
     0.667780340         0.998886347         0.502098739
     0.667780340         0.998886347         0.002098739
     0.667780340         0.332219690         0.502098739
     0.667780340         0.332219690         0.002098739
     0.667780340         0.665553033         0.002098739
     0.001113663         0.998886347         0.502098739
     0.001113663         0.998886347         0.002098739
     0.001113663         0.332219690         0.502098739
     0.001113663         0.332219690         0.002098739
     0.001113663         0.665553033         0.502098739
     0.001113663         0.665553033         0.002098739
     0.234073892         0.099259406         0.146344960
     0.234073892         0.099259406         0.646344960
     0.234073892         0.432592750         0.146344960
     0.234073892         0.432592750         0.646344960
     0.234073892         0.765926063         0.146344960
     0.234073892         0.765926063         0.646344960
     0.567407250         0.099259406         0.146344960
     0.567407250         0.099259406         0.646344960
     0.567407250         0.432592750         0.146344960
     0.567407250         0.432592750         0.646344960
     0.567407250         0.765926063         0.146344960
     0.567407250         0.765926063         0.646344960
     0.900740564         0.099259406         0.146344960
     0.900740564         0.099259406         0.646344960
     0.900740564         0.432592750         0.146344960
     0.900740564         0.432592750         0.646344960
     0.900740564         0.765926063         0.146344960
     0.900740564         0.765926063         0.646344960
     0.131278619         0.202054679         0.156835124
     0.131278619         0.202054679         0.656835139
     0.131278619         0.535387993         0.156835124
     0.131278619         0.535387993         0.656835139
     0.131278619         0.868721366         0.156835124
     0.131278619         0.868721366         0.656835139
     0.464611948         0.202054679         0.156835124
     0.464611948         0.202054679         0.656835139
     0.464611948         0.535387993         0.156835124
     0.464611948         0.535387993         0.656835139
     0.464611948         0.868721366         0.156835124
     0.464611948         0.868721366         0.656835139
     0.797945261         0.202054679         0.156835124
     0.797945261         0.202054679         0.656835139
     0.797945261         0.535387993         0.156835124
     0.797945261         0.535387993         0.656835139
     0.797945261         0.868721366         0.156835124
     0.797945261         0.868721366         0.656835139
     0.201141849         0.132191449         0.342935771
     0.201141849         0.132191449         0.842935801
     0.201141849         0.465524793         0.342935771
     0.201141849         0.465524793         0.842935801
     0.201141849         0.798858106         0.342935771
     0.201141849         0.798858106         0.842935801
     0.534475207         0.132191449         0.342935771
     0.534475207         0.132191449         0.842935801
     0.534475207         0.465524793         0.342935771
     0.534475207         0.465524793         0.842935801
     0.534475207         0.798858106         0.342935771
     0.534475207         0.798858106         0.842935801
     0.867808521         0.132191449         0.342935771
     0.867808521         0.132191449         0.842935801
     0.867808521         0.465524793         0.342935771
     0.867808521         0.465524793         0.842935801
     0.867808521         0.798858106         0.342935771
     0.867808521         0.798858106         0.842935801
     0.098715782         0.234617516         0.356010467
     0.098715782         0.234617516         0.856010437
     0.098715782         0.567950845         0.356010467
     0.098715782         0.567950845         0.856010437
     0.098715782         0.901284158         0.356010467
     0.098715782         0.901284158         0.856010437
     0.432049125         0.234617516         0.356010467
     0.432049125         0.234617516         0.856010437
     0.432049125         0.567950845         0.356010467
     0.432049125         0.567950845         0.856010437
     0.432049125         0.901284158         0.356010467
     0.432049125         0.901284158         0.856010437
     0.765382469         0.234617516         0.356010467
     0.765382469         0.234617516         0.856010437
     0.765382469         0.567950845         0.356010467
     0.765382469         0.567950845         0.856010437
     0.765382469         0.901284158         0.356010467
     0.765382469         0.901284158         0.856010437
     0.046250239         0.287083089         0.361943126
     0.046250239         0.287083089         0.861943126
     0.046250239         0.620416403         0.361943126
     0.046250239         0.620416403         0.861943126
     0.046250239         0.953749776         0.361943126
     0.046250239         0.953749776         0.861943126
     0.379583567         0.287083089         0.361943126
     0.379583567         0.287083089         0.861943126
     0.379583567         0.620416403         0.361943126
     0.379583567         0.620416403         0.861943126
     0.379583567         0.953749776         0.361943126
     0.379583567         0.953749776         0.861943126
     0.712916911         0.287083089         0.361943126
     0.712916911         0.287083089         0.861943126
     0.712916911         0.620416403         0.361943126
     0.712916911         0.620416403         0.861943126
     0.712916911         0.953749776         0.361943126
     0.712916911         0.953749776         0.861943126
     0.075769559         0.257563740         0.173618734
     0.075769559         0.257563740         0.673618734
     0.075769559         0.590897083         0.173618734
     0.075769559         0.590897083         0.673618734
     0.075769559         0.924230397         0.173618734
     0.075769559         0.924230397         0.673618734
     0.409102887         0.257563740         0.173618734
     0.409102887         0.257563740         0.673618734
     0.409102887         0.590897083         0.173618734
     0.409102887         0.590897083         0.673618734
     0.409102887         0.924230397         0.173618734
     0.409102887         0.924230397         0.673618734
     0.742436230         0.257563740         0.173618734
     0.742436230         0.257563740         0.673618734
     0.742436230         0.590897083         0.173618734
     0.742436230         0.590897083         0.673618734
     0.742436230         0.924230397         0.173618734
     0.742436230         0.924230397         0.673618734
     0.126099542         0.207233772         0.490984172
     0.126099542         0.207233772         0.990984201
     0.126099542         0.540567100         0.490984172
     0.126099542         0.540567100         0.990984201
     0.126099542         0.873900414         0.490984172
     0.126099542         0.873900414         0.990984201
     0.459432870         0.207233772         0.490984172
     0.459432870         0.207233772         0.990984201
     0.459432870         0.540567100         0.490984172
     0.459432870         0.540567100         0.990984201
     0.459432870         0.873900414         0.490984172
     0.459432870         0.873900414         0.990984201
     0.792766213         0.207233772         0.490984172
     0.792766213         0.207233772         0.990984201
     0.792766213         0.540567100         0.490984172
     0.792766213         0.540567100         0.990984201
     0.792766213         0.873900414         0.490984172
     0.792766213         0.873900414         0.990984201
     0.145611867         0.187721446         0.314131230
     0.145611867         0.187721446         0.814131260
     0.145611867         0.521054804         0.314131230
     0.145611867         0.521054804         0.814131260
     0.145611867         0.854388118         0.314131230
     0.145611867         0.854388118         0.814131260
     0.478945196         0.187721446         0.314131230
     0.478945196         0.187721446         0.814131260
     0.478945196         0.521054804         0.314131230
     0.478945196         0.521054804         0.814131260
     0.478945196         0.854388118         0.314131230
     0.478945196         0.854388118         0.814131260
     0.812278509         0.187721446         0.314131230
     0.812278509         0.187721446         0.814131260
     0.812278509         0.521054804         0.314131230
     0.812278509         0.521054804         0.814131260
     0.812278509         0.854388118         0.314131230
     0.812278509         0.854388118         0.814131260
     0.187127173         0.146206126         0.180333048
     0.187127173         0.146206126         0.680333018
     0.187127173         0.479539454         0.180333048
     0.187127173         0.479539454         0.680333018
     0.187127173         0.812872767         0.180333048
     0.187127173         0.812872767         0.680333018
     0.520460486         0.146206126         0.180333048
     0.520460486         0.146206126         0.680333018
     0.520460486         0.479539454         0.180333048
     0.520460486         0.479539454         0.680333018
     0.520460486         0.812872767         0.180333048
     0.520460486         0.812872767         0.680333018
     0.853793859         0.146206126         0.180333048
     0.853793859         0.146206126         0.680333018
     0.853793859         0.479539454         0.180333048
     0.853793859         0.479539454         0.680333018
     0.853793859         0.812872767         0.180333048
     0.853793859         0.812872767         0.680333018
     0.207892969         0.125440329         0.007040981
     0.207892969         0.125440329         0.507040977
     0.207892969         0.458773673         0.007040981
     0.207892969         0.458773673         0.507040977
     0.207892969         0.792106986         0.007040981
     0.207892969         0.792106986         0.507040977
     0.541226327         0.125440329         0.007040981
     0.541226327         0.125440329         0.507040977
     0.541226327         0.458773673         0.007040981
     0.541226327         0.458773673         0.507040977
     0.541226327         0.792106986         0.007040981
     0.541226327         0.792106986         0.507040977
     0.874559641         0.125440329         0.007040981
     0.874559641         0.125440329         0.507040977
     0.874559641         0.458773673         0.007040981
     0.874559641         0.458773673         0.507040977
     0.874559641         0.792106986         0.007040981
     0.874559641         0.792106986         0.507040977
     0.256951421         0.076381892         0.329881579
     0.256951421         0.076381892         0.829881549
     0.256951421         0.409715235         0.329881579
     0.256951421         0.409715235         0.829881549
     0.256951421         0.743048549         0.329881579
     0.256951421         0.743048549         0.829881549
     0.590284765         0.076381892         0.329881579
     0.590284765         0.076381892         0.829881549
     0.590284765         0.409715235         0.329881579
     0.590284765         0.409715235         0.829881549
     0.590284765         0.743048549         0.329881579
     0.590284765         0.743048549         0.829881549
     0.923618078         0.076381892         0.329881579
     0.923618078         0.076381892         0.829881549
     0.923618078         0.409715235         0.329881579
     0.923618078         0.409715235         0.829881549
     0.923618078         0.743048549         0.329881579
     0.923618078         0.743048549         0.829881549
     0.287973076         0.045360237         0.137840062
     0.287973076         0.045360237         0.637840033
     0.287973076         0.378693581         0.137840062
     0.287973076         0.378693581         0.637840033
     0.287973076         0.712026894         0.137840062
     0.287973076         0.712026894         0.637840033
     0.621306419         0.045360237         0.137840062
     0.621306419         0.045360237         0.637840033
     0.621306419         0.378693581         0.137840062
     0.621306419         0.378693581         0.637840033
     0.621306419         0.712026894         0.137840062
     0.621306419         0.712026894         0.637840033
     0.954639733         0.045360237         0.137840062
     0.954639733         0.045360237         0.637840033
     0.954639733         0.378693581         0.137840062
     0.954639733         0.378693581         0.637840033
     0.954639733         0.712026894         0.137840062
     0.954639733         0.712026894         0.637840033
