Ca3 Mn6 P6 O24
1.0
        8.6738309860         0.0000000000         0.0000000000
       -0.0737464073         8.6735174780         0.0000000000
        4.3375972850         4.3746344026        11.9360438169
   Ca   Mn    P    O
    5   12   12   48
Direct
     0.499045014         0.499327987         0.375324994
     0.500671983         0.500954986         0.124674998
     0.988350987         0.011649000         0.000000000
     0.988350987         0.011649000         0.500000000
     0.499045014         0.499327987         0.875324965
     0.378996015         0.065110996         0.055902500
     0.378996015         0.065110996         0.555902481
     0.735581994         0.264418006         0.250000000
     0.735581994         0.264418006         0.750000000
     0.065499999         0.385100991         0.301725507
     0.065499999         0.385100991         0.801725507
     0.934889019         0.621003985         0.444097489
     0.934889019         0.621003985         0.944097519
     0.270040005         0.729960024         0.000000000
     0.270040005         0.729960024         0.500000000
     0.614898980         0.934499979         0.198274493
     0.614898980         0.934499979         0.698274493
     0.128720999         0.347070992         0.059540000
     0.128720999         0.347070992         0.559539974
     0.290470988         0.709528983         0.250000000
     0.290470988         0.709528983         0.750000000
     0.343492001         0.128987998         0.312415510
     0.343492001         0.128987998         0.812415481
     0.652929008         0.871279001         0.440459996
     0.652929008         0.871279001         0.940459967
     0.710020006         0.289979994         0.000000000
     0.710020006         0.289979994         0.500000000
     0.871011972         0.656508029         0.187584504
     0.871011972         0.656508029         0.687584519
     0.176873997         0.175055996         0.060129501
     0.176873997         0.175055996         0.560129523
     0.171204001         0.732595026         0.357106000
     0.171204001         0.732595026         0.857105970
     0.042569000         0.407611012         0.469336003
     0.042569000         0.407611012         0.969336033
     0.465754986         0.724838972         0.257576495
     0.465754986         0.724838972         0.757576466
     0.722025990         0.528999984         0.220164001
     0.722025990         0.528999984         0.720164001
     0.999723017         0.330486000         0.174618497
     0.999723017         0.330486000         0.674618483
     0.669514000         0.000277000         0.325381488
     0.669514000         0.000277000         0.825381517
     0.470999986         0.277974010         0.279835999
     0.470999986         0.277974010         0.779835999
     0.275160998         0.534245014         0.242423505
     0.275160998         0.534245014         0.742423534
     0.592388988         0.957431018         0.030664001
     0.592388988         0.957431018         0.530664027
     0.267405003         0.828796029         0.142894000
     0.267405003         0.828796029         0.642894030
     0.168137997         0.177030995         0.324860990
     0.168137997         0.177030995         0.824860990
     0.824944019         0.823126018         0.439870507
     0.824944019         0.823126018         0.939870477
     0.736427009         0.168703005         0.105732501
     0.736427009         0.168703005         0.605732501
     0.402532011         0.044845998         0.220565006
     0.402532011         0.044845998         0.720565021
     0.726045012         0.465768993         0.006757500
     0.726045012         0.465768993         0.506757498
     0.529740989         0.720036983         0.470977008
     0.529740989         0.720036983         0.970977008
     0.324490994         0.995765984         0.427165002
     0.324490994         0.995765984         0.927165031
     0.004234000         0.675508976         0.072834998
     0.004234000         0.675508976         0.572834969
     0.279962987         0.470259011         0.029022999
     0.279962987         0.470259011         0.529022992
     0.534231007         0.273954988         0.493242502
     0.534231007         0.273954988         0.993242502
     0.955154002         0.597468019         0.279435009
     0.955154002         0.597468019         0.779435039
     0.831296980         0.263572991         0.394267499
     0.831296980         0.263572991         0.894267499
     0.822969019         0.831861973         0.175138995
     0.822969019         0.831861973         0.675139010
