Ca V  Fe P  O 
 1.0000000000000000
     4.9540980000000001   -0.0063850000000000    0.1144660000000000
    -0.0218820000000000    8.0950270000000000   -0.0353469999999990
    -2.1578840000000001   -0.0039520000000000    6.6925889999999999
 Ca  V   Fe  P   O  
   1   1   1   4  14
Cartesian
  1.4408173067878784  7.0874366437017979  5.6940221862252001
 -0.5771509886178710  3.9546775351816752  4.8954128356232474
  3.3181194994126617  0.0302700435758243  2.0999657146418809
  0.8325094652879153  1.5121636161750525  3.4106855110762626
  0.9163474026587431  6.1829826011728724  0.7336541142349857
  1.8478849358456770  2.1913178963032771  6.1689492995515058
  1.9548534462449918  5.3929440847720143  3.3180920405742498
 -1.6655135816171072  2.5687515625740440  5.7343781674471428
 -1.3334705912630600  5.4816896523972511  6.0701700756987185
 -0.1742421919618556  0.3697326628977530  3.2387425185385661
  0.2182226966739067  2.8892880846891766  3.4149343239996255
  0.7364146393000921  5.4128289154747273  4.2752366567374152
  0.8871379546728265  3.3531111634042281  6.2456542965010753
  1.3633296875394754  1.1925210278956906  4.9292912812965453
  1.4224914842514578  5.1254346737925305  1.8227229567472616
  1.9522093205743993  7.3150781305037222  0.6493897131286072
  2.0474093745746620  1.4297616591442406  2.5058395599890728
  2.5014827848137036  6.8383509622831378  3.4218248972502359
  2.9709986799196288  4.3251071832529773  3.5924161436492401
  4.0002266817979946  1.1361565507345113  0.5768913155365180
  4.4584225254718337  6.6437544232853227  1.1943287266586469
