Ca Mn V  P  O 
 1.0000000000000000
     7.3615770339999997    0.0000000000000000    0.0000000000000000
     0.1764880905000000    8.2527450794000003    0.0000000000000000
     0.4044067635000000    0.4538283880000000   18.2490875539999990
 Ca  Mn  V   P   O  
   3   4   4  16  56
Selective dynamics
Cartesian
  5.4082883842689844  7.7464888987235980  8.8266276824544967   T   T   T
  1.2230167706121733  7.6012141004102212  2.2412341721461537   T   T   T
  6.8243806732922678  3.8170430535482520 15.9769046679379247   T   T   T
  4.5749315021498642  0.1101434792388738  2.3661243192786356   T   T   T
  2.6529387315325463  0.1518627694837427  6.8621373185720049   T   T   T
  1.0279508903757790  0.3868685858895300 11.5161575635754083   T   T   T
  6.7627141864216744  8.5112505821296658 16.0091613782288711   T   T   T
  1.2569706555811491  4.0752569067513518  2.2533352575370946   T   T   T
  6.9219839412962063  4.3068766115030623  6.7645378449967737   T   T   T
  5.1319622442812278  4.4432375913794697 11.3964968106396043   T   T   T
  3.3856948956212061  4.5811497310068292 15.9140263569789209   T   T   T
  6.4320735162359028  6.1884406238613945  0.5194605467206983   T   T   T
  3.5508377456214397  5.6256370386357295  0.5412359518929276   T   T   T
  6.6820250132454246  2.3394812306667556  4.0730935764260874   T   T   T
  2.1821361145122720  1.6706910445681984  4.1061355498059688   T   T   T
  4.7753876688630053  6.4678916259695916  5.1525086489369825   T   T   T
  1.8991330849292651  5.8109465266193583  5.0172058387456104   T   T   T
  4.9756190233761881  2.5415937188137909  8.6374841577558410   T   T   T
  7.5089001280846741  5.8525511371719947  9.6296437790341205   T   T   T
  0.5401644104204888  1.8411057165985967  8.6506940280339748   T   T   T
  2.9433422921351884  6.5777541623711704  9.7352479112730137   T   T   T
  6.0390511569738718  1.9377036488225121 13.1532256375225689   T   T   T
  3.2014001617658603  2.6441137366177885 13.1795522862771683   T   T   T
  5.7587362075159705  6.1399672939009102 14.0901852996438244   T   T   T
  1.2825714485628148  6.7380845214454457 14.2367291195623817   T   T   T
  4.3700447960601618  1.9173189518888059 17.7128553959839792   T   T   T
  1.5136652008165969  2.6017620709318487 17.7768777881244269   T   T   T
  5.1167515470887084  5.3181759401123614  0.8521710442832860   T   T   T
  6.3660140619296417  7.5276771553404362  1.3096494920308905   T   T   T
  4.3070505589264094  1.4739006248193909  0.9497998177444709   T   T   T
  3.2216114580773154  6.9948595902566462  1.1248959911421057   T   T   T
  2.8379711555382019  4.4868737432426835  1.3107875607074682   T   T   T
  7.0631220333015809  3.5442311941888867  3.1415876944772307   T   T   T
  1.0024945430983701  2.4434196899450886  1.0280074021418717   T   T   T
  0.2670728186683878  5.4188336471644636  1.1081119029171527   T   T   T
  5.5020993664034767  1.5657454777125430  3.5897746914606694   T   T   T
  5.0499241984136019  6.9274317931880862  3.7200060437272047   T   T   T
  2.7627240915438769  0.5585873862508801  3.2071909252736579   T   T   T
  2.3518007854568128  3.0697279071887089  3.5356163919768155   T   T   T
  1.5146824081820955  5.6723116348249096  3.5025555123046175   T   T   T
  6.6470906352519838  2.7862740844375815  5.5267408569221450   T   T   T
  5.8949129352780476  5.5769161387294730  5.6665707432630308   T   T   T
  0.5855706439171972  1.2909752367156113  3.9227499820295302   T   T   T
  3.4787021682448249  5.4900183026006024  5.1280217543653066   T   T   T
  4.5169001664713830  7.6322725597023116  6.1480639305253160   T   T   T
  2.5862338460633341  1.6175739869584465  5.5638515672379585   T   T   T
  1.6665540330117603  7.2316524554512016  5.4602396532391895   T   T   T
  1.2131716074491792  4.7321419506392797  5.8535009416130475   T   T   T
  7.0725531344946200  5.7881720046131093  8.1395474152011111   T   T   T
  5.2811524173682134  3.6796600562526969  7.6651041490999523   T   T   T
  6.2906548294871456  1.5267031164006817  8.6587085706453752   T   T   T
  3.9310336573676490  1.5091735403660467  8.2575709037773510   T   T   T
  3.2020889860801294  7.0041149567560641  8.2704398028859512   T   T   T
  1.0391830475604604  0.6881425031570951  7.7726750220777463   T   T   T
  7.2610063420429514  7.2837055166490012 10.0975561552330220   T   T   T
  0.6587678330928496  3.2275302801001859  8.0270922265494491   T   T   T
  6.8248406240236026  4.7858994492615450 10.4650709890658149   T   T   T
  4.8154728361121899  3.0252141668785320 10.0808606543897401   T   T   T
  4.2123627400435426  5.8279262267837000 10.1546393686419965   T   T   T
  1.7269909064219504  5.5425461857003517  9.7679909921917485   T   T   T
  2.7341717743075353  7.8077622570183172 10.6079995755133751   T   T   T
  0.9866583819645449  1.7771573265519496 10.1010438527598403   T   T   T
  6.6589629207128826  0.8577814426887541 12.2772551554665448   T   T   T
  6.2118845521454782  3.3665225742273290 12.5969468301006469   T   T   T
  5.4166287420525032  5.9675301270768175 12.6122979584488775   T   T   T
  3.5860300071727225  3.8779006652335242 12.2711193673460759   T   T   T
  4.4596685241190448  1.6287464222337984 13.0954093230340067   T   T   T
  7.3424820135388629  5.7118135829257151 14.3288757079653095   T   T   T
  2.0122522028464016  1.8915895048195650 12.6946481755359670   T   T   T
  6.4799577890681821  1.9511721671741817 14.6276843808268620   T   T   T
  1.4192466665855972  7.1304304657429647 12.7735923573664305   T   T   T
  5.5932898285626358  7.5411861433200045 14.6051186441084138   T   T   T
  5.1278965226662354  5.0320845241695702 14.9765031117531571   T   T   T
  3.0847542151007414  3.1208238884341113 14.6305867268916092   T   T   T
  2.4115280179354208  5.8778144223791466 14.7423152186735571   T   T   T
  7.6492037425449828  1.8904179290566907 17.2107174444517490   T   T   T
  6.9385183071481018  6.7953529200953371 17.2630952726442857   T   T   T
  1.0006203904069044  7.9416560605505326 15.1574179847278412   T   T   T
  4.9870621778902375  0.7570130529511598 16.9383732976641532   T   T   T
  4.6479452594599406  3.2878619457004725 17.0524519742945166   T   T   T
  3.7230437690360367  5.9607881230812545 17.2916112995507874   T   T   T
  1.7170789969094329  3.8936892320406518 16.9251624701924577   T   T   T
  2.7724788264785536  1.6256152596553393 17.5695696076619825   T   T   T
