Ca Ti O                                 
   1.00000000000000     
    12.4370679855000006    0.0000000000000000    0.0000000000000000
    -1.0659715856000000   13.9755822961000007    0.0000000000000000
    -0.5859648079000001   -2.0967458091000002   10.1808118850000007
Ca Ti O              
11              48              96
Selective dynamics
Direct
  0.8650543652114990  0.7876282064336380  0.6846843565910206   T   T   T
  0.0150694846526136  0.2140674634411326  0.0683840049156146   T   T   T
  0.0135424673500353  0.7165583176475181  0.0709271568999839   T   T   T
  0.5138656366762291  0.2131488485485704  0.0661186656985180   T   T   T
  0.5166288299279742  0.7152956218560220  0.0719489034696679   T   T   T
  0.3718526073262325  0.2871998205927824  0.7010443740053560   T   T   T
  0.3737406493648265  0.7850209148188938  0.7024203533964055   T   T   T
  0.8720424331918153  0.2869987560757608  0.7018170323138833   T   T   T
  0.2218065105090972  0.2833041848472462  0.4120435446366741   T   T   T
  0.2299688780751268  0.7849964781295924  0.4186888031689335   T   T   T
  0.7231844029665737  0.2795685213411545  0.4130227841654417   T   T   T
  0.0097379062157401  0.4850747923954017  0.9898384869794370   T   T   T
  0.0060822585001290  0.9836725993328201  0.9950373738105540   T   T   T
  0.5083142194569987  0.4856933186788197  0.9902414437221196   T   T   T
  0.5130920650099711  0.9819608235206303  0.9848746481507860   T   T   T
  0.1238404802416682  0.9976076247319483  0.2480848095731361   T   T   T
  0.1220488225408332  0.5017796901844562  0.2507400432042530   T   T   T
  0.6266381388375706  0.0018416524779568  0.2483280718070446   T   T   T
  0.6238911108524334  0.4993558612792270  0.2489243046141567   T   T   T
  0.3674351122207185  0.0130788778625615  0.7596227885295548   T   T   T
  0.3692652796179630  0.5166368487530448  0.7600036203758691   T   T   T
  0.8714495687502861  0.0166933377734537  0.7609117672991061   T   T   T
  0.8670595051828016  0.5151345787478405  0.7602366976521751   T   T   T
  0.2476319358526098  0.0110395951548199  0.5051457650353868   T   T   T
  0.2500577138298112  0.5121807069983788  0.5041731708732442   T   T   T
  0.7518220561133333  0.0020539662211405  0.4974022228774757   T   T   T
  0.7465281711139511  0.5090089002138782  0.5072444687727256   T   T   T
  0.1284545756912365  0.1502264662550346  0.7883716564476160   T   T   T
  0.1271809804074451  0.6511444480137669  0.7886491086751448   T   T   T
  0.6304723712736973  0.1479077692799535  0.7864689555956730   T   T   T
  0.6309881455353263  0.6507534338048302  0.7900992847006947   T   T   T
  0.0061019793812349  0.1433251121479344  0.5384796303683927   T   T   T
  0.0105930072999385  0.6441294765287111  0.5392817924249300   T   T   T
  0.5097242837915203  0.1431974768701778  0.5406256747861420   T   T   T
  0.5176660150468351  0.6506603255937833  0.5320698537980206   T   T   T
  0.3877407838075442  0.1459567575497687  0.2975305408815601   T   T   T
  0.3877730012237066  0.6458154493542025  0.2964608251704064   T   T   T
  0.8902541167017475  0.1455756896779832  0.2990537451402062   T   T   T
  0.8787610194260296  0.6504005733273246  0.3056544528701508   T   T   T
  0.2597753112943337  0.1446116863718530  0.0450418009271303   T   T   T
  0.2615540437022048  0.6475535928563900  0.0465672634396839   T   T   T
  0.7622298085262145  0.1457435320561871  0.0463573363238083   T   T   T
  0.7608929989089432  0.6475110211388682  0.0508329767219422   T   T   T
  0.2472522423170247  0.3514531418280455  0.9644399894790894   T   T   T
  0.2465722963640786  0.8507666750103127  0.9631484779033670   T   T   T
  0.7474798812046544  0.3499848967905805  0.9644216523151528   T   T   T
  0.7489590016118726  0.8505971526147462  0.9624377963931181   T   T   T
  0.1190238565850805  0.3553716054142271  0.7057648376374104   T   T   T
  0.1160859378735140  0.8546612549299653  0.7082021417685240   T   T   T
  0.6178226475964337  0.3541127302709626  0.7081432424520813   T   T   T
  0.6218416841841190  0.8531710171352245  0.6949579541680677   T   T   T
  0.3644922634334620  0.3553914603623696  0.2013993830820411   T   T   T
  0.3651814457534073  0.8570835556815055  0.2036833578877406   T   T   T
  0.8652004641509734  0.3559547068919997  0.2029588501513047   T   T   T
  0.8546633052123696  0.8505272817029095  0.2140436883883083   T   T   T
  0.4866004944917606  0.3552179125707582  0.4529047891294269   T   T   T
  0.5005043495087875  0.8529483912585860  0.4520946767343403   T   T   T
  0.9876113232989638  0.3557425592731889  0.4545549134993152   T   T   T
  0.9878675831541983  0.8546046418963442  0.4503647716379930   T   T   T
  0.0064667978462225  0.0780470648083309  0.8646399536682452   T   T   T
  0.0050358618500965  0.5786220658750878  0.8632040414503095   T   T   T
  0.5065384023867381  0.0769200659384239  0.8607183729910304   T   T   T
  0.5060133872788910  0.5800459718234592  0.8621216653126851   T   T   T
  0.2564022114988518  0.0787625883029648  0.3550123360982553   T   T   T
  0.2541885085441749  0.5811219102820715  0.3555142976790933   T   T   T
  0.7549407276293962  0.0806125942896259  0.3529936685515551   T   T   T
  0.7579222914101251  0.5703119495685556  0.3520326718661764   T   T   T
  0.3817824421288449  0.0796509165603609  0.6076832080576438   T   T   T
  0.3822916294087477  0.5795308088057283  0.6079047258110251   T   T   T
  0.8784990171726008  0.0830258093748455  0.6119239855551299   T   T   T
  0.8811540958540434  0.5799265346457148  0.6069382996081600   T   T   T
  0.1284558462722103  0.0757940048720656  0.1020582132792924   T   T   T
  0.1267326495030403  0.5770142359850823  0.1006918303713391   T   T   T
  0.6279276959581139  0.0769433297567730  0.0979688103902490   T   T   T
  0.6280298477139112  0.5765204792499645  0.1018846026064750   T   T   T
  0.1413099653838259  0.0874316886887954  0.6045084951791679   T   T   T
  0.1423249549901371  0.5887706100004735  0.6048826334787094   T   T   T
  0.6410774913498827  0.0878167835836479  0.6036513457487445   T   T   T
  0.6427759557540043  0.5874366145125052  0.6057384937332202   T   T   T
  0.2639759309115206  0.0874126858817590  0.8518281602377584   T   T   T
  0.2636188090445089  0.5888577146349903  0.8516695435205008   T   T   T
  0.7662253324129153  0.0892424399678475  0.8539781014293339   T   T   T
  0.7632313481108639  0.5882327222524069  0.8541800833644402   T   T   T
  0.0186420941611871  0.0853916126488201  0.3513586585182296   T   T   T
  0.0109652916386835  0.5861533975396398  0.3501902406234407   T   T   T
  0.5157888763202223  0.0883633898616907  0.3496221571010878   T   T   T
  0.5144889550837206  0.5825579442817670  0.3480237078054316   T   T   T
  0.3885510287871128  0.0911734611974353  0.1050894600840806   T   T   T
  0.3904314905790542  0.5899740899242616  0.1025744661490293   T   T   T
  0.8919685783541098  0.0889400509043980  0.1030864217729430   T   T   T
  0.8867681703907877  0.5929112880422878  0.1074103364708208   T   T   T
  0.1599908243926791  0.2299186439673733  0.9744114556003325   T   T   T
  0.1587363662756260  0.7301940438351195  0.9744870709728133   T   T   T
  0.6604245203653178  0.2293796264351755  0.9743271839493488   T   T   T
  0.6590742901598716  0.7300171476530366  0.9740382391328026   T   T   T
  0.0230510573884573  0.2284454447557991  0.7358972001292656   T   T   T
  0.0204173490462907  0.7309855552651499  0.7341060872434682   T   T   T
  0.5238894085437806  0.2281132764423432  0.7348121995561527   T   T   T
  0.5277688130943190  0.7282166479062653  0.7266207360581376   T   T   T
  0.2742298493593651  0.2305115580196997  0.2184921554938200   T   T   T
  0.2719358895881641  0.7304877700321981  0.2191086893692216   T   T   T
  0.7763141032518064  0.2306716105127222  0.2186546867857686   T   T   T
  0.7709241768308885  0.7308826505169890  0.2276472847405699   T   T   T
  0.3880217849778163  0.2339906949990862  0.4796681149815427   T   T   T
  0.3950550757971243  0.7314914579509093  0.4819764213521367   T   T   T
  0.8892411639241260  0.2334013668915418  0.4819152826986723   T   T   T
  0.8952765718913511  0.7324285206588925  0.4777395500280051   T   T   T
  0.2176422981219801  0.2696988487746310  0.7721157400306211   T   T   T
  0.2175032078925909  0.7694464312978440  0.7715413171512324   T   T   T
  0.7176893333514087  0.2689609100214909  0.7715360626290746   T   T   T
  0.7204939789330709  0.7696310654473351  0.7756730464230657   T   T   T
  0.0896121072734033  0.2671464737026028  0.5300131010078530   T   T   T
  0.0931112757734454  0.7683333161543047  0.5299361056453549   T   T   T
  0.5887584419255631  0.2681334021704060  0.5291378015737536   T   T   T
  0.6045909407434209  0.7675035286561851  0.5189694071706441   T   T   T
  0.4778547377638986  0.2687740103274479  0.2763903643019674   T   T   T
  0.4739722887731475  0.7677964232385079  0.2748410343586585   T   T   T
  0.9798122529616293  0.2679295203784520  0.2778593411506378   T   T   T
  0.9770765382522910  0.7712132763658488  0.2772982516356350   T   T   T
  0.3563719443960736  0.2679627621422895  0.0161601701739187   T   T   T
  0.3569979814982105  0.7673419481026045  0.0173819547736684   T   T   T
  0.8577003803126573  0.2679371558815191  0.0162400636431315   T   T   T
  0.8543755696994566  0.7692455544053303  0.0224018942184827   T   T   T
  0.1116434399925765  0.4104475283195157  0.8960153709081169   T   T   T
  0.1109832136094724  0.9099798086292736  0.8970482420715058   T   T   T
  0.6115849957953543  0.4103641692421576  0.8956720229522119   T   T   T
  0.6139428720558371  0.9088151487703584  0.8929901095553063   T   T   T
  0.4874062958644672  0.4103407102012184  0.6475698997951298   T   T   T
  0.4892124873329706  0.9075433735262450  0.6445515075401005   T   T   T
  0.9865488571756202  0.4109025755884161  0.6481191275175888   T   T   T
  0.9881277308332983  0.9116606820730482  0.6476520553630962   T   T   T
  0.3552774246350552  0.4102082768597555  0.3971540205852193   T   T   T
  0.3612357260503387  0.9087622192776692  0.3951334355152696   T   T   T
  0.8551129660139765  0.4072311811745948  0.3980536042310732   T   T   T
  0.8625459770834709  0.9187517382160379  0.4027320961418965   T   T   T
  0.2335903136256405  0.4139575238368636  0.1470939051583855   T   T   T
  0.2337668608395020  0.9126644712286520  0.1472139968889934   T   T   T
  0.7336995988184398  0.4118044918595771  0.1453988615175632   T   T   T
  0.7321183992745190  0.9137125224707745  0.1443489305118248   T   T   T
  0.2481296262436743  0.4193397516968460  0.6410501970219258   T   T   T
  0.2492133601399331  0.9181699860744530  0.6404878632086053   T   T   T
  0.7475830499825662  0.4178446468946149  0.6410707858170639   T   T   T
  0.7512168610844085  0.9244735239097750  0.6472212239338404   T   T   T
  0.3700961591425127  0.4219031141246532  0.8879945923163390   T   T   T
  0.3712256387180020  0.9203598577711745  0.8882412581701615   T   T   T
  0.8698615521161628  0.4220075212608236  0.8893190065555174   T   T   T
  0.8706424342878165  0.9207008177673259  0.8878268495440409   T   T   T
  0.1204636297912955  0.4243179627366587  0.4020312183663322   T   T   T
  0.1237519724117959  0.9219891040811135  0.3995566040603009   T   T   T
  0.6199375194545169  0.4220077951600700  0.4003093551523662   T   T   T
  0.6184610031972184  0.9300405420387534  0.3957741462945918   T   T   T
  0.4955714200987344  0.4188466745317498  0.1403947690095393   T   T   T
  0.4956170805117210  0.9210532091890471  0.1404776918151569   T   T   T
  0.9951557701481448  0.4191379458993438  0.1409720796793010   T   T   T
  0.9935705120356531  0.9191364231013708  0.1448072118710400   T   T   T
 
  0.00000000E+00  0.00000000E+00  0.00000000E+00
  0.00000000E+00  0.00000000E+00  0.00000000E+00
  0.00000000E+00  0.00000000E+00  0.00000000E+00
  0.00000000E+00  0.00000000E+00  0.00000000E+00
  0.00000000E+00  0.00000000E+00  0.00000000E+00
  0.00000000E+00  0.00000000E+00  0.00000000E+00
  0.00000000E+00  0.00000000E+00  0.00000000E+00
  0.00000000E+00  0.00000000E+00  0.00000000E+00
  0.00000000E+00  0.00000000E+00  0.00000000E+00
  0.00000000E+00  0.00000000E+00  0.00000000E+00
  0.00000000E+00  0.00000000E+00  0.00000000E+00
  0.00000000E+00  0.00000000E+00  0.00000000E+00
  0.00000000E+00  0.00000000E+00  0.00000000E+00
  0.00000000E+00  0.00000000E+00  0.00000000E+00
  0.00000000E+00  0.00000000E+00  0.00000000E+00
  0.00000000E+00  0.00000000E+00  0.00000000E+00
  0.00000000E+00  0.00000000E+00  0.00000000E+00
  0.00000000E+00  0.00000000E+00  0.00000000E+00
  0.00000000E+00  0.00000000E+00  0.00000000E+00
  0.00000000E+00  0.00000000E+00  0.00000000E+00
  0.00000000E+00  0.00000000E+00  0.00000000E+00
  0.00000000E+00  0.00000000E+00  0.00000000E+00
  0.00000000E+00  0.00000000E+00  0.00000000E+00
  0.00000000E+00  0.00000000E+00  0.00000000E+00
  0.00000000E+00  0.00000000E+00  0.00000000E+00
  0.00000000E+00  0.00000000E+00  0.00000000E+00
  0.00000000E+00  0.00000000E+00  0.00000000E+00
  0.00000000E+00  0.00000000E+00  0.00000000E+00
  0.00000000E+00  0.00000000E+00  0.00000000E+00
  0.00000000E+00  0.00000000E+00  0.00000000E+00
  0.00000000E+00  0.00000000E+00  0.00000000E+00
  0.00000000E+00  0.00000000E+00  0.00000000E+00
  0.00000000E+00  0.00000000E+00  0.00000000E+00
  0.00000000E+00  0.00000000E+00  0.00000000E+00
  0.00000000E+00  0.00000000E+00  0.00000000E+00
  0.00000000E+00  0.00000000E+00  0.00000000E+00
  0.00000000E+00  0.00000000E+00  0.00000000E+00
  0.00000000E+00  0.00000000E+00  0.00000000E+00
  0.00000000E+00  0.00000000E+00  0.00000000E+00
  0.00000000E+00  0.00000000E+00  0.00000000E+00
  0.00000000E+00  0.00000000E+00  0.00000000E+00
  0.00000000E+00  0.00000000E+00  0.00000000E+00
  0.00000000E+00  0.00000000E+00  0.00000000E+00
  0.00000000E+00  0.00000000E+00  0.00000000E+00
  0.00000000E+00  0.00000000E+00  0.00000000E+00
  0.00000000E+00  0.00000000E+00  0.00000000E+00
  0.00000000E+00  0.00000000E+00  0.00000000E+00
  0.00000000E+00  0.00000000E+00  0.00000000E+00
  0.00000000E+00  0.00000000E+00  0.00000000E+00
  0.00000000E+00  0.00000000E+00  0.00000000E+00
  0.00000000E+00  0.00000000E+00  0.00000000E+00
  0.00000000E+00  0.00000000E+00  0.00000000E+00
  0.00000000E+00  0.00000000E+00  0.00000000E+00
  0.00000000E+00  0.00000000E+00  0.00000000E+00
  0.00000000E+00  0.00000000E+00  0.00000000E+00
  0.00000000E+00  0.00000000E+00  0.00000000E+00
  0.00000000E+00  0.00000000E+00  0.00000000E+00
  0.00000000E+00  0.00000000E+00  0.00000000E+00
  0.00000000E+00  0.00000000E+00  0.00000000E+00
  0.00000000E+00  0.00000000E+00  0.00000000E+00
  0.00000000E+00  0.00000000E+00  0.00000000E+00
  0.00000000E+00  0.00000000E+00  0.00000000E+00
  0.00000000E+00  0.00000000E+00  0.00000000E+00
  0.00000000E+00  0.00000000E+00  0.00000000E+00
  0.00000000E+00  0.00000000E+00  0.00000000E+00
  0.00000000E+00  0.00000000E+00  0.00000000E+00
  0.00000000E+00  0.00000000E+00  0.00000000E+00
  0.00000000E+00  0.00000000E+00  0.00000000E+00
  0.00000000E+00  0.00000000E+00  0.00000000E+00
  0.00000000E+00  0.00000000E+00  0.00000000E+00
  0.00000000E+00  0.00000000E+00  0.00000000E+00
  0.00000000E+00  0.00000000E+00  0.00000000E+00
  0.00000000E+00  0.00000000E+00  0.00000000E+00
  0.00000000E+00  0.00000000E+00  0.00000000E+00
  0.00000000E+00  0.00000000E+00  0.00000000E+00
  0.00000000E+00  0.00000000E+00  0.00000000E+00
  0.00000000E+00  0.00000000E+00  0.00000000E+00
  0.00000000E+00  0.00000000E+00  0.00000000E+00
  0.00000000E+00  0.00000000E+00  0.00000000E+00
  0.00000000E+00  0.00000000E+00  0.00000000E+00
  0.00000000E+00  0.00000000E+00  0.00000000E+00
  0.00000000E+00  0.00000000E+00  0.00000000E+00
  0.00000000E+00  0.00000000E+00  0.00000000E+00
  0.00000000E+00  0.00000000E+00  0.00000000E+00
  0.00000000E+00  0.00000000E+00  0.00000000E+00
  0.00000000E+00  0.00000000E+00  0.00000000E+00
  0.00000000E+00  0.00000000E+00  0.00000000E+00
  0.00000000E+00  0.00000000E+00  0.00000000E+00
  0.00000000E+00  0.00000000E+00  0.00000000E+00
  0.00000000E+00  0.00000000E+00  0.00000000E+00
  0.00000000E+00  0.00000000E+00  0.00000000E+00
  0.00000000E+00  0.00000000E+00  0.00000000E+00
  0.00000000E+00  0.00000000E+00  0.00000000E+00
  0.00000000E+00  0.00000000E+00  0.00000000E+00
  0.00000000E+00  0.00000000E+00  0.00000000E+00
  0.00000000E+00  0.00000000E+00  0.00000000E+00
  0.00000000E+00  0.00000000E+00  0.00000000E+00
  0.00000000E+00  0.00000000E+00  0.00000000E+00
  0.00000000E+00  0.00000000E+00  0.00000000E+00
  0.00000000E+00  0.00000000E+00  0.00000000E+00
  0.00000000E+00  0.00000000E+00  0.00000000E+00
  0.00000000E+00  0.00000000E+00  0.00000000E+00
  0.00000000E+00  0.00000000E+00  0.00000000E+00
  0.00000000E+00  0.00000000E+00  0.00000000E+00
  0.00000000E+00  0.00000000E+00  0.00000000E+00
  0.00000000E+00  0.00000000E+00  0.00000000E+00
  0.00000000E+00  0.00000000E+00  0.00000000E+00
  0.00000000E+00  0.00000000E+00  0.00000000E+00
  0.00000000E+00  0.00000000E+00  0.00000000E+00
  0.00000000E+00  0.00000000E+00  0.00000000E+00
  0.00000000E+00  0.00000000E+00  0.00000000E+00
  0.00000000E+00  0.00000000E+00  0.00000000E+00
  0.00000000E+00  0.00000000E+00  0.00000000E+00
  0.00000000E+00  0.00000000E+00  0.00000000E+00
  0.00000000E+00  0.00000000E+00  0.00000000E+00
  0.00000000E+00  0.00000000E+00  0.00000000E+00
  0.00000000E+00  0.00000000E+00  0.00000000E+00
  0.00000000E+00  0.00000000E+00  0.00000000E+00
  0.00000000E+00  0.00000000E+00  0.00000000E+00
  0.00000000E+00  0.00000000E+00  0.00000000E+00
  0.00000000E+00  0.00000000E+00  0.00000000E+00
  0.00000000E+00  0.00000000E+00  0.00000000E+00
  0.00000000E+00  0.00000000E+00  0.00000000E+00
  0.00000000E+00  0.00000000E+00  0.00000000E+00
  0.00000000E+00  0.00000000E+00  0.00000000E+00
  0.00000000E+00  0.00000000E+00  0.00000000E+00
  0.00000000E+00  0.00000000E+00  0.00000000E+00
  0.00000000E+00  0.00000000E+00  0.00000000E+00
  0.00000000E+00  0.00000000E+00  0.00000000E+00
  0.00000000E+00  0.00000000E+00  0.00000000E+00
  0.00000000E+00  0.00000000E+00  0.00000000E+00
  0.00000000E+00  0.00000000E+00  0.00000000E+00
  0.00000000E+00  0.00000000E+00  0.00000000E+00
  0.00000000E+00  0.00000000E+00  0.00000000E+00
  0.00000000E+00  0.00000000E+00  0.00000000E+00
  0.00000000E+00  0.00000000E+00  0.00000000E+00
  0.00000000E+00  0.00000000E+00  0.00000000E+00
  0.00000000E+00  0.00000000E+00  0.00000000E+00
  0.00000000E+00  0.00000000E+00  0.00000000E+00
  0.00000000E+00  0.00000000E+00  0.00000000E+00
  0.00000000E+00  0.00000000E+00  0.00000000E+00
  0.00000000E+00  0.00000000E+00  0.00000000E+00
  0.00000000E+00  0.00000000E+00  0.00000000E+00
  0.00000000E+00  0.00000000E+00  0.00000000E+00
  0.00000000E+00  0.00000000E+00  0.00000000E+00
  0.00000000E+00  0.00000000E+00  0.00000000E+00
  0.00000000E+00  0.00000000E+00  0.00000000E+00
  0.00000000E+00  0.00000000E+00  0.00000000E+00
  0.00000000E+00  0.00000000E+00  0.00000000E+00
  0.00000000E+00  0.00000000E+00  0.00000000E+00
  0.00000000E+00  0.00000000E+00  0.00000000E+00
  0.00000000E+00  0.00000000E+00  0.00000000E+00
  0.00000000E+00  0.00000000E+00  0.00000000E+00
  0.00000000E+00  0.00000000E+00  0.00000000E+00
  0.00000000E+00  0.00000000E+00  0.00000000E+00
