Ca Ti O                                 
   1.00000000000000     
    14.6439819335999992    0.0000000000000000    0.0000000000000000
    13.3873346942999998    5.9351054458999997    0.0000000000000000
     6.3008069636000004    1.3340776753000001    7.1998947533999997
   Ca   Ti   O 
     3    16    32
Selective dynamics
Direct
  0.7471760117306219  0.3387275998769162  0.8532545924269701   T   T   T
  0.3005859765898001  0.3068418909482566  0.9095159002482204   T   T   T
  0.8076870122247896  0.8117067177059512  0.8925310586070749   T   T   T
  0.1837184824740936  0.1951762384740182  0.4165181312811040   T   T   T
  0.1760878618844644  0.6814679329800168  0.4574430285888775   T   T   T
  0.6753321582099444  0.1806855477618034  0.4610725703156159   T   T   T
  0.6890524793839992  0.6955511071242449  0.4052451360248624   T   T   T
  0.4301952440986169  0.4403578486819271  0.7871098298823241   T   T   T
  0.4105955582605115  0.9165299034941440  0.7883222191060825   T   T   T
  0.9208172025712765  0.4242633608310138  0.7825449245314049   T   T   T
  0.9302131205644828  0.9422381310418909  0.7903892896408093   T   T   T
  0.0755687696078308  0.0826495783776058  0.1476605002174854   T   T   T
  0.0950197375772226  0.5886479466198478  0.1625717313460906   T   T   T
  0.5800074537398149  0.0993523697929329  0.1650700152649393   T   T   T
  0.5765127951696990  0.5837314082001950  0.1502129395411483   T   T   T
  0.3151740663860483  0.3169146658779860  0.5428497531568248   T   T   T
  0.3274890948980173  0.8443341264426580  0.4791942604289123   T   T   T
  0.8357176799470419  0.3445408011683107  0.4477249904731193   T   T   T
  0.8109794778989560  0.8198522737728295  0.5423710503709784   T   T   T
  0.0773008651155500  0.0795316727885800  0.3539844856439281   T   T   T
  0.0683204313639234  0.5773558400516587  0.3925455005427374   T   T   T
  0.5730935295048999  0.0744579173366937  0.3901731553709517   T   T   T
  0.5671044501002527  0.5873244243604268  0.3572025361670565   T   T   T
  0.2751142608066919  0.2878157195244239  0.2195205223654818   T   T   T
  0.2607709914879791  0.7699942295274278  0.2614627690937161   T   T   T
  0.7620431173068848  0.2689433552774517  0.2566571151991396   T   T   T
  0.7806745336214448  0.7839900303402900  0.2199716970799176   T   T   T
  0.2298295579765922  0.2225364872121219  0.7148241756664985   T   T   T
  0.2399424681243623  0.7474747631596792  0.6896697550245785   T   T   T
  0.7392530985117128  0.2511621190819216  0.6994174216871295   T   T   T
  0.7149603540178110  0.7363435116624747  0.7166182032681212   T   T   T
  0.4245359949824657  0.4291691641327239  0.6009905054811773   T   T   T
  0.4322220714188356  0.9399260869515357  0.5534988678741928   T   T   T
  0.9255473703553058  0.4409723860364366  0.5620442367029794   T   T   T
  0.9220639146018004  0.9290674855658213  0.6056155955639040   T   T   T
  0.4083918703730388  0.4124623926589213  0.3729565273053266   T   T   T
  0.4264724899454193  0.9362424840046908  0.2920209307405965   T   T   T
  0.9268818573286546  0.4389031252592818  0.2824427662629046   T   T   T
  0.9068827360308795  0.9128298942112858  0.3757742963859922   T   T   T
  0.0891406599523217  0.1175087368839803  0.8985631390509154   T   T   T
  0.1170871711603309  0.6166647447905564  0.9054356225541523   T   T   T
  0.6101181761073529  0.1229631596280794  0.9052798335076468   T   T   T
  0.6048563579458577  0.5997038909934808  0.8995028498904660   T   T   T
  0.0781668714197882  0.1127755016433469  0.5873900644809358   T   T   T
  0.0712958227810701  0.5726459211928536  0.6824890034106816   T   T   T
  0.5681031334073386  0.0773835202755870  0.6827158713667959   T   T   T
  0.5962121570258538  0.5957764833463561  0.5860338664520788   T   T   T
  0.4069933105232725  0.4046119550359865  0.0369458658303047   T   T   T
  0.3823814845270516  0.8898521737365693  0.0412234932260025   T   T   T
  0.8832118859380689  0.3918581804793709  0.0439540442201669   T   T   T
  0.8982054054137549  0.9084487952817558  0.0398838351295870   T   T   T
 
             NaN             NaN             NaN
             NaN             NaN             NaN
             NaN             NaN             NaN
             NaN             NaN             NaN
             NaN             NaN             NaN
             NaN             NaN             NaN
             NaN             NaN             NaN
             NaN             NaN             NaN
             NaN             NaN             NaN
             NaN             NaN             NaN
             NaN             NaN             NaN
             NaN             NaN             NaN
             NaN             NaN             NaN
             NaN             NaN             NaN
             NaN             NaN             NaN
             NaN             NaN             NaN
             NaN             NaN             NaN
             NaN             NaN             NaN
             NaN             NaN             NaN
             NaN             NaN             NaN
             NaN             NaN             NaN
             NaN             NaN             NaN
             NaN             NaN             NaN
             NaN             NaN             NaN
             NaN             NaN             NaN
             NaN             NaN             NaN
             NaN             NaN             NaN
             NaN             NaN             NaN
             NaN             NaN             NaN
             NaN             NaN             NaN
             NaN             NaN             NaN
             NaN             NaN             NaN
             NaN             NaN             NaN
             NaN             NaN             NaN
             NaN             NaN             NaN
             NaN             NaN             NaN
             NaN             NaN             NaN
             NaN             NaN             NaN
             NaN             NaN             NaN
             NaN             NaN             NaN
             NaN             NaN             NaN
             NaN             NaN             NaN
             NaN             NaN             NaN
             NaN             NaN             NaN
             NaN             NaN             NaN
             NaN             NaN             NaN
             NaN             NaN             NaN
             NaN             NaN             NaN
             NaN             NaN             NaN
             NaN             NaN             NaN
             NaN             NaN             NaN
