Ca Ti O 
 1.0000000000000000
    14.6439819335999992    0.0000000000000000    0.0000000000000000
    13.3873346942999998    5.9351054458999997    0.0000000000000000
     6.3008069636000004    1.3340776753000001    7.1998947533999997
 Ca  Ti  O  
   3  16  32
Selective dynamics
Cartesian
 21.0979300274641233  3.3653704760035836  6.4811677925191553   T   T   T
 14.0169180499670833  2.9725325576957538  6.3496724000504079   T   T   T
 28.0863970681346764  5.9488491129293619  6.2863213439585568   T   T   T
  7.9038381989011164  1.7030247687380458  3.1778143849392246   T   T   T
 14.6080610151328738  4.6483584552624988  3.1426895693172243   T   T   T
 15.2362897651728506  1.6765440360007431  3.1905244926748439   T   T   T
 21.9201244103978929  4.6605535407200565  3.1274046990963584   T   T   T
 17.0102831016010079  3.6163617890221640  5.6575218544418489   T   T   T
 23.5029980290349414  6.5582184519663800  5.6955163766738899   T   T   T
 24.3247207687336839  3.5993188226997468  5.6678571663423432   T   T   T
 31.0760544926933768  6.6031208224957618  5.6446618656523375   T   T   T
  3.3116917408619955  0.7162559320206889  1.0918971504924071   T   T   T
 10.0605329995367914  3.6778278691189152  1.1040332291657171   T   T   T
 10.6754722573143859  0.7230413603707627  1.1201931155319453   T   T   T
 17.4192730655380927  3.7215257738086023  1.1131761393892967   T   T   T
 12.3266914409976476  2.6124026912904155  3.6017020739942818   T   T   T
 19.1293600741391678  5.6434549204720525  3.6338931941139503   T   T   T
 19.6978787489325455  2.6143425130616138  3.4512023690935485   T   T   T
 26.3000867066212010  5.5753971862567049  3.6099039485633018   T   T   T
  4.4721294559712081  0.9527115684526317  2.6601011727021091   T   T   T
 11.1598605681360326  3.9237380524403638  2.6894857697856223   T   T   T
 11.7981381375705627  0.9505892737966445  2.6820363055999428   T   T   T
 18.4959262227400778  3.9554382394071133  2.6736136840321185   T   T   T
  9.1599717547155581  1.9517188100701146  1.6826838798463983   T   T   T
 15.9113666388509465  4.9372806968016008  1.8235143338150739   T   T   T
 16.4650791553763689  1.9704370646163467  1.7348609295394553   T   T   T
 23.1718942315870251  4.9144080646922781  1.6690848638034794   T   T   T
 10.9979822521407140  2.3250781630241306  5.0797979967504805   T   T   T
 17.7002443974228996  5.3066700966623737  5.0374855336645608   T   T   T
 18.3694921149250909  2.3617003219027581  5.0437025584765909   T   T   T
 25.0033217122544826  5.3304305203398723  5.0875052249152173   T   T   T
 15.6727763066211612  3.3240036675813505  4.2625113410824733   T   T   T
 22.4600291807866874  6.3252579214674478  4.1138648087990930   T   T   T
 23.0657226858463851  3.3688010629129437  4.1702665756132218   T   T   T
 29.6916879513059513  6.2950698047329627  4.2856609084607040   T   T   T
 13.8972866368995973  2.9414476010936945  2.4224923808756360   T   T   T
 20.6020474866550707  5.9329013912609438  2.3517243081797106   T   T   T
 21.2407549483328317  2.9727944254588623  2.2942992309544752   T   T   T
 27.9025635475305798  5.9166275572822871  2.4792346779413079   T   T   T
  8.7592952136566620  1.9433941926232823  6.5173935037274990   T   T   T
 15.4249423095661147  4.8021978645829071  6.5337794186890479   T   T   T
 16.0489969388772913  1.8709116710728348  6.5305276895297455   T   T   T
 22.7877319131331255  4.8441206728800834  6.5194867112608819   T   T   T
  6.3402691266464410  1.4357069076206161  4.4748666671546644   T   T   T
 13.0209476921222596  4.2985713106376222  4.6655537509787566   T   T   T
 13.6574801345530670  1.3616465113098857  4.6617015769605299   T   T   T
 20.3763526847787197  4.3045414229823242  4.4948231390183979   T   T   T
 11.3873516872446707  2.4076357305831193  0.2707929652582429   T   T   T
 18.0214220976939892  5.3940596409578427  0.2990897101334314   T   T   T
 18.6972082587110755  2.4392247879004079  0.3117386174186708   T   T   T
 25.3671762866204098  5.3859564407510563  0.2670478630080097   T   T   T
