Ca V  P  O                              
   1.00000000000000     
    11.1296310424999998    0.0000000000000000    0.0000000000000000
     2.8994549615000000   10.7443060018000001    0.0000000000000000
    -1.6016288384999999    2.0900824976000001   13.7540809288000005
   Ca   V    P    O 
    11    12    24    84
Selective dynamics
Direct
  0.3634192070362441  0.3500493190060552  0.5580372670733890   T   T   T
  0.3649352727295961  0.3661774551907793  0.0010292974930323   T   T   T
  0.3636444333251160  0.8654354289424764  0.6678735161281041   T   T   T
  0.3672472618243484  0.8666353724024436  0.9970405145737901   T   T   T
  0.3690576574744959  0.8665274925056566  0.3288886836659371   T   T   T
  0.8675486700427275  0.3682219517082336  0.6717142903198513   T   T   T
  0.8639356244150084  0.3667639013369510  0.0016952893898770   T   T   T
  0.8639801076951386  0.3634034997033795  0.3293462234847266   T   T   T
  0.8680142791733907  0.8659114359467417  0.6671199524586214   T   T   T
  0.8662121233827536  0.8664131197979644  0.0000379366535025   T   T   T
  0.8652178579363363  0.8664375992370933  0.3319868487427187   T   T   T
  0.0555156469180498  0.0552664918050229  0.0002433117173634   T   T   T
  0.0578308671472767  0.0531121503826529  0.3298587549280610   T   T   T
  0.0524165149312982  0.0567298538354613  0.6690010326716408   T   T   T
  0.0554685545857388  0.5527032502403231  0.0021589667243292   T   T   T
  0.0572459224671429  0.5511585252039586  0.3337047219847110   T   T   T
  0.0576549076849383  0.5526741680998635  0.6670791455779332   T   T   T
  0.5527553911277469  0.0565141555735218  0.9978821291839091   T   T   T
  0.5504393270029870  0.0609217122427702  0.3331755706868186   T   T   T
  0.5557725533828226  0.0518736763950194  0.6671958242841715   T   T   T
  0.5517723932343195  0.5524140103075061  0.9997042735083115   T   T   T
  0.5438684265910977  0.5442939293535566  0.3338245966184924   T   T   T
  0.5512091347976262  0.5493307181620587  0.6684820995219843   T   T   T
  0.3220436545287539  0.1155200289424091  0.1365712685656250   T   T   T
  0.3245606292738034  0.1047409551242759  0.4687332530469194   T   T   T
  0.3264127355004381  0.1163534540550228  0.8002139475838321   T   T   T
  0.3260265359112658  0.6095878555060905  0.1378003018743985   T   T   T
  0.3197282999847857  0.6211889628549190  0.4722455611563450   T   T   T
  0.3198758350292033  0.6144809684320095  0.8054619628312347   T   T   T
  0.8261710548272894  0.1151587204209418  0.1360678245784933   T   T   T
  0.8303086185852381  0.1123263144464454  0.4689527566139813   T   T   T
  0.8231878235974732  0.1116968990975479  0.8057628849564280   T   T   T
  0.8234970474936313  0.6132441833041616  0.1386388246418178   T   T   T
  0.8236982083015740  0.6101299743191215  0.4701624964134422   T   T   T
  0.8253408826162010  0.6115774688305651  0.8048053564677580   T   T   T
  0.1128232006026006  0.3277553429157893  0.1965898854916113   T   T   T
  0.1017467483755973  0.3206840758783096  0.5283856220559898   T   T   T
  0.1145924481246393  0.3232181665060564  0.8631771052157994   T   T   T
  0.1127335050520301  0.8226790299445278  0.1944187369220485   T   T   T
  0.1116789641537521  0.8299349334662326  0.5289654459354997   T   T   T
  0.1150782984769796  0.8259151489141981  0.8641480794392280   T   T   T
  0.6142500655264854  0.3185492993168226  0.1942280693789165   T   T   T
  0.6252446117638314  0.3206427018209466  0.5273659469928397   T   T   T
  0.6078640067982657  0.3260435233195285  0.8600584223581105   T   T   T
  0.6104862233538894  0.8257115927647416  0.1956727821892088   T   T   T
  0.6118093368889641  0.8234324757308242  0.5286758393303377   T   T   T
  0.6126455389270985  0.8239767548763599  0.8617088163613793   T   T   T
  0.3943160845537176  0.0398102490662693  0.2347479258524343   T   T   T
  0.3943296688304475  0.0306756989193060  0.5688137719610971   T   T   T
  0.4001433022857953  0.0350156318577387  0.8971329405874844   T   T   T
  0.3978806548325129  0.5357463335552705  0.2340008694967072   T   T   T
  0.3964342255951437  0.5415124117859296  0.5679507218781560   T   T   T
  0.3947143968633017  0.5337265010902370  0.9011434936060431   T   T   T
  0.8952437711297739  0.0379974105475621  0.2346335802074450   T   T   T
  0.8955953710635496  0.0381374669185610  0.5692088375153902   T   T   T
  0.8973134730523963  0.0340728745539338  0.9027506393981160   T   T   T
  0.8953582330263861  0.5361024618451217  0.2361554128227566   T   T   T
  0.8972530506166276  0.5345677511461751  0.5681434517819810   T   T   T
  0.8967084433820358  0.5352336155167615  0.9027496366445569   T   T   T
  0.1550670154701588  0.4151100562900861  0.2601648612693966   T   T   T
  0.1579864844036596  0.4039960322470223  0.5908591260469263   T   T   T
  0.1588998815920545  0.4100469653654762  0.9292141658518638   T   T   T
  0.1603583822730744  0.9092583498207738  0.2592537999141917   T   T   T
  0.1548176122023908  0.9191598998282594  0.5932949733051170   T   T   T
  0.1578399779065301  0.9157212896308971  0.9282992719671229   T   T   T
  0.6557918797858745  0.4042234058155675  0.2632271325138295   T   T   T
  0.6664939295159261  0.4058557922658901  0.5965251384963091   T   T   T
  0.6577206121776082  0.4107644186293566  0.9266596973851744   T   T   T
  0.6564395086023658  0.9125108857014809  0.2613217387060588   T   T   T
  0.6610242984886132  0.9081444442260959  0.5945964635103123   T   T   T
  0.6596285357715603  0.9104637090453095  0.9267773255033165   T   T   T
  0.0477358507646729  0.2378688474918119  0.2487316996908576   T   T   T
  0.0316202731080553  0.2414954956704392  0.5841460968325742   T   T   T
  0.0446713014521710  0.2395856436416995  0.9155648827117631   T   T   T
  0.0454690423352108  0.7386608609856676  0.2492738220668756   T   T   T
  0.0464872622448236  0.7427399672488337  0.5819354187967151   T   T   T
  0.0485738729994135  0.7399682824704487  0.9173836705310374   T   T   T
  0.5646924082122079  0.2164684886265928  0.2409991832192631   T   T   T
  0.5707554521320553  0.2227448601784609  0.5802102157264177   T   T   T
  0.5432966324564192  0.2403184679594484  0.9159743928525089   T   T   T
  0.5437614203357600  0.7399561893910809  0.2485383552407527   T   T   T
  0.5449540191087512  0.7381185578492179  0.5819634768635223   T   T   T
  0.5466588719510942  0.7380787075749771  0.9152319569963460   T   T   T
  0.0314940652563512  0.3982086701768747  0.0983274006849463   T   T   T
  0.0280695824639350  0.3936777514243705  0.4303213103613748   T   T   T
  0.0382912572816006  0.3959890171300632  0.7653658480720796   T   T   T
  0.0333756402965856  0.8968682955022412  0.0980089889876313   T   T   T
  0.0358459427075000  0.8971383432200005  0.4296469272400055   T   T   T
  0.0384771138016279  0.8949037567981459  0.7653341522383609   T   T   T
  0.5348853769854389  0.3944052795586997  0.0984005848327319   T   T   T
  0.5326400535905159  0.3954253530370086  0.4384283525335906   T   T   T
  0.5345412737551437  0.3966267514395718  0.7626446315729937   T   T   T
  0.5351116403491473  0.8973094938961081  0.0972872572169685   T   T   T
  0.5349900669668056  0.8981058560359882  0.4315983755475760   T   T   T
  0.5354649923084080  0.8951715966243956  0.7638851717784544   T   T   T
  0.2397171209456470  0.2474039851941031  0.1603625389726054   T   T   T
  0.2302547443422643  0.2305695566706781  0.5004714185363862   T   T   T
  0.2460493035125883  0.2418770398670723  0.8374298720460043   T   T   T
  0.2421522205154551  0.7435960200529614  0.1639245366318618   T   T   T
  0.2484918256869160  0.7541517661853384  0.5045252573985862   T   T   T
  0.2518418719259802  0.7498740250817887  0.8406494262532144   T   T   T
  0.7510815227807667  0.2525290041059444  0.1597674568222051   T   T   T
  0.7542469175541807  0.2514233733364609  0.4899686001065502   T   T   T
  0.7422889041939050  0.2415736833264961  0.8347381043851547   T   T   T
  0.7440156902954908  0.7457789444275676  0.1679110766620596   T   T   T
  0.7429413060171945  0.7426164128749898  0.4987522233587779   T   T   T
  0.7450376990434544  0.7442334097612457  0.8328042373291340   T   T   T
  0.2394483070564582  0.0445169228697629  0.0838909916904445   T   T   T
  0.2435571948611032  0.0351358967153508  0.4135845862483297   T   T   T
  0.2378830767912308  0.0494536241793102  0.7490546341392377   T   T   T
  0.2399112607742056  0.5450873122319921  0.0820705582032751   T   T   T
  0.2264559847807723  0.5552935436199086  0.4301475403401988   T   T   T
  0.2200995564291284  0.5637385031866040  0.7560673981953309   T   T   T
  0.7393174890822648  0.0495152835614053  0.0828537936094413   T   T   T
  0.7425616749139453  0.0472609090332681  0.4166537519602291   T   T   T
  0.7409103902355024  0.0417344567529401  0.7521890845109339   T   T   T
  0.7371387524959144  0.5474139156473072  0.0852167656857387   T   T   T
  0.7378465892556891  0.5437436240459568  0.4170553006825408   T   T   T
  0.7398823228613923  0.5447302377966202  0.7515999821958703   T   T   T
  0.4090469815640124  0.1590358819432217  0.0700895314796003   T   T   T
  0.4103310491105109  0.1602121855841271  0.4112704645748897   T   T   T
  0.4093858906445351  0.1632562987059955  0.7328062057080215   T   T   T
  0.4097011905396788  0.6599226340308195  0.0703007564490921   T   T   T
  0.4035501800828964  0.6621677502123999  0.4022048533738082   T   T   T
  0.4067956414272669  0.6580871872274620  0.7386519500605934   T   T   T
  0.9156875733265937  0.1575751273746202  0.0714891092169880   T   T   T
  0.9204632253682472  0.1543210493080261  0.4050744008455640   T   T   T
  0.9092932559141474  0.1594922376220998  0.7406578952334570   T   T   T
  0.9098030120207277  0.6601011925262661  0.0731955895600794   T   T   T
  0.9099201439649186  0.6581063960847466  0.4049280035502066   T   T   T
  0.9117040827998447  0.6581424850864377  0.7392436217429914   T   T   T
 
             NaN             NaN             NaN
             NaN             NaN             NaN
             NaN             NaN             NaN
             NaN             NaN             NaN
             NaN             NaN             NaN
             NaN             NaN             NaN
             NaN             NaN             NaN
             NaN             NaN             NaN
             NaN             NaN             NaN
             NaN             NaN             NaN
             NaN             NaN             NaN
             NaN             NaN             NaN
             NaN             NaN             NaN
             NaN             NaN             NaN
             NaN             NaN             NaN
             NaN             NaN             NaN
             NaN             NaN             NaN
             NaN             NaN             NaN
             NaN             NaN             NaN
             NaN             NaN             NaN
             NaN             NaN             NaN
             NaN             NaN             NaN
             NaN             NaN             NaN
             NaN             NaN             NaN
             NaN             NaN             NaN
             NaN             NaN             NaN
             NaN             NaN             NaN
             NaN             NaN             NaN
             NaN             NaN             NaN
             NaN             NaN             NaN
             NaN             NaN             NaN
             NaN             NaN             NaN
             NaN             NaN             NaN
             NaN             NaN             NaN
             NaN             NaN             NaN
             NaN             NaN             NaN
             NaN             NaN             NaN
             NaN             NaN             NaN
             NaN             NaN             NaN
             NaN             NaN             NaN
             NaN             NaN             NaN
             NaN             NaN             NaN
             NaN             NaN             NaN
             NaN             NaN             NaN
             NaN             NaN             NaN
             NaN             NaN             NaN
             NaN             NaN             NaN
             NaN             NaN             NaN
             NaN             NaN             NaN
             NaN             NaN             NaN
             NaN             NaN             NaN
             NaN             NaN             NaN
             NaN             NaN             NaN
             NaN             NaN             NaN
             NaN             NaN             NaN
             NaN             NaN             NaN
             NaN             NaN             NaN
             NaN             NaN             NaN
             NaN             NaN             NaN
             NaN             NaN             NaN
             NaN             NaN             NaN
             NaN             NaN             NaN
             NaN             NaN             NaN
             NaN             NaN             NaN
             NaN             NaN             NaN
             NaN             NaN             NaN
             NaN             NaN             NaN
             NaN             NaN             NaN
             NaN             NaN             NaN
             NaN             NaN             NaN
             NaN             NaN             NaN
             NaN             NaN             NaN
             NaN             NaN             NaN
             NaN             NaN             NaN
             NaN             NaN             NaN
             NaN             NaN             NaN
             NaN             NaN             NaN
             NaN             NaN             NaN
             NaN             NaN             NaN
             NaN             NaN             NaN
             NaN             NaN             NaN
             NaN             NaN             NaN
             NaN             NaN             NaN
             NaN             NaN             NaN
             NaN             NaN             NaN
             NaN             NaN             NaN
             NaN             NaN             NaN
             NaN             NaN             NaN
             NaN             NaN             NaN
             NaN             NaN             NaN
             NaN             NaN             NaN
             NaN             NaN             NaN
             NaN             NaN             NaN
             NaN             NaN             NaN
             NaN             NaN             NaN
             NaN             NaN             NaN
             NaN             NaN             NaN
             NaN             NaN             NaN
             NaN             NaN             NaN
             NaN             NaN             NaN
             NaN             NaN             NaN
             NaN             NaN             NaN
             NaN             NaN             NaN
             NaN             NaN             NaN
             NaN             NaN             NaN
             NaN             NaN             NaN
             NaN             NaN             NaN
             NaN             NaN             NaN
             NaN             NaN             NaN
             NaN             NaN             NaN
             NaN             NaN             NaN
             NaN             NaN             NaN
             NaN             NaN             NaN
             NaN             NaN             NaN
             NaN             NaN             NaN
             NaN             NaN             NaN
             NaN             NaN             NaN
             NaN             NaN             NaN
             NaN             NaN             NaN
             NaN             NaN             NaN
             NaN             NaN             NaN
             NaN             NaN             NaN
             NaN             NaN             NaN
             NaN             NaN             NaN
             NaN             NaN             NaN
             NaN             NaN             NaN
             NaN             NaN             NaN
             NaN             NaN             NaN
             NaN             NaN             NaN
             NaN             NaN             NaN
             NaN             NaN             NaN
