Ca V  P  O 
 1.0000000000000000
    11.1296310424999998    0.0000000000000000    0.0000000000000000
     2.8994549615000000   10.7443060018000001    0.0000000000000000
    -1.6016288384999999    2.0900824976000001   13.7540809288000005
 Ca  V   P   O  
  11  12  24  84
Selective dynamics
Cartesian
  4.1685994607040149  4.9403041491107640  7.6628288268195641   T   T   T
  3.5187997924670360  6.0311588873558302 13.7709138615884790   T   T   T
  5.4905441173392600 10.6931752265763063  9.1789910595428896   T   T   T
  4.9950772184558634 11.3942868430625346 13.7151273649412246   T   T   T
  6.0872210482767368  9.9944243498181624  4.5123940187115457   T   T   T
  9.6416811311589541  5.3538912249089456  9.2457448081545337   T   T   T
  9.0714287969056411  6.0326081800574274 13.7800633738661951   T   T   T
 10.1457221083041187  4.5986293769219095  4.5384237043808016   T   T   T
 11.0975385214297066 10.6889621293572592  9.1701769969598921   T   T   T
 10.5456700213984629 11.3954117221571209 13.7567499507641866   T   T   T
 11.6076839318150924  9.9983303924796854  4.5674083132816934   T   T   T
  0.7868532444695002  0.5995605364558481  0.0050732979575460   T   T   T
  0.2787182563273383  1.2755148982307882  4.5451568483758864   T   T   T
 -0.3063746610922901  2.0158078321165136  9.1998079576968035   T   T   T
  2.2238571561762610  5.9562288347777308  0.0206380093447979   T   T   T
  1.7191515218194331  6.6234425581737542  4.5879624347041466   T   T   T
  1.1916141139231495  7.3307237492053368  9.1608312151029132   T   T   T
  6.3328893833423860  0.6074153135328306 -0.0198349024133875   T   T   T
  5.7754079290185576  1.3626664815157885  4.5982187459149628   T   T   T
  5.2778293270701111  1.9703649230493703  9.1799242109741890   T   T   T
  7.7710333895953374  5.9548527032552423 -0.0052179622673944   T   T   T
  7.1263400409821456  6.5597657875707638  4.5753829077536770   T   T   T
  6.6691682370280878  7.3148225881625413  9.2008399416084643   T   T   T
  3.7015445784965677  1.5225114554266617  1.8880935157594201   T   T   T
  3.1638133539010260  2.1081236236802088  6.4541134389381103   T   T   T
  2.6896223477613144  2.9106332799052992 11.0197185798691546   T   T   T
  5.1721679736932273  6.8342902645761745  1.9000931488369137   T   T   T
  4.6201450333029550  7.6549901945304546  6.4936315971105163   T   T   T
  4.0601100928383431  8.2742988747672648 11.0890372832902901   T   T   T
  9.3072859396380796  1.5161149668435145  1.8772770345460985   T   T   T
  8.8072413831443086  2.1869166601794880  6.4633649396483657   T   T   T
  8.1957079569117521  2.8778980260958416 11.0878268640604070   T   T   T
 10.7203949782933385  6.8745313144592934  1.9105992329232904   T   T   T
 10.1813021906245620  7.5362694693245151  6.4697157671684637   T   T   T
  9.6718700650507134  8.2490285164894157 11.0697808108108049   T   T   T
  1.8849882436600645  3.9362999117704436  2.6978348109360373   T   T   T
  1.2215912710838868  4.5509218046155215  7.2626067679499027   T   T   T
  0.8242206310894342  5.2757341869250158 11.8646613406400352   T   T   T
  3.3207251073719601  9.2480883843691046  2.6715699655178828   T   T   T
  2.8052367321930465 10.0165440709558293  7.2689647051944606   T   T   T
  2.2795335752518855 10.6756168308158355 11.8788119648864026   T   T   T
  7.4439130025886895  3.8407268660791978  2.6575625799419567   T   T   T
  7.0313438702770750  4.5642508321552704  7.2525056093851008   T   T   T
  6.3286370871154078  5.2987431764828239 11.8255501075779748   T   T   T
  8.8738224264844732  9.2806135522460611  2.6912913613739637   T   T   T
  8.3453933120886692  9.9485826708381566  7.2707533848206580   T   T   T
  7.8239052218576592 10.6542135178855677 11.8500037187611209   T   T   T
  4.1269558905556307  0.9163870707553313  3.2338872268727794   T   T   T
  3.5677315953749398  1.5172148493868167  7.8216887707515763   T   T   T
  3.1166251689791449  2.2420093962040539 12.3468181449186307   T   T   T
  5.5932580817201769  6.2450909201076090  3.2251551189771583   T   T   T
  5.0827795623119973  7.0001085606881652  7.8058344129946606   T   T   T
  4.5103821052433952  7.6123648388409055 12.4007696807863947   T   T   T
  9.6961494991971406  0.8970512732221579  3.2281503110909751   T   T   T
  9.1639459751418180  1.5939084826354271  7.8328973880749526   T   T   T
  8.6352526910665830  2.2509501558711369 12.4207362825592309   T   T   T
 11.1330932628481598  6.2478393714310423  3.2457098136016489   T   T   T
 10.6133838938154668  6.9178105696156296  7.8073328650322305   T   T   T
 10.0829532331735265  7.6284299077290463 12.4101060597927972   T   T   T
  2.5329445683305836  4.9992001942837767  3.5603060045486692   T   T   T
  1.9957088537491872  5.5771577532495993  8.1135112764646422   T   T   T
  1.4771115858072770  6.3477615048799088 12.7589817233854301   T   T   T
  4.0063164971315119 10.3207159907706991  3.5460306617242847   T   T   T
  3.4450222830446027 11.1125646853697049  8.1452675397580823   T   T   T
  2.9230791582613360 11.7795687438741261 12.7505084790780074   T   T   T
  8.0646231052876995  4.9125593061505644  3.5896386959572073   T   T   T
  7.6390833683078130  5.6231765475717417  8.1954154268053987   T   T   T
  7.0362517356901018  6.3555739585835545 12.7198042014796258   T   T   T
  9.5369793125382376 10.3484884575712304  3.5849894068082486   T   T   T
  9.0393701630689058 11.0026334457917816  8.1589568324481725   T   T   T
  8.5058862366672745 11.7225825457061408 12.7285137095071708   T   T   T
  0.8044585121763985  3.1051702591315622  3.4242427013453529   T   T   T
  0.1161048789809109  3.8356773021204904  8.0382036769253027   T   T   T
 -0.2928178107702774  4.5094001223975848 12.5918404640992527   T   T   T
  2.2319638325895528  8.4772965752105005  3.4282304175278711   T   T   T
  1.7365174066788547  9.2046327939914345  8.0032400229952625   T   T   T
  1.1910430622029768  9.8873364216202742 12.6161001290658277   T   T   T
  6.5092252582583621  2.8695023213983393  3.3114869950633756   T   T   T
  6.0375830895547775  3.6424301989109109  7.9729283675991551   T   T   T
  5.2720305892889705  4.5097961985883099 12.6079915750910683   T   T   T
  7.7902129846717614  8.4756832934492383  3.4219988369453302   T   T   T
  7.2689630935238760  9.1536405880205969  8.0186013311649784   T   T   T
  6.7494948487746278  9.8628858747575023 12.5991369838982141   T   T   T
  1.3420133523950879  4.4874364135521736  1.3545377355185337   T   T   T
  0.7700371619002411  5.1315355483503122  5.9190013452348165   T   T   T
  0.3471967787493009  5.8491574854608608 10.5230349522032824   T   T   T
  2.8118688725009209  9.8388428223423325  1.3468436056003963   T   T   T
  2.3116755975500247 10.5320460845895791  5.9110572944177813   T   T   T
  1.7881609515087460 11.2141712808511986 10.5264317807508139   T   T   T
  6.9368725116493017  4.4605801690023030  1.3466043357104229   T   T   T
  6.3815351819181050  5.1816511073438321  6.0226518932958184   T   T   T
  5.8640509806786723  5.8398228137680199 10.4878523200181935   T   T   T
  8.3894226722030201  9.8420198043793246  1.3479016156439165   T   T   T
  7.8472447498256432 10.5374161418673573  5.9439522226810979   T   T   T
  7.3199515241475241 11.2087948156353523 10.5137328646523915   T   T   T
  3.1046169718879648  2.9746969016722375  2.2081593432853421   T   T   T
  2.4124789282986847  3.5133406988402012  6.8810763597989784   T   T   T
  2.0705932323546521  4.3238039819925493 11.5252997502526640   T   T   T
  4.5689515178399311  8.3195669114457509  2.2639721131410750   T   T   T
  4.1426496807645909  9.1433585861659914  6.9446028799828072   T   T   T
  3.6017266681561710  9.7922665655917811 11.5712298239045364   T   T   T
  8.8146400019612976  3.0339070257320184  2.1840647672832105   T   T   T
  8.3115423418580043  3.7149213405734098  6.7534073494027513   T   T   T
  7.6121167358702566  4.3288298244895618 11.4735146173223175   T   T   T
 10.1562482841107027  8.3509223536031740  2.3100021563844164   T   T   T
  9.6094098683228211  9.0093947917893686  6.8602168852181871   T   T   T
  9.0993828915384753  9.7220565094497395 11.4534945490711575   T   T   T
  2.6790738450302984  0.6327186388249242  1.1574394865199988   T   T   T
  2.1613522160123253  1.2350479986948808  5.6903418767267322   T   T   T
  1.6133875038284173  2.0669849217415059 10.3060454435720477   T   T   T
  4.1320739651527010  6.0158590630020248  1.1246550818255587   T   T   T
  3.4713511053633983  6.8568708284990150  5.9007892558424526   T   T   T
  2.9083841107479516  7.5996893789819850 10.4007486198667536   T   T   T
  8.2541206565179159  0.6812001271770218  1.1409932932090303   T   T   T
  7.7438093847995031  1.3655821837149371  5.7338538465334574   T   T   T
  7.1771860060883421  2.0067843055510384 10.3460982187926263   T   T   T
  9.6725011339919398  6.0429469231933215  1.1654152241996023   T   T   T
  9.1265568927724559  6.7040285578869936  5.7283554233450680   T   T   T
  8.6226609804237970  7.4075249473377847 10.3343571587217866   T   T   T
  4.9054110061817573  1.8652988778504516  0.9868984367215849   T   T   T
  4.3630480573907224  2.6088556819930950  5.6707286784319182   T   T   T
  3.8557781649777407  3.3007040783760528 10.1072280611730907   T   T   T
  6.3651898077440565  7.2463825265197936  0.9910491960293053   T   T   T
  5.7941736201216401  7.9565686079849005  5.5458167905602949   T   T   T
  5.2673980559737092  8.6270861217955286 10.1887737083866874   T   T   T
 10.5384434826546940  1.8427531291175838  1.0010980365421855   T   T   T
 10.0372729246868495  2.5189550387005437  5.5955278417452359   T   T   T
  9.4086891984585570  3.2602252871461075 10.2117688816069858   T   T   T
 11.9270653616552398  7.2519273186760902  1.0271899812973986   T   T   T
 11.3896204522256568  7.9176588642177048  5.5848460655439540   T   T   T
 10.8754037133313641  8.6191167759803022 10.1807160992508035   T   T   T
