Ca Mn Ge O 
1.0
        9.4417982101         0.0000000000         0.0000000000
       -4.2795032080         9.5653643231         0.0000000000
        1.0066905929        -4.7690581374         9.7933467353
   Ca   Mn   Ge    O
    5   10   12   40
Direct
     0.363885611         0.620110512         0.951130092
     0.379795551         0.636652946         0.429767609
     0.636114419         0.379889488         0.048869845
     0.937342227         0.072749406         0.163184360
     0.062657736         0.927250564         0.836815655
     0.844712377         0.175243124         0.949305415
     0.155287698         0.824756920         0.050694596
     0.934242904         0.055872008         0.651002109
     0.065757111         0.944128036         0.348997891
     0.823656023         0.154884189         0.464693546
     0.176343963         0.845115840         0.535306454
     0.000000000         0.500000000         0.500000000
     0.738027513         0.264699012         0.255827248
     0.261972487         0.735301018         0.744172752
     0.500000000         0.000000000         0.000000000
     0.561046898         0.053893134         0.694301665
     0.438953131         0.946106851         0.305698305
     0.652031124         0.768343747         0.744916975
     0.347968757         0.231656179         0.255082995
     0.950580239         0.433489889         0.799359679
     0.049419723         0.566510141         0.200640321
     0.332311392         0.232431576         0.757037997
     0.667688847         0.767568648         0.242962018
     0.764758110         0.658637166         0.446365446
     0.235241875         0.341362774         0.553634524
     0.774078310         0.658412039         0.932761669
     0.225921601         0.341587931         0.067238308
     0.715005040         0.045548588         0.592872143
     0.284994990         0.954451382         0.407127887
     0.726102293         0.073441729         0.077104919
     0.273897707         0.926558256         0.922895074
     0.610192895         0.132831410         0.873548210
     0.389807105         0.867168546         0.126451790
     0.610647440         0.678246737         0.559779704
     0.389352590         0.321753234         0.440220296
     0.960993230         0.279472321         0.818102777
     0.039006766         0.720527709         0.181897283
     0.871064484         0.387800097         0.636563540
     0.128935516         0.612199903         0.363436460
     0.927683890         0.277527839         0.349285632
     0.072316110         0.722472131         0.650714397
     0.868311465         0.401178211         0.133722767
     0.131688535         0.598821819         0.866277277
     0.339486092         0.381901711         0.711918175
     0.660513878         0.618098199         0.288081765
     0.373100460         0.341294050         0.944510281
     0.626899481         0.658705890         0.055489674
     0.770722091         0.488939762         0.434603214
     0.229277909         0.511060297         0.565396726
     0.485876232         0.769856691         0.829137921
     0.514123797         0.230143338         0.170862049
     0.685131967         0.619386911         0.773973465
     0.314868003         0.380613089         0.226026520
     0.824097633         0.936200976         0.784752369
     0.175902396         0.063799106         0.215247661
     0.937398434         0.830909789         0.993058264
     0.062601633         0.169090271         0.006941769
     0.163741380         0.063911408         0.703753233
     0.836258471         0.936088443         0.296246707
     0.601874292         0.128919378         0.378942281
     0.398125648         0.871080577         0.621057689
     0.504011393         0.207055479         0.693591475
     0.495988578         0.792944551         0.306408525
     0.932689011         0.831364989         0.485515982
     0.067310974         0.168635026         0.514484048
     0.798693120         0.489644736         0.907300055
     0.201306894         0.510355294         0.092699915
