Cr P  O 
 1.0000000000000000
     8.1837060000000008    0.0000000000000000    0.0000000000000000
     0.0000000000000000    4.8683280000000000    0.0000000000000000
     0.0000000000000000    2.2159049999999998    6.6423709999999998
 Cr  P   O  
   2   4  14
Cartesian
  6.0737503520385703  2.7805146320972889  5.1602744281750415
  1.9818973520385705  4.3037183679027144  1.4820965718249524
  0.5052512851068945  4.0709349300619690  6.5763903285355889
  4.5971042851068988  3.0132980699380316  0.0659806714644078
  7.9834429404689775  5.0482651137838541  3.9630005032697908
  3.8915899404689758  2.0359678862161474  2.6793704967302032
  0.8538378510015942  4.5331699720720193  5.0718572613398960
  4.9456908510015936  2.5510630279279858  1.5705137386601014
  0.6330379433994503  3.0663944004392043  0.8608658669598047
  4.7248909433994504  4.0178385995607959  5.7815051330401914
  2.6948113216340777  3.0396948365877887  2.7129708336318390
  6.7866643216340741  4.0445381634122191  3.9294001663681581
  4.6615382622601045  2.0174496880654900  3.9722940858998461
  0.5696852622601080  5.0667833119345165  2.6700769141001501
  3.3797187662760115  5.5323930356317996  2.2742719628417563
  7.4715717662760115  1.5518399643682019  4.3680990371582400
  3.1873787743400790  3.5765199070961700  0.0817349252555987
  7.2792317743400750  3.5077130929038316  6.5606360747443961
  5.6787866078162024  6.2850757644848647  6.4075814752023463
  1.5869336078161962  0.7991572355151326  0.2347895247976468
