Ca V  O 
 1.0000000000000000
     0.0000000000000000   -3.6936059999999999    0.0000000000000000
    -7.7866450000000000    1.8468030000000000    0.0000000000000000
     3.0461369999999999    0.0000000000000000   -9.8078970000000005
 Ca  V   O  
   2   6  15
Cartesian
  0.1636680823297175 -1.8468023059626113 -3.4053485207165006
 -4.9041760823296601 -0.0000006940373889 -6.4025484792834773
 -1.4706037299542212  0.0000004456872501 -1.0555047226783019
 -3.2699042700458980 -1.8468034456872484 -8.7523922773218388
 -4.8493685521894729 -0.0000004159860442 -0.8628732168403748
  0.1088605521895828 -1.8468025840139528 -8.9450237831597228
 -3.0793949280883028  0.0000003713809937 -3.8344921639915985
 -1.6611130719118892 -1.8468033713809926 -5.9734048360084175
 -0.0000000000000259  0.0000000000000014  0.0000000000000146
 -4.7316539357047391 -1.8468033736449136 -0.4233121650856267
 -0.0088540642952915  0.0000003736449169 -9.3845848349141150
 -1.8261515724705317 -1.8468026662863990 -0.8064539971291559
 -2.9143564275293858 -0.0000003337135994 -9.0014430028707739
 -6.0903122967968466 -0.0000018686013857 -1.9543577938296410
  1.3498042967968087 -1.8468011313986044 -7.8535392061702902
 -3.3157553140229554  0.0000000549002956 -2.0565210673236396
 -1.4247526859770661 -1.8468030549002932 -7.7513759326759102
 -0.8408392975402392  0.0000005701497711 -2.7375382209909875
 -3.8996687024596564 -1.8468035701497711 -7.0703587790089690
 -2.2383367387024351 -0.0000002314110076 -5.6928247337851454
 -2.5021712612971898 -1.8468027685889916 -4.1150722662153170
 -4.7293126637341185  0.0000011001363658 -4.2339618056250847
 -0.0111953362661375 -1.8468041001363666 -5.5739351943750348
