Ca2 V6 O15
1.0
   0.0000000000000000   -3.6936059999999999    0.0000000000000000
  -7.7866450000000000    1.8468030000000000    0.0000000000000000
   3.0461369999999999    0.0000000000000000   -9.8078970000000005
Ca V O
2 6 15
direct
   0.5472110000000000    0.0944219999999990    0.3357680000000000 Ca
   0.4527890000000000    0.9055780000000000    0.6642319999999990 Ca
   0.1134739999999990    0.2269469999999990    0.1151500000000000 V
   0.8865259999999990    0.7730530000000000    0.8848500000000000 V
   0.3316070000000000    0.6632140000000000    0.0929300000000000 V
   0.6683930000000000    0.3367860000000000    0.9070700000000000 V
   0.2850430000000000    0.5700860000000000    0.4061900000000001 V
   0.7149570000000000    0.4299139999999990    0.5938100000000001 V
   0.0000000000000000    0.0000000000000000    0.0000000000000000 O
   0.8101849999999990    0.6203700000000001    0.0419369999999990 O
   0.1898149999999990    0.3796300000000000    0.9580630000000000 O
   0.6313940000000000    0.2627870000000000    0.0800600000000000 O
   0.3686060000000000    0.7372130000000000    0.9199400000000001 O
   0.4292709999999990    0.8585410000000000    0.2128159999999990 O
   0.5707289999999990    0.1414590000000000    0.7871840000000000 O
   0.2573169999999990    0.5146339999999990    0.2248679999999990 O
   0.7426830000000000    0.4853659999999990    0.7751319999999990 O
   0.0961390000000000    0.1922780000000000    0.2689110000000000 O
   0.9038609999999990    0.8077219999999991    0.7310890000000000 O
   0.2450750000000000    0.4901490000000000    0.5742670000000000 O
   0.7549250000000000    0.5098509999999991    0.4257330000000000 O
   0.3948939999999990    0.7897890000000000    0.4669029999999990 O
   0.6051059999999990    0.2102109999999990    0.5330969999999990 O
