Ca Mn V  P  O 
1.0
        8.5273361206         0.0000000000         0.0000000000
        0.0000000000        10.1170349121         0.0000000000
        0.0000000000         0.5880300263        27.6352336054
   Ca   Mn    V    P    O
   15    4   12   32  112
Direct
     0.407833695         0.567806959         0.815938175
     0.402824521         0.067542352         0.315656900
     0.402824521         0.567542374         0.315656900
     0.902740717         0.184599280         0.433776587
     0.902740717         0.684599280         0.433776587
     0.903856337         0.183800742         0.933477342
     0.903856337         0.683800757         0.933477342
     0.403856337         0.316199273         0.066522650
     0.403856337         0.816199303         0.066522650
     0.402740717         0.315400720         0.566223383
     0.402740717         0.815400720         0.566223383
     0.907833695         0.432193011         0.184061840
     0.907833695         0.932193041         0.184061840
     0.902824521         0.432457656         0.684343100
     0.902824521         0.932457685         0.684343100
     0.990245521         0.074876428         0.814531267
     0.990245521         0.574876428         0.814531267
     0.490245491         0.425123602         0.185468763
     0.490245491         0.925123572         0.185468763
     0.991864800         0.072067149         0.317769229
     0.991864800         0.572067142         0.317769229
     0.492607981         0.176937267         0.433030188
     0.492607981         0.676937282         0.433030188
     0.492948145         0.176640466         0.933547258
     0.492948145         0.676640451         0.933547258
     0.992948174         0.323359549         0.066452719
     0.992948174         0.823359549         0.066452719
     0.992607951         0.323062748         0.566969812
     0.992607951         0.823062778         0.566969812
     0.491864771         0.427932829         0.682230771
     0.491864771         0.927932858         0.682230771
     0.191205218         0.068029068         0.123798251
     0.191205218         0.568029046         0.123798251
     0.770193517         0.081759848         0.026402179
     0.770193517         0.581759870         0.026402179
     0.190348670         0.067409016         0.624772668
     0.190348670         0.567409039         0.624772668
     0.768786073         0.082101226         0.526305676
     0.768786073         0.582101226         0.526305676
     0.262834281         0.168555319         0.223259479
     0.262834281         0.668555319         0.223259479
     0.694492877         0.182589561         0.125440717
     0.694492877         0.682589531         0.125440717
     0.270606548         0.169471011         0.722827911
     0.270606548         0.669471025         0.722827911
     0.691854656         0.182530239         0.624949813
     0.691854656         0.682530224         0.624949813
     0.191854656         0.317469776         0.375050247
     0.191854656         0.817469776         0.375050247
     0.770606577         0.330528975         0.277172059
     0.770606577         0.830528975         0.277172059
     0.194492862         0.317410439         0.874559283
     0.194492862         0.817410469         0.874559283
     0.762834251         0.331444681         0.776740491
     0.762834251         0.831444681         0.776740491
     0.268786103         0.417898774         0.473694324
     0.268786103         0.917898774         0.473694324
     0.690348685         0.432590991         0.375227362
     0.690348685         0.932590961         0.375227362
     0.270193487         0.418240160         0.973597825
     0.270193487         0.918240190         0.973597825
     0.691205204         0.431970954         0.876201749
     0.691205204         0.931970954         0.876201749
     0.848300636         0.003915319         0.380112737
     0.848300636         0.503915310         0.380112737
     0.549651742         0.021999329         0.384082526
     0.549651742         0.521999359         0.384082526
     0.696439803         0.053529482         0.155050337
     0.696439803         0.553529501         0.155050337
     0.849397361         0.501998723         0.881349623
     0.849397361         0.001998723         0.881349623
     0.549803972         0.020509433         0.885463774
     0.549803972         0.520509422         0.885463774
     0.417446464         0.089888841         0.229908332
     0.417446464         0.589888811         0.229908332
     0.690895677         0.051497072         0.653559506
     0.690895677         0.551497102         0.653559506
     0.294209987         0.059739359         0.457369804
     0.294209987         0.559739351         0.457369804
     0.157721877         0.093935110         0.181751028
     0.157721877         0.593935132         0.181751028
     0.421948791         0.086233877         0.728629649
     0.421948791         0.586233854         0.728629649
     0.674620211         0.098753698         0.479511529
     0.674620211         0.598753691         0.479511529
     0.296743721         0.060913716         0.958437324
     0.296743721         0.560913742         0.958437324
     0.661155164         0.150398090         0.068017796
     0.661155164         0.650398076         0.068017796
     0.158600196         0.096964538         0.682195127
     0.158600196         0.596964538         0.682195127
     0.674952447         0.099802874         0.979900599
     0.674952447         0.599802852         0.979900599
     0.169584319         0.148133680         0.270044804
     0.169584319         0.648133695         0.270044804
     0.920581222         0.166135445         0.019891171
     0.920581222         0.666135430         0.019891171
     0.658996880         0.153478816         0.567466736
     0.658996880         0.653478801         0.567466736
     0.793055177         0.188815117         0.294168174
     0.793055177         0.688815117         0.294168174
     0.179111630         0.152232662         0.770153344
     0.179111630         0.652232647         0.770153344
     0.188579351         0.200949490         0.096375249
     0.188579351         0.700949490         0.096375249
     0.919360518         0.166139543         0.519714117
     0.919360518         0.666139543         0.519714117
     0.781892300         0.188820362         0.793183386
     0.781892300         0.688820362         0.793183386
     0.188733727         0.198159754         0.595864773
     0.188733727         0.698159754         0.595864773
     0.050883457         0.228437960         0.365972012
     0.050883457         0.728437960         0.365972012
     0.851214349         0.257019311         0.128867984
     0.851214349         0.757019281         0.128867984
     0.349375308         0.245526657         0.370518237
     0.349375308         0.745526671         0.370518237
     0.052659180         0.228931114         0.865623057
     0.052659180         0.728931129         0.865623057
     0.552659214         0.271068871         0.134376958
     0.552659214         0.771068871         0.134376958
     0.849375308         0.254473358         0.629481733
     0.849375308         0.754473329         0.629481733
     0.351214379         0.242980689         0.871132076
     0.351214379         0.742980719         0.871132076
     0.550883472         0.271562040         0.634027958
     0.550883472         0.771562040         0.634027958
     0.688733697         0.301840246         0.404135197
     0.688733697         0.801840246         0.404135197
     0.281892270         0.311179638         0.206816554
     0.281892270         0.811179638         0.206816554
     0.419360518         0.333860457         0.480285853
     0.419360518         0.833860457         0.480285853
     0.688579321         0.299050510         0.903624773
     0.688579321         0.799050510         0.903624773
     0.679111600         0.347767353         0.229846641
     0.679111600         0.847767353         0.229846641
     0.293055177         0.311184883         0.705831826
     0.293055177         0.811184883         0.705831826
     0.158996910         0.346521169         0.432533264
     0.158996910         0.846521139         0.432533264
     0.420581251         0.333864570         0.980108857
     0.420581251         0.833864570         0.980108857
     0.669584334         0.351866335         0.729955196
     0.669584334         0.851866364         0.729955196
     0.174952477         0.400197119         0.020099357
     0.174952477         0.900197148         0.020099357
     0.658600211         0.403035462         0.317804873
     0.658600211         0.903035462         0.317804873
     0.161155120         0.349601895         0.931982219
     0.161155120         0.849601865         0.931982219
     0.796743751         0.439086288         0.041562669
     0.796743751         0.939086318         0.041562669
     0.174620166         0.401246309         0.520488501
     0.174620166         0.901246309         0.520488501
     0.921948791         0.413766116         0.271370351
     0.921948791         0.913766146         0.271370351
     0.657721877         0.406064868         0.818248987
     0.657721877         0.906064868         0.818248987
     0.794209957         0.440260649         0.542630196
     0.794209957         0.940260649         0.542630196
     0.190895706         0.448502928         0.346440524
     0.190895706         0.948502898         0.346440524
     0.917446494         0.410111159         0.770091653
     0.917446494         0.910111189         0.770091653
     0.049804017         0.479490578         0.114536270
     0.049804017         0.979490578         0.114536270
     0.349397331         0.998001277         0.118650369
     0.349397331         0.498001277         0.118650369
     0.196439803         0.446470529         0.844949663
     0.196439803         0.946470499         0.844949663
     0.049651727         0.478000671         0.615917504
     0.049651727         0.978000641         0.615917504
     0.348300606         0.496084660         0.619887292
     0.348300606         0.996084690         0.619887292
