Ca11 Mn16 Te8 O48
1.0
9.354161 0.000000 0.000000
0.000000 9.616332 0.000000
0.000000 0.000000 11.211810
Ca Mn Te O
11 16 8 48
direct
0.553687 0.247330 0.348621 Ca
0.079209 0.745420 0.638064 Ca
0.420584 0.745571 0.638142 Ca
0.750030 0.291343 0.848475 Ca
0.921158 0.763438 0.158698 Ca
0.420501 0.234193 0.844851 Ca
0.079441 0.233756 0.844897 Ca
0.250091 0.716730 0.152119 Ca
0.579110 0.763491 0.158792 Ca
0.749933 0.764253 0.686204 Ca
0.946725 0.247343 0.348318 Ca
0.915186 0.586678 0.387083 Mn
0.907113 0.088456 0.128563 Mn
0.080693 0.415675 0.089662 Mn
0.414797 0.410597 0.614632 Mn
0.590063 0.082711 0.617263 Mn
0.593416 0.088717 0.128860 Mn
0.909915 0.082857 0.617253 Mn
0.084743 0.410363 0.614696 Mn
0.580621 0.588359 0.906243 Mn
0.407322 0.911328 0.870489 Mn
0.092896 0.917543 0.383647 Mn
0.918933 0.588436 0.906056 Mn
0.092674 0.911038 0.870419 Mn
0.407359 0.917394 0.383776 Mn
0.584730 0.586707 0.387117 Mn
0.419321 0.415649 0.090051 Mn
0.749810 0.446057 0.603242 Te
0.249879 0.572829 0.872903 Te
0.750135 0.926550 0.407601 Te
0.250230 0.044707 0.102188 Te
0.749922 0.960241 0.908149 Te
0.249963 0.074301 0.594868 Te
0.750047 0.427063 0.126780 Te
0.249988 0.535874 0.388036 Te
0.063189 0.612089 0.036974 O
0.249966 0.863775 0.496239 O
0.749889 0.022817 0.739805 O
0.088272 0.416184 0.429222 O
0.605149 0.103565 0.945352 O
0.408601 0.102658 0.476301 O
0.898432 0.590585 0.576907 O
0.936021 0.395288 0.956927 O
0.749846 0.419249 0.431395 O
0.749768 0.548681 0.808976 O
0.910535 0.478996 0.227991 O
0.408481 0.525197 0.768065 O
0.250216 0.947105 0.257114 O
0.448878 0.010838 0.721495 O
0.750197 0.213347 0.216378 O
0.601705 0.886214 0.535494 O
0.894948 0.103418 0.945329 O
0.549571 0.993966 0.281755 O
0.250090 0.578700 0.561265 O
0.566390 0.271418 0.679358 O
0.450126 0.226960 0.148192 O
0.436777 0.612006 0.037287 O
0.249881 0.374933 0.939631 O
0.898420 0.886202 0.535585 O
0.091357 0.525356 0.767994 O
0.249848 0.271499 0.668158 O
0.411472 0.415880 0.429082 O
0.436701 0.727480 0.326370 O
0.589678 0.479156 0.227991 O
0.601104 0.590496 0.576869 O
0.050978 0.011199 0.721528 O
0.249831 0.459227 0.182516 O
0.950832 0.994218 0.281565 O
0.100194 0.903610 0.055608 O
0.750016 0.729352 0.333372 O
0.750093 0.627601 0.056873 O
0.941473 0.772846 0.833900 O
0.091487 0.102845 0.476272 O
0.050255 0.226722 0.147714 O
0.399954 0.903278 0.055497 O
0.249949 0.790485 0.781746 O
0.750265 0.946238 0.106285 O
0.250406 0.056966 0.901012 O
0.063294 0.727646 0.326420 O
0.749969 0.132974 0.507617 O
0.933188 0.271508 0.679694 O
0.558120 0.772951 0.834104 O
0.563965 0.395283 0.957000 O
