Ca V  Fe P  O 
1.0
       14.9143304825         0.0000000000         0.0000000000
        0.0590371221         8.1697047517         0.0000000000
        3.6943932000         0.1567532664         9.0847295935
   Ca    V   Fe    P    O
    3    4    4   16   56
Direct
     0.263924450         0.430987775         0.730681241
     0.763924479         0.430987775         0.730681241
     0.013921820         0.430985600         0.230687767
     0.490245193         0.509713769         0.750482202
     0.990245223         0.509713769         0.750482202
     0.240243062         0.509696901         0.250488579
     0.740243077         0.509696901         0.250488579
     0.015237308         0.996919692         0.234195843
     0.515237331         0.996919692         0.234195843
     0.265245140         0.996923745         0.734176457
     0.765245140         0.996923745         0.734176457
     0.221376851         0.195481360         0.050784897
     0.721376836         0.195481360         0.050784897
     0.471341074         0.195458695         0.550759137
     0.971341074         0.195458695         0.550759137
     0.087191403         0.770480573         0.935295701
     0.587191403         0.770480573         0.935295701
     0.337170303         0.770494342         0.435357571
     0.837170303         0.770494342         0.435357571
     0.412761778         0.268794835         0.053734824
     0.912761807         0.268794835         0.053734824
     0.162775114         0.268790931         0.553703845
     0.662775099         0.268790931         0.553703845
     0.281143248         0.705724120         0.942046523
     0.781143248         0.705724120         0.942046523
     0.031136276         0.705722749         0.442032993
     0.531136274         0.705722749         0.442032993
     0.212082490         0.318002433         0.392888308
     0.712082505         0.318002433         0.392888308
     0.462082833         0.317991346         0.892914355
     0.962082863         0.317991346         0.892914355
     0.276610106         0.658710301         0.383986801
     0.776610136         0.658710301         0.383986801
     0.026599646         0.658681691         0.883968890
     0.526599646         0.658681691         0.883968890
     0.152727634         0.060843997         0.131739601
     0.652727604         0.060843997         0.131739601
     0.402716130         0.060828269         0.631756544
     0.902716160         0.060828269         0.631756544
     0.187124223         0.366258085         0.117979147
     0.687124252         0.366258085         0.117979147
     0.437122017         0.366304755         0.617999315
     0.937121987         0.366304755         0.617999315
     0.266322136         0.689368069         0.102984473
     0.766322136         0.689368069         0.102984473
     0.016321329         0.689354002         0.603018165
     0.516321301         0.689354002         0.603018165
     0.377843857         0.420210034         0.154920191
     0.877843857         0.420210034         0.154920191
     0.127821788         0.420249641         0.654950559
     0.627821803         0.420249641         0.654950559
     0.321576744         0.154928908         0.074395187
     0.821576715         0.154928908         0.074395187
     0.071609825         0.154920101         0.574403882
     0.571609855         0.154920101         0.574403882
     0.180880368         0.648643851         0.920891106
     0.680880368         0.648643851         0.920891106
     0.430886716         0.648636520         0.420882374
     0.930886745         0.648636520         0.420882374
     0.129600033         0.922261536         0.841070950
     0.629600048         0.922261536         0.841070950
     0.379596055         0.922244847         0.341078490
     0.879596055         0.922244847         0.341078490
     0.243452892         0.203643486         0.883829594
     0.743452907         0.203643486         0.883829594
     0.493462771         0.203644976         0.383810937
     0.993462801         0.203644976         0.383810937
     0.305641711         0.877392650         0.880213857
     0.805641711         0.877392650         0.880213857
     0.055645451         0.877414942         0.380194366
     0.555645466         0.877414942         0.380194366
     0.348245889         0.573454916         0.844256282
     0.848245859         0.573454916         0.844256282
     0.098242596         0.573451161         0.344254017
     0.598242581         0.573451161         0.344254017
     0.230755270         0.175036877         0.611936152
     0.730755270         0.175036877         0.611936152
     0.480750084         0.175075680         0.111913569
     0.980750084         0.175075680         0.111913569
     0.286934078         0.803030610         0.600420296
     0.786934078         0.803030610         0.600420296
     0.036917381         0.803047359         0.100496925
     0.536917388         0.803047359         0.100496925
