Ca Mn V  P  O                           
   1.00000000000000     
     7.3615770339999997    0.0000000000000000    0.0000000000000000
     0.1764880905000000    8.2527450794000003    0.0000000000000000
     0.4044067635000000    0.4538283880000000   18.2490875539999990
   Ca   Mn   V    P    O 
     3     4     4    16    56
Selective dynamics
Direct
  0.6471112572136162  0.9262836184229045  0.6146387898070784   T   T   T
  0.1346431360271124  0.9074644396760126  0.1273216121236928   T   T   T
  0.8667289226188560  0.4181291121067909  0.8766161517842804   T   T   T
  0.6163876594559802  0.0081505777862196  0.1321789108883683   T   T   T
  0.3495139290546398  0.9963506122394713  0.3782328626591754   T   T   T
  0.1192708552755655  0.0211487699974793  0.6294624041283409   T   T   T
  0.8488705083095195  0.9829735870308451  0.8793709019603453   T   T   T
  0.1537349112144988  0.4825650917000379  0.1249463145105416   T   T   T
  0.9043207898038906  0.5038270060962937  0.3727269323372078   T   T   T
  0.6502437843649445  0.4952302988622884  0.6167965628511899   T   T   T
  0.3993543857396773  0.5071166541533171  0.8723867049769850   T   T   T
  0.8543200472327006  0.7489559595442072  0.0302255024994762   T   T   T
  0.4620721651554738  0.6778688323271171  0.0302779805466772   T   T   T
  0.8864738117752892  0.2717990094999038  0.2243331213686234   T   T   T
  0.2771366306738859  0.1854563796117919  0.2266175083297822   T   T   T
  0.6113939756032055  0.7648133359717511  0.2830600503341310   T   T   T
  0.2261271521922894  0.6860749251861458  0.2761898555559619   T   T   T
  0.6427064784952248  0.2708145493941145  0.4703529329272542   T   T   T
  0.9672437056810199  0.6886124484888464  0.5260346986305684   T   T   T
  0.0328213997720149  0.1887927995629478  0.4701623249475050   T   T   T
  0.3543918719978500  0.7657770966830588  0.5279044996393828   T   T   T
  0.7762646085187098  0.2038277361048516  0.7219507784008250   T   T   T
  0.3867414281505696  0.2880690145312954  0.7213639526741367   T   T   T
  0.7245292072800027  0.7029979488964548  0.7716808055588554   T   T   T
  0.1161275519614512  0.7740692741762220  0.7811006621081343   T   T   T
  0.5368577051147000  0.1812078804079256  0.9700638745470267   T   T   T
  0.1479284057303106  0.2657395607209436  0.9733004578556079   T   T   T
  0.6752060648298782  0.6431990601289509  0.0461374221757868   T   T   T
  0.8400134568634957  0.9081091482749054  0.0732598081377020   T   T   T
  0.5784657133771964  0.1778972228074053  0.0508095964756528   T   T   T
  0.4067576961681311  0.8423530485824383  0.0600067475725820   T   T   T
  0.3693731062349060  0.5377512974958563  0.0725778740511353   T   T   T
  0.9385450452316592  0.4167358464880214  0.1715892301247189   T   T   T
  0.1308097999922505  0.2978892586227917  0.0554401502331123   T   T   T
  0.0140542338384244  0.6493681327301625  0.0624064089019501   T   T   T
  0.7301001494845836  0.1779463486196773  0.1980827229260140   T   T   T
  0.6600358963097146  0.8179556097519652  0.2044950403329127   T   T   T
  0.3612955890496188  0.0564472214088489  0.1760930020327320   T   T   T
  0.2960070520281261  0.3581060142043642  0.1945865267084485   T   T   T
  0.1801120658175791  0.6684324710152642  0.1928379866119480   T   T   T
  0.8725201076375169  0.3283499603500479  0.3028987992755290   T   T   T
  0.7618289547104952  0.6535557762518786  0.3157519613005744   T   T   T
  0.0606413985696648  0.1434769825912490  0.2180723295161914   T   T   T
  0.4399150994857483  0.6432323817392759  0.2826382609287142   T   T   T
  0.5650932127687218  0.9091054278102748  0.3318032926884922   T   T   T
  0.3315787480386469  0.1748104916055392  0.3058420100827544   T   T   T
  0.1897569607301525  0.8587188304572324  0.2975431632039533   T   T   T
  0.1275726088066905  0.5558979644027074  0.3220264701291908   T   T   T
  0.9367836129310969  0.6736508448888673  0.4438263133635454   T   T   T
  0.6904422992245873  0.4230190792622078  0.4235404403676653   T   T   T
  0.8176764653649543  0.1478582816699728  0.4692355560265891   T   T   T
  0.4858861624308661  0.1726779955057731  0.4482861027991226   T   T   T
  0.3727700856830009  0.8108131997500491  0.4471897092131372   T   T   T
  0.1228385779258768  0.0582136851937447  0.4235766365182040   T   T   T
  0.9184748931106620  0.8546617043168312  0.5563888375303075   T   T   T
  0.0455161818119599  0.3600905594711312  0.4343693204664474   T   T   T
  0.8736689830318632  0.5521526113701377  0.5707075677103270   T   T   T
  0.6235361106066428  0.3188227987596705  0.5530548010692967   T   T   T
  0.5203990041777924  0.6667804668297653  0.5559316813417574   T   T   T
  0.1812638546193248  0.6539811235357603  0.5411678223101341   T   T   T
  0.3401376532048461  0.9159825533537880  0.5775325652490426   T   T   T
  0.0891089566688292  0.1864551645838489  0.5500262222502402   T   T   T
  0.8628749803186047  0.0716728043092343  0.6742752965704998   T   T   T
  0.7960852185497036  0.3754821948603408  0.6895886605130445   T   T   T
  0.6787716067999854  0.6927248021937165  0.6898997918996437   T   T   T
  0.4351885622476900  0.4361496984501780  0.6714780012434467   T   T   T
  0.5614227004604345  0.1595950631169906  0.7149311979637095   T   T   T
  0.9393499828688872  0.6496723392214567  0.7831834483458663   T   T   T
  0.2288334230444545  0.1927538062013890  0.6975303943694804   T   T   T
  0.8307829326719860  0.1981370177542220  0.8022372895410961   T   T   T
  0.1470974727437928  0.8306050576250228  0.7023632095358316   T   T   T
  0.6975259945252058  0.8727792991674814  0.7989061991939361   T   T   T
  0.6363614551574536  0.5681374300943746  0.8198479627259280   T   T   T
  0.3737969473381317  0.3377261327286341  0.8020522853379635   T   T   T
  0.2667080684307881  0.6630466902707134  0.8108861684358396   T   T   T
  0.9821654612437681  0.1825450985527493  0.9438295077050703   T   T   T
  0.8738503708687168  0.7741704913007225  0.9474644383413090   T   T   T
  0.0699193437908193  0.9123137719712379  0.8334143272867603   T   T   T
  0.6260603905450529  0.0448137049087415  0.9266301927472217   T   T   T
  0.5702824390561001  0.3501620635652461  0.9319524673871363   T   T   T
  0.4374167253874704  0.6627287966957756  0.9471432992935065   T   T   T
  0.1736009278312100  0.4244853762167344  0.9255752167128851   T   T   T
  0.3205300129412288  0.1487067807854452  0.9602240882727273   T   T   T
 
  0.00000000E+00  0.00000000E+00  0.00000000E+00
  0.00000000E+00  0.00000000E+00  0.00000000E+00
  0.00000000E+00  0.00000000E+00  0.00000000E+00
  0.00000000E+00  0.00000000E+00  0.00000000E+00
  0.00000000E+00  0.00000000E+00  0.00000000E+00
  0.00000000E+00  0.00000000E+00  0.00000000E+00
  0.00000000E+00  0.00000000E+00  0.00000000E+00
  0.00000000E+00  0.00000000E+00  0.00000000E+00
  0.00000000E+00  0.00000000E+00  0.00000000E+00
  0.00000000E+00  0.00000000E+00  0.00000000E+00
  0.00000000E+00  0.00000000E+00  0.00000000E+00
  0.00000000E+00  0.00000000E+00  0.00000000E+00
  0.00000000E+00  0.00000000E+00  0.00000000E+00
  0.00000000E+00  0.00000000E+00  0.00000000E+00
  0.00000000E+00  0.00000000E+00  0.00000000E+00
  0.00000000E+00  0.00000000E+00  0.00000000E+00
  0.00000000E+00  0.00000000E+00  0.00000000E+00
  0.00000000E+00  0.00000000E+00  0.00000000E+00
  0.00000000E+00  0.00000000E+00  0.00000000E+00
  0.00000000E+00  0.00000000E+00  0.00000000E+00
  0.00000000E+00  0.00000000E+00  0.00000000E+00
  0.00000000E+00  0.00000000E+00  0.00000000E+00
  0.00000000E+00  0.00000000E+00  0.00000000E+00
  0.00000000E+00  0.00000000E+00  0.00000000E+00
  0.00000000E+00  0.00000000E+00  0.00000000E+00
  0.00000000E+00  0.00000000E+00  0.00000000E+00
  0.00000000E+00  0.00000000E+00  0.00000000E+00
  0.00000000E+00  0.00000000E+00  0.00000000E+00
  0.00000000E+00  0.00000000E+00  0.00000000E+00
  0.00000000E+00  0.00000000E+00  0.00000000E+00
  0.00000000E+00  0.00000000E+00  0.00000000E+00
  0.00000000E+00  0.00000000E+00  0.00000000E+00
  0.00000000E+00  0.00000000E+00  0.00000000E+00
  0.00000000E+00  0.00000000E+00  0.00000000E+00
  0.00000000E+00  0.00000000E+00  0.00000000E+00
  0.00000000E+00  0.00000000E+00  0.00000000E+00
  0.00000000E+00  0.00000000E+00  0.00000000E+00
  0.00000000E+00  0.00000000E+00  0.00000000E+00
  0.00000000E+00  0.00000000E+00  0.00000000E+00
  0.00000000E+00  0.00000000E+00  0.00000000E+00
  0.00000000E+00  0.00000000E+00  0.00000000E+00
  0.00000000E+00  0.00000000E+00  0.00000000E+00
  0.00000000E+00  0.00000000E+00  0.00000000E+00
  0.00000000E+00  0.00000000E+00  0.00000000E+00
  0.00000000E+00  0.00000000E+00  0.00000000E+00
  0.00000000E+00  0.00000000E+00  0.00000000E+00
  0.00000000E+00  0.00000000E+00  0.00000000E+00
  0.00000000E+00  0.00000000E+00  0.00000000E+00
  0.00000000E+00  0.00000000E+00  0.00000000E+00
  0.00000000E+00  0.00000000E+00  0.00000000E+00
  0.00000000E+00  0.00000000E+00  0.00000000E+00
  0.00000000E+00  0.00000000E+00  0.00000000E+00
  0.00000000E+00  0.00000000E+00  0.00000000E+00
  0.00000000E+00  0.00000000E+00  0.00000000E+00
  0.00000000E+00  0.00000000E+00  0.00000000E+00
  0.00000000E+00  0.00000000E+00  0.00000000E+00
  0.00000000E+00  0.00000000E+00  0.00000000E+00
  0.00000000E+00  0.00000000E+00  0.00000000E+00
  0.00000000E+00  0.00000000E+00  0.00000000E+00
  0.00000000E+00  0.00000000E+00  0.00000000E+00
  0.00000000E+00  0.00000000E+00  0.00000000E+00
  0.00000000E+00  0.00000000E+00  0.00000000E+00
  0.00000000E+00  0.00000000E+00  0.00000000E+00
  0.00000000E+00  0.00000000E+00  0.00000000E+00
  0.00000000E+00  0.00000000E+00  0.00000000E+00
  0.00000000E+00  0.00000000E+00  0.00000000E+00
  0.00000000E+00  0.00000000E+00  0.00000000E+00
  0.00000000E+00  0.00000000E+00  0.00000000E+00
  0.00000000E+00  0.00000000E+00  0.00000000E+00
  0.00000000E+00  0.00000000E+00  0.00000000E+00
  0.00000000E+00  0.00000000E+00  0.00000000E+00
  0.00000000E+00  0.00000000E+00  0.00000000E+00
  0.00000000E+00  0.00000000E+00  0.00000000E+00
  0.00000000E+00  0.00000000E+00  0.00000000E+00
  0.00000000E+00  0.00000000E+00  0.00000000E+00
  0.00000000E+00  0.00000000E+00  0.00000000E+00
  0.00000000E+00  0.00000000E+00  0.00000000E+00
  0.00000000E+00  0.00000000E+00  0.00000000E+00
  0.00000000E+00  0.00000000E+00  0.00000000E+00
  0.00000000E+00  0.00000000E+00  0.00000000E+00
  0.00000000E+00  0.00000000E+00  0.00000000E+00
  0.00000000E+00  0.00000000E+00  0.00000000E+00
  0.00000000E+00  0.00000000E+00  0.00000000E+00
