Ca V  Ni O 
1.0
       14.1762294769         0.0000000000         0.0000000000
       -2.9931901251        13.8758088455         0.0000000000
       -3.3367497533         2.6993037118        10.1750650176
   Ca    V   Ni    O
   15   40    8   96
Direct
     0.842670977         0.341845959         0.375072509
     0.156385645         0.156363487         0.124412604
     0.156385645         0.156363487         0.624412596
     0.156385645         0.656363487         0.124412604
     0.156385645         0.656363487         0.624412596
     0.656385660         0.156363487         0.624412596
     0.656385660         0.656363487         0.124412604
     0.656385660         0.656363487         0.624412596
     0.342670977         0.341845959         0.375072509
     0.342670977         0.341845959         0.875072479
     0.342670977         0.841845989         0.375072509
     0.342670977         0.841845989         0.875072479
     0.842670977         0.341845959         0.875072479
     0.842670977         0.841845989         0.375072509
     0.842670977         0.841845989         0.875072479
     0.035648622         0.037123352         0.374262094
     0.035648622         0.037123352         0.874262094
     0.035648622         0.537123322         0.374262094
     0.035648622         0.537123322         0.874262094
     0.535648644         0.037123352         0.374262094
     0.535648644         0.037123352         0.874262094
     0.535648644         0.537123322         0.374262094
     0.535648644         0.537123322         0.874262094
     0.083029531         0.317905039         0.313784957
     0.083029531         0.317905039         0.813784957
     0.083029531         0.817905068         0.313784957
     0.083029531         0.817905068         0.813784957
     0.583029509         0.317905039         0.313784957
     0.583029509         0.317905039         0.813784957
     0.583029509         0.817905068         0.313784957
     0.583029509         0.817905068         0.813784957
     0.187128499         0.421212584         0.061651900
     0.187128499         0.421212584         0.561651886
     0.187128499         0.921212554         0.061651900
     0.187128499         0.921212554         0.561651886
     0.687128484         0.421212584         0.061651900
     0.687128484         0.421212584         0.561651886
     0.687128484         0.921212554         0.061651900
     0.687128484         0.921212554         0.561651886
     0.317974389         0.082363307         0.435713470
     0.317974389         0.082363307         0.935713470
     0.317974389         0.582363307         0.435713470
     0.317974389         0.582363307         0.935713470
     0.817974389         0.082363307         0.435713470
     0.817974389         0.082363307         0.935713470
     0.817974389         0.582363307         0.435713470
     0.817974389         0.582363307         0.935713470
     0.416361749         0.187333003         0.184492514
     0.416361749         0.187333003         0.684492528
     0.416361749         0.687332988         0.184492514
     0.416361749         0.687332988         0.684492528
     0.916361749         0.187333003         0.184492514
     0.916361749         0.187333003         0.684492528
     0.916361749         0.687332988         0.184492514
     0.916361749         0.687332988         0.684492528
     0.463147730         0.462414861         0.124501064
     0.463147730         0.462414861         0.624501050
     0.463147730         0.962414861         0.124501064
     0.463147730         0.962414861         0.624501050
     0.963147759         0.462414861         0.124501064
     0.963147759         0.462414861         0.624501050
     0.963147759         0.962414861         0.124501064
     0.963147759         0.962414861         0.624501050
     0.002708683         0.398441672         0.328387409
     0.002708683         0.398441672         0.828387380
     0.002708683         0.898441672         0.328387409
     0.002708683         0.898441672         0.828387380
     0.502708673         0.398441672         0.328387409
     0.502708673         0.398441672         0.828387380
     0.502708673         0.898441672         0.328387409
     0.502708673         0.898441672         0.828387380
     0.030586775         0.185025722         0.369079262
     0.030586775         0.185025722         0.869079232
     0.030586775         0.685025692         0.369079262
     0.030586775         0.685025692         0.869079232
     0.530586779         0.185025722         0.369079262
     0.530586779         0.185025722         0.869079232
     0.530586779         0.685025692         0.369079262
     0.530586779         0.685025692         0.869079232
     0.100180693         0.498448670         0.076062091
     0.100180693         0.498448670         0.576062083
     0.100180693         0.998448670         0.076062091
     0.100180693         0.998448670         0.576062083
     0.600180686         0.498448670         0.076062091
     0.600180686         0.498448670         0.576062083
     0.600180686         0.998448670         0.076062091
     0.600180686         0.998448670         0.576062083
     0.179033309         0.324761242         0.232288733
     0.179033309         0.324761242         0.732288718
     0.179033309         0.824761271         0.232288733
     0.179033309         0.824761271         0.732288718
     0.679033279         0.324761242         0.232288733
     0.679033279         0.324761242         0.732288718
     0.679033279         0.824761271         0.232288733
     0.679033279         0.824761271         0.732288718
     0.181002900         0.027972631         0.382690340
     0.181002900         0.027972631         0.882690310
     0.181002900         0.527972639         0.382690340
     0.181002900         0.527972639         0.882690310
     0.681002915         0.027972631         0.382690340
     0.681002915         0.027972631         0.882690310
     0.681002915         0.527972639         0.382690340
     0.681002915         0.527972639         0.882690310
     0.174749136         0.317185134         0.983970344
     0.174749136         0.317185134         0.483970344
     0.174749136         0.817185163         0.983970344
     0.174749136         0.817185163         0.483970344
     0.674749136         0.317185134         0.983970344
     0.674749136         0.317185134         0.483970344
     0.674749136         0.817185163         0.983970344
     0.674749136         0.817185163         0.483970344
     0.325658619         0.183617756         0.517720282
     0.325658619         0.183617756         0.017720282
     0.325658619         0.683617771         0.517720282
     0.325658619         0.683617771         0.017720282
     0.825658619         0.183617756         0.517720282
     0.825658619         0.183617756         0.017720282
     0.825658619         0.683617771         0.517720282
     0.825658619         0.683617771         0.017720282
     0.314619005         0.464993119         0.121265478
     0.314619005         0.464993119         0.621265471
     0.314619005         0.964993119         0.121265478
     0.314619005         0.964993119         0.621265471
     0.814619005         0.464993119         0.121265478
     0.814619005         0.464993119         0.621265471
     0.814619005         0.964993119         0.121265478
     0.814619005         0.964993119         0.621265471
     0.317604750         0.178533882         0.262957841
     0.317604750         0.178533882         0.762957811
     0.317604750         0.678533912         0.262957841
     0.317604750         0.678533912         0.762957811
     0.817604780         0.178533882         0.262957841
     0.817604780         0.178533882         0.762957811
     0.817604780         0.678533912         0.262957841
     0.817604780         0.678533912         0.762957811
     0.403802514         0.999975264         0.421236932
     0.403802514         0.999975264         0.921236932
     0.403802514         0.499975264         0.421236932
     0.403802514         0.499975264         0.921236932
     0.903802514         0.999975264         0.421236932
     0.903802514         0.999975264         0.921236932
     0.903802514         0.499975264         0.421236932
     0.903802514         0.499975264         0.921236932
     0.469954789         0.315207064         0.132726133
     0.469954789         0.315207064         0.632726133
     0.469954789         0.815207064         0.132726133
     0.469954789         0.815207064         0.632726133
     0.969954789         0.315207064         0.132726133
     0.969954789         0.315207064         0.632726133
     0.969954789         0.815207064         0.132726133
     0.969954789         0.815207064         0.632726133
     0.497751206         0.099275798         0.177724063
     0.497751206         0.099275798         0.677724063
     0.497751206         0.599275827         0.177724063
     0.497751206         0.599275827         0.677724063
     0.997751236         0.099275798         0.177724063
     0.997751236         0.099275798         0.677724063
     0.997751236         0.599275827         0.177724063
     0.997751236         0.599275827         0.677724063
