Ca Mo P  O 
1.0
        8.9156579971         0.0000000000         0.0000000000
        0.0000000000        10.2235279083         0.0000000000
        0.0000000000         2.4110812349         6.9376843694
   Ca   Mo    P    O
    3    4    8   28
Direct
     0.605321944         0.630965829         0.730100513
     0.105321959         0.369034171         0.269899487
     0.105321959         0.869034171         0.269899487
     0.005442500         0.139413863         0.733068049
     0.005442500         0.639413834         0.733068049
     0.505442441         0.360586137         0.266931981
     0.505442441         0.860586166         0.266931981
     0.228012621         0.357456326         0.898239970
     0.228012621         0.857456326         0.898239970
     0.728012621         0.142543584         0.101759940
     0.728012621         0.642543554         0.101759940
     0.308812708         0.058158010         0.506035984
     0.308812708         0.558158040         0.506035984
     0.808812737         0.441841990         0.493963987
     0.808812737         0.941841960         0.493963987
     0.948288798         0.349806875         0.527446628
     0.948288798         0.849806905         0.527446628
     0.832104504         0.028823933         0.264924467
     0.832104504         0.528823912         0.264924467
     0.160822377         0.139385462         0.481652439
     0.160822377         0.639385462         0.481652439
     0.660822392         0.360614538         0.518347561
     0.660822392         0.860614538         0.518347561
     0.448288769         0.150193110         0.472553372
     0.448288769         0.650193095         0.472553372
     0.332104504         0.471176058         0.735075533
     0.332104504         0.971176028         0.735075533
     0.703330398         0.264465034         0.170655265
     0.703330398         0.764465034         0.170655265
     0.203330398         0.235534981         0.829344809
     0.203330398         0.735534966         0.829344809
     0.307316214         0.458636403         0.388974309
     0.307316214         0.958636403         0.388974309
     0.082928620         0.431188017         0.929721653
     0.082928620         0.931187987         0.929721653
     0.317519307         0.324848980         0.085709013
     0.317519307         0.824849010         0.085709013
     0.817519307         0.175151020         0.914291024
     0.817519307         0.675150990         0.914291024
     0.582928658         0.068812013         0.070278324
     0.582928658         0.568812013         0.070278324
     0.807316184         0.041363604         0.611025691
     0.807316184         0.541363597         0.611025691
