Ca Fe Si O 
1.0
       10.5223188400         0.0000000000         0.0000000000
        0.0445753394        18.1203007792         0.0000000000
       -2.5382217739        -4.3806069473        12.8151169106
   Ca   Fe   Si    O
   11   36   24   96
Direct
     0.806372643         0.468361199         0.328415632
     0.306372613         0.968361199         0.328415632
     0.806372643         0.968361199         0.328415632
     0.256936550         0.127321944         0.137824878
     0.256936550         0.627321959         0.137824878
     0.756936550         0.127321944         0.137824878
     0.756936550         0.627321959         0.137824878
     0.141772062         0.491869807         0.635342836
     0.141772062         0.991869807         0.635342836
     0.641772032         0.491869807         0.635342836
     0.641772032         0.991869807         0.635342836
     0.992887735         0.005120183         0.997137189
     0.992887735         0.505120158         0.997137189
     0.492887735         0.005120183         0.997137189
     0.492887735         0.505120158         0.997137189
     0.369499505         0.350600272         0.503737807
     0.369499505         0.850600243         0.503737807
     0.869499505         0.350600272         0.503737807
     0.869499505         0.850600243         0.503737807
     0.399087727         0.135475785         0.822911203
     0.399087727         0.635475755         0.822911203
     0.899087727         0.135475785         0.822911203
     0.899087727         0.635475755         0.822911203
     0.359780371         0.261674494         0.665081143
     0.359780371         0.761674523         0.665081143
     0.859780371         0.261674494         0.665081143
     0.859780371         0.761674523         0.665081143
     0.027274128         0.376966715         0.144395635
     0.027274128         0.876966715         0.144395635
     0.527274132         0.376966715         0.144395635
     0.527274132         0.876966715         0.144395635
     0.195986986         0.247634158         0.957343459
     0.195986986         0.747634172         0.957343459
     0.695986986         0.247634158         0.957343459
     0.695986986         0.747634172         0.957343459
     0.155295491         0.367423862         0.811130464
     0.155295491         0.867423892         0.811130464
     0.655295491         0.367423862         0.811130464
     0.655295491         0.867423892         0.811130464
     0.070299760         0.093033090         0.469149768
     0.070299760         0.593033075         0.469149768
     0.570299745         0.093033090         0.469149768
     0.570299745         0.593033075         0.469149768
     0.034519404         0.217494860         0.313707530
     0.034519404         0.717494845         0.313707530
     0.534519434         0.217494860         0.313707530
     0.534519434         0.717494845         0.313707530
     0.482267648         0.195150211         0.059403021
     0.482267648         0.695150197         0.059403021
     0.982267618         0.195150211         0.059403021
     0.982267618         0.695150197         0.059403021
     0.257209480         0.434279531         0.063956529
     0.257209480         0.934279561         0.063956529
     0.757209480         0.434279531         0.063956529
     0.757209480         0.934279561         0.063956529
     0.405954599         0.441590488         0.747023046
     0.405954599         0.941590488         0.747023046
     0.905954599         0.441590488         0.747023046
     0.905954599         0.941590488         0.747023046
     0.304711133         0.164125800         0.403523952
     0.304711133         0.664125800         0.403523952
     0.804711103         0.164125800         0.403523952
     0.804711103         0.664125800         0.403523952
     0.083885126         0.399633825         0.401016265
     0.083885126         0.899633825         0.401016265
     0.583885133         0.399633825         0.401016265
     0.583885133         0.899633825         0.401016265
     0.126054049         0.187534809         0.724483669
     0.126054049         0.687534809         0.724483669
     0.626054049         0.187534809         0.724483669
     0.626054049         0.687534809         0.724483669
     0.493050247         0.324996054         0.399176776
     0.493050247         0.824996054         0.399176776
     0.993050218         0.324996054         0.399176776
     0.993050218         0.824996054         0.399176776
     0.448230445         0.139664546         0.372289240
     0.448230445         0.639664531         0.372289240
     0.948230445         0.139664546         0.372289240
     0.948230445         0.639664531         0.372289240
     0.500182271         0.477336884         0.439112246
     0.500182271         0.977336884         0.439112246
     0.000182271         0.477336884         0.439112246
     0.000182271         0.977336884         0.439112246
     0.435254812         0.207564175         0.170107126
     0.435254812         0.707564175         0.170107126
     0.935254812         0.207564175         0.170107126
     0.935254812         0.707564175         0.170107126
     0.478241354         0.416404635         0.646031976
     0.478241354         0.916404605         0.646031976
     0.978241324         0.416404635         0.646031976
     0.978241324         0.916404605         0.646031976
     0.323970616         0.009259324         0.045055922
     0.323970616         0.509259343         0.045055922
     0.823970616         0.009259324         0.045055922
     0.823970616         0.509259343         0.045055922
     0.350073636         0.414020687         0.161039457
     0.350073636         0.914020658         0.161039457
     0.850073636         0.414020687         0.161039457
     0.850073636         0.914020658         0.161039457
     0.321461618         0.241547734         0.509073496
     0.321461618         0.741547704         0.509073496
     0.821461618         0.241547734         0.509073496
     0.821461618         0.741547704         0.509073496
     0.240448445         0.087521374         0.420121729
     0.240448445         0.587521374         0.420121729
     0.740448475         0.087521374         0.420121729
     0.740448475         0.587521374         0.420121729
     0.350929797         0.183046684         0.968277335
     0.350929797         0.683046699         0.968277335
     0.850929797         0.183046684         0.968277335
     0.850929797         0.683046699         0.968277335
     0.289712548         0.373659611         0.725674272
     0.289712548         0.873659611         0.725674272
     0.789712548         0.373659611         0.725674272
     0.789712548         0.873659611         0.725674272
     0.214051321         0.182117239         0.303560615
     0.214051321         0.682117224         0.303560615
     0.714051306         0.182117239         0.303560615
     0.714051306         0.682117224         0.303560615
     0.285080969         0.206449658         0.751397610
     0.285080969         0.706449628         0.751397610
     0.785080969         0.206449658         0.751397610
     0.785080969         0.706449628         0.751397610
     0.335435063         0.024055498         0.757066250
     0.335435063         0.524055481         0.757066250
     0.835435033         0.024055498         0.757066250
     0.835435033         0.524055481         0.757066250
     0.219163731         0.416325837         0.489276201
     0.219163731         0.916325808         0.489276201
     0.719163716         0.416325837         0.489276201
     0.719163716         0.916325808         0.489276201
     0.124259017         0.389735013         0.289380252
     0.124259017         0.889734983         0.289380252
     0.624258995         0.389735013         0.289380252
     0.624258995         0.889734983         0.289380252
     0.117267318         0.461082876         0.099540122
     0.117267318         0.961082876         0.099540122
     0.617267311         0.461082876         0.099540122
     0.617267311         0.961082876         0.099540122
     0.064702734         0.116744615         0.030338349
     0.064702734         0.616744637         0.030338349
     0.564702749         0.116744615         0.030338349
     0.564702749         0.616744637         0.030338349
     0.076406166         0.269676119         0.064348154
     0.076406166         0.769676089         0.064348154
     0.576406181         0.269676119         0.064348154
     0.576406181         0.769676089         0.064348154
     0.231315389         0.358153760         0.956317008
     0.231315389         0.858153760         0.956317008
     0.731315374         0.358153760         0.956317008
     0.731315374         0.858153760         0.956317008
     0.085787311         0.110701546         0.620875001
     0.085787311         0.610701561         0.620875001
     0.585787296         0.110701546         0.620875001
     0.585787296         0.610701561         0.620875001
     0.085391700         0.168788731         0.824963629
     0.085391700         0.668788731         0.824963629
     0.585391700         0.168788731         0.824963629
     0.585391700         0.668788731         0.824963629
     0.055979967         0.265521139         0.710584044
     0.055979967         0.765521169         0.710584044
     0.555979967         0.265521139         0.710584044
     0.555979967         0.765521169         0.710584044
     0.017316163         0.446797699         0.850921214
     0.017316163         0.946797729         0.850921214
     0.517316163         0.446797699         0.850921214
     0.517316163         0.946797729         0.850921214
