Ca Co Ni O 
1.0
       11.2397708893         0.0000000000         0.0000000000
        5.6227271220         9.7350437192         0.0000000000
        5.6164799758         3.2665866923        11.7268618342
   Ca   Co   Ni    O
    7   24    8   64
Direct
     0.423156410         0.921561062         0.232588887
     0.423156410         0.421561062         0.732588887
     0.423156410         0.921561062         0.732588887
     0.923156381         0.421561062         0.232588887
     0.923156381         0.421561062         0.732588887
     0.923156381         0.921561062         0.232588887
     0.923156381         0.921561062         0.732588887
     0.248693466         0.001802510         0.000745572
     0.248693466         0.001802510         0.500745595
     0.248693466         0.501802504         0.000745572
     0.248693466         0.501802504         0.500745595
     0.748693466         0.001802510         0.000745572
     0.748693466         0.001802510         0.500745595
     0.748693466         0.501802504         0.000745572
     0.748693466         0.501802504         0.500745595
     0.001577553         0.248755679         0.000922576
     0.001577553         0.248755679         0.500922561
     0.001577553         0.748755693         0.000922576
     0.001577553         0.748755693         0.500922561
     0.501577556         0.248755679         0.000922576
     0.501577556         0.248755679         0.500922561
     0.501577556         0.748755693         0.000922576
     0.501577556         0.748755693         0.500922561
     0.248689607         0.248765007         0.000812671
     0.248689607         0.248765007         0.500812650
     0.248689607         0.748764992         0.000812671
     0.248689607         0.748764992         0.500812650
     0.748689592         0.248765007         0.000812671
     0.748689592         0.248765007         0.500812650
     0.748689592         0.748764992         0.000812671
     0.748689592         0.748764992         0.500812650
     0.003171091         0.003370657         0.490136445
     0.003171091         0.003370657         0.990136445
     0.003171091         0.503370643         0.490136445
     0.003171091         0.503370643         0.990136445
     0.503171086         0.003370657         0.490136445
     0.503171086         0.003370657         0.990136445
     0.503171086         0.503370643         0.490136445
     0.503171086         0.503370643         0.990136445
     0.112371072         0.112929977         0.412919849
     0.112371072         0.112929977         0.912919879
     0.112371072         0.612930000         0.412919849
     0.112371072         0.612930000         0.912919879
     0.612371087         0.112929977         0.412919849
     0.612371087         0.112929977         0.912919879
     0.612371087         0.612930000         0.412919849
     0.612371087         0.612930000         0.912919879
     0.361544162         0.112962067         0.412906796
     0.361544162         0.112962067         0.912906766
     0.361544162         0.612962067         0.412906796
     0.361544162         0.612962067         0.912906766
     0.861544132         0.112962067         0.412906796
     0.861544132         0.112962067         0.912906766
     0.861544132         0.612962067         0.412906796
     0.861544132         0.612962067         0.912906766
     0.112432346         0.362008572         0.412943423
     0.112432346         0.362008572         0.912943423
     0.112432346         0.862008572         0.412943423
     0.112432346         0.862008572         0.912943423
     0.612432361         0.362008572         0.412943423
     0.612432361         0.362008572         0.912943423
     0.612432361         0.862008572         0.412943423
     0.612432361         0.862008572         0.912943423
     0.360200107         0.360624969         0.418818653
     0.360200107         0.360624969         0.918818653
     0.360200107         0.860624969         0.418818653
     0.360200107         0.860624969         0.918818653
     0.860200107         0.360624969         0.418818653
     0.860200107         0.360624969         0.918818653
     0.860200107         0.860624969         0.418818653
     0.860200107         0.860624969         0.918818653
     0.138840631         0.138591990         0.083719358
     0.138840631         0.138591990         0.583719373
     0.138840631         0.638592005         0.083719358
     0.138840631         0.638592005         0.583719373
     0.638840616         0.138591990         0.083719358
     0.638840616         0.138591990         0.583719373
     0.638840616         0.638592005         0.083719358
     0.638840616         0.638592005         0.583719373
     0.393071204         0.131432295         0.082375959
     0.393071204         0.131432295         0.582375944
     0.393071204         0.631432295         0.082375959
     0.393071204         0.631432295         0.582375944
     0.893071175         0.131432295         0.082375959
     0.893071175         0.131432295         0.582375944
     0.893071175         0.631432295         0.082375959
     0.893071175         0.631432295         0.582375944
     0.131772473         0.392852217         0.082336552
     0.131772473         0.392852217         0.582336545
     0.131772473         0.892852187         0.082336552
     0.131772473         0.892852187         0.582336545
     0.631772459         0.392852217         0.082336552
     0.631772459         0.392852217         0.582336545
     0.631772459         0.892852187         0.082336552
     0.631772459         0.892852187         0.582336545
     0.393052399         0.392914355         0.082313754
     0.393052399         0.392914355         0.582313776
     0.393052399         0.892914355         0.082313754
     0.393052399         0.892914355         0.582313776
     0.893052399         0.392914355         0.082313754
     0.893052399         0.392914355         0.582313776
     0.893052399         0.892914355         0.082313754
     0.893052399         0.892914355         0.582313776
