Fe4 P4 O16
1.0
   8.5938049999999997   -0.1880420000000000    0.3623690000000000
  -0.2224300000000000    9.4992839999999994   -0.0487300000000000
  -1.7333149999999999    0.0132710000000000    4.9900549999999999
Fe P O
4 4 16
direct
   0.2041289999999990    0.4578379999999990    0.4279380000000000 Fe
   0.3431790000000000    0.9774400000000001    0.0482070000000000 Fe
   0.7061620000000000    0.0177520000000000    0.9791670000000000 Fe
   0.8028250000000000    0.5207990000000000    0.5383530000000000 Fe
   0.1718410000000000    0.6506750000000000    0.8659370000000000 P
   0.2969830000000000    0.1258910000000000    0.5886930000000000 P
   0.7035540000000000    0.8382839999999990    0.4140189999999990 P
   0.8031729999999990    0.3590270000000000    0.1220290000000000 P
   0.9920549999999991    0.6616630000000000    0.6795820000000000 O
   0.1616139999999990    0.0647160000000000    0.7107660000000000 O
   0.2052679999999990    0.8159010000000000    0.9299400000000001 O
   0.2706420000000000    0.0568409999999990    0.3147660000000000 O
   0.2866750000000000    0.6036810000000000    0.7160630000000000 O
   0.1788170000000000    0.5724480000000000    0.1156020000000000 O
   0.3080080000000000    0.2836809999999990    0.5779160000000000 O
   0.4526860000000000    0.0666549999999990    0.7954340000000000 O
   0.5574570000000000    0.9171960000000000    0.2334520000000000 O
   0.6600969999999990    0.6823580000000000    0.4373100000000000 O
   0.7959809999999991    0.4298820000000000    0.8549479999999990 O
   0.6649510000000000    0.4049160000000000    0.2351950000000000 O
   0.7741049999999990    0.9115100000000000    0.6914300000000001 O
   0.8120910000000000    0.1996939999999990    0.0948730000000000 O
   0.8429260000000000    0.8691530000000000    0.2816810000000000 O
   0.9539909999999990    0.4199279999999990    0.3512579999999990 O
