Fe P  O 
 1.0000000000000000
     8.5938049999999997   -0.1880420000000000    0.3623690000000000
    -0.2224300000000000    9.4992839999999994   -0.0487300000000000
    -1.7333149999999999    0.0132710000000000    4.9900549999999999
 Fe  P   O  
   4   4  16
Cartesian
  1.1028051304178630  4.0838951543403166  1.8667728677659310
  2.4035862622233122  9.1163002832726274  0.1774695968550059
  4.1756255176601558  0.1455651857848199  5.1392763978637070
  5.5092013607885804  5.1618614302627730  3.4283337910783844
  0.0444866056593805  5.8947794978361152  4.2753974180341663
  1.5175075410895831  1.0388512060709068  2.9625139048085507
  5.0667331152549799  8.2165667049749231  2.3489763362156006
  6.5771499911443323  3.3557167025683903  1.0210705325665106
  7.1700144445074088  5.5980754878803252  4.1687647668196002
  0.2016074872921996  0.8127387724223396  3.7525390682575490
  0.3215258466836601  7.3468505551510948  4.6901107185668849
  1.5381984351186309  0.2570886587369827  1.6399684390538902
  0.9905970484907428  5.4994975037527318  3.1176434181290902
  2.0490496585593148  4.9107404790322517  0.4628426757395631
  1.8385948733937878  2.5271616537266062  2.6943627438921993
  2.5343371479943051  0.3999281663895875  3.9974408046052763
  4.0394799002229549  8.8604551966547831  1.3279505519970556
  4.7860353237115687  6.7140919453159107  2.5787756311625305
  4.5736340704105718  4.3751592317847026  4.8643376444092219
  5.6537653012639089  3.7342621257900510  2.2010225352997148
  5.0319724436617941  8.9566318723257243  3.6932356826916353
  6.2647039418669355  1.9241404323876918  0.5681774186055738
  6.3816989666078738  8.4846583117319820  1.5702655793969056
  8.0543123994710513  3.4261000203112508  1.4682800352504051
