Ca V  Fe Cu O 
1.0
       13.5761690140         0.0000000000         0.0000000000
       -3.4945101488        16.2148451635         0.0000000000
       -4.8911001835        -7.1168238983        18.1389688654
   Ca    V   Fe   Cu    O
   15   48   32   16  192
Direct
     0.256466836         0.484364271         0.451532990
     0.039610270         0.013251736         0.030733544
     0.039610270         0.013251736         0.530733526
     0.039610270         0.513251722         0.030733544
     0.039610270         0.513251722         0.530733526
     0.539610267         0.013251736         0.030733544
     0.539610267         0.013251736         0.530733526
     0.539610267         0.513251722         0.030733544
     0.256466836         0.484364271         0.951532960
     0.256466836         0.984364271         0.451532990
     0.256466836         0.984364271         0.951532960
     0.756466866         0.484364271         0.451532990
     0.756466866         0.484364271         0.951532960
     0.756466866         0.984364271         0.451532990
     0.756466866         0.984364271         0.951532960
     0.113256879         0.083579376         0.377587736
     0.113256879         0.083579376         0.877587736
     0.113256879         0.583579361         0.377587736
     0.113256879         0.583579361         0.877587736
     0.613256872         0.083579376         0.377587736
     0.613256872         0.083579376         0.877587736
     0.613256872         0.583579361         0.377587736
     0.613256872         0.583579361         0.877587736
     0.204958066         0.117325440         0.189223737
     0.204958066         0.117325440         0.689223766
     0.204958066         0.617325425         0.189223737
     0.204958066         0.617325425         0.689223766
     0.704958081         0.117325440         0.189223737
     0.704958081         0.117325440         0.689223766
     0.704958081         0.617325425         0.189223737
     0.704958081         0.617325425         0.689223766
     0.440915316         0.201013699         0.081024811
     0.440915316         0.201013699         0.581024826
     0.440915316         0.701013684         0.081024811
     0.440915316         0.701013684         0.581024826
     0.940915346         0.201013699         0.081024811
     0.940915346         0.201013699         0.581024826
     0.940915346         0.701013684         0.081024811
     0.940915346         0.701013684         0.581024826
     0.059070870         0.297617376         0.416586995
     0.059070870         0.297617376         0.916586995
     0.059070870         0.797617376         0.416586995
     0.059070870         0.797617376         0.916586995
     0.559070885         0.297617376         0.416586995
     0.559070885         0.297617376         0.916586995
     0.559070885         0.797617376         0.416586995
     0.559070885         0.797617376         0.916586995
     0.294790268         0.381622821         0.310223579
     0.294790268         0.381622821         0.810223579
     0.294790268         0.881622791         0.310223579
     0.294790268         0.881622791         0.810223579
     0.794790268         0.381622821         0.310223579
     0.794790268         0.381622821         0.810223579
     0.794790268         0.881622791         0.310223579
     0.794790268         0.881622791         0.810223579
     0.386974782         0.416184634         0.120110855
     0.386974782         0.416184634         0.620110869
     0.386974782         0.916184664         0.120110855
     0.386974782         0.916184664         0.620110869
     0.886974812         0.416184634         0.120110855
     0.886974812         0.416184634         0.620110869
     0.886974812         0.916184664         0.120110855
     0.886974812         0.916184664         0.620110869
     0.479903162         0.147953212         0.241340131
     0.479903162         0.147953212         0.741340160
     0.479903162         0.647953212         0.241340131
     0.479903162         0.647953212         0.741340160
     0.979903162         0.147953212         0.241340131
     0.979903162         0.147953212         0.741340160
     0.979903162         0.647953212         0.241340131
     0.979903162         0.647953212         0.741340160
     0.310274482         0.274805278         0.445553362
     0.310274482         0.274805278         0.945553362
     0.310274482         0.774805307         0.445553362
     0.310274482         0.774805307         0.945553362
     0.810274482         0.274805278         0.445553362
     0.810274482         0.274805278         0.945553362
     0.810274482         0.774805307         0.445553362
     0.810274482         0.774805307         0.945553362
     0.188441366         0.226335287         0.052950408
     0.188441366         0.226335287         0.552950382
     0.188441366         0.726335287         0.052950408
     0.188441366         0.726335287         0.552950382
     0.688441396         0.226335287         0.052950408
     0.688441396         0.226335287         0.552950382
     0.688441396         0.726335287         0.052950408
     0.688441396         0.726335287         0.552950382
     0.023792882         0.350706518         0.256834567
     0.023792882         0.350706518         0.756834567
     0.023792882         0.850706518         0.256834567
     0.023792882         0.850706518         0.756834567
     0.523792863         0.350706518         0.256834567
     0.523792863         0.350706518         0.756834567
     0.523792863         0.850706518         0.256834567
     0.523792863         0.850706518         0.756834567
     0.349513859         0.098581374         0.336574942
     0.349513859         0.098581374         0.836574912
     0.349513859         0.598581374         0.336574942
     0.349513859         0.598581374         0.836574912
     0.849513888         0.098581374         0.336574942
     0.849513888         0.098581374         0.836574912
     0.849513888         0.598581374         0.336574942
     0.849513888         0.598581374         0.836574912
     0.147285029         0.399021536         0.158900514
     0.147285029         0.399021536         0.658900499
     0.147285029         0.899021506         0.158900514
     0.147285029         0.899021506         0.658900499
     0.647285044         0.399021536         0.158900514
     0.647285044         0.399021536         0.658900499
     0.647285044         0.899021506         0.158900514
     0.647285044         0.899021506         0.658900499
     0.414509028         0.027002215         0.163346261
     0.414509028         0.027002215         0.663346291
     0.414509028         0.527002215         0.163346261
     0.414509028         0.527002215         0.663346291
     0.914509058         0.027002215         0.163346261
     0.914509058         0.027002215         0.663346291
     0.914509058         0.527002215         0.163346261
     0.914509058         0.527002215         0.663346291
     0.127164364         0.096690267         0.470870376
     0.127164364         0.096690267         0.970870376
     0.127164364         0.596690297         0.470870376
     0.127164364         0.596690297         0.970870376
     0.627164364         0.096690267         0.470870376
     0.627164364         0.096690267         0.970870376
     0.627164364         0.596690297         0.470870376
     0.627164364         0.596690297         0.970870376
     0.502386808         0.107683972         0.329662353
     0.502386808         0.107683972         0.829662323
     0.502386808         0.607683957         0.329662353
     0.502386808         0.607683957         0.829662323
     0.002386808         0.107683972         0.329662353
     0.002386808         0.107683972         0.829662323
     0.002386808         0.607683957         0.329662353
     0.002386808         0.607683957         0.829662323
     0.147511661         0.004486317         0.135573074
     0.147511661         0.004486317         0.635573089
     0.147511661         0.504486322         0.135573074
     0.147511661         0.504486322         0.635573089
     0.647511661         0.004486317         0.135573074
     0.647511661         0.004486317         0.635573089
     0.647511661         0.504486322         0.135573074
     0.647511661         0.504486322         0.635573089
     0.240823448         0.140463367         0.378936559
     0.240823448         0.140463367         0.878936529
     0.240823448         0.640463352         0.378936559
     0.240823448         0.640463352         0.878936529
     0.740823448         0.140463367         0.378936559
     0.740823448         0.140463367         0.878936529
     0.740823448         0.640463352         0.378936559
     0.740823448         0.640463352         0.878936529
     0.333474964         0.140761241         0.252025813
     0.333474964         0.140761241         0.752025843
     0.333474964         0.640761256         0.252025813
     0.333474964         0.640761256         0.752025843
     0.833474994         0.140761241         0.252025813
     0.833474994         0.140761241         0.752025843
     0.833474994         0.640761256         0.252025813
     0.833474994         0.640761256         0.752025843
     0.410182387         0.089089461         0.034614000
     0.410182387         0.089089461         0.534614027
     0.410182387         0.589089453         0.034614000
     0.410182387         0.589089453         0.534614027
     0.910182357         0.089089461         0.034614000
     0.910182357         0.089089461         0.534614027
     0.910182357         0.589089453         0.034614000
     0.910182357         0.589089453         0.534614027
     0.439880997         0.255350262         0.427426875
     0.439880997         0.255350262         0.927426875
     0.439880997         0.755350232         0.427426875
     0.439880997         0.755350232         0.927426875
     0.939880967         0.255350262         0.427426875
     0.939880967         0.255350262         0.927426875
     0.939880967         0.755350232         0.427426875
     0.939880967         0.755350232         0.927426875
     0.122503899         0.150034457         0.236880437
     0.122503899         0.150034457         0.736880422
     0.122503899         0.650034428         0.236880437
     0.122503899         0.650034428         0.736880422
     0.622503877         0.150034457         0.236880437
     0.622503877         0.150034457         0.736880422
     0.622503877         0.650034428         0.236880437
     0.622503877         0.650034428         0.736880422
     0.459841341         0.220289111         0.175714061
     0.459841341         0.220289111         0.675714076
     0.459841341         0.720289111         0.175714061
     0.459841341         0.720289111         0.675714076
     0.959841371         0.220289111         0.175714061
     0.959841371         0.220289111         0.675714076
     0.959841371         0.720289111         0.175714061
     0.959841371         0.720289111         0.675714076
     0.163222745         0.259175420         0.458719462
     0.163222745         0.259175420         0.958719492
     0.163222745         0.759175420         0.458719462
     0.163222745         0.759175420         0.958719492
     0.663222730         0.259175420         0.458719462
     0.663222730         0.259175420         0.958719492
     0.663222730         0.759175420         0.458719462
     0.663222730         0.759175420         0.958719492
     0.197628334         0.160291463         0.118656494
     0.197628334         0.160291463         0.618656516
     0.197628334         0.660291433         0.118656494
     0.197628334         0.660291433         0.618656516
     0.697628319         0.160291463         0.118656494
     0.697628319         0.160291463         0.618656516
     0.697628319         0.660291433         0.118656494
     0.697628319         0.660291433         0.618656516
     0.277896672         0.340833843         0.380128801
     0.277896672         0.340833843         0.880128801
     0.277896672         0.840833843         0.380128801
     0.277896672         0.840833843         0.880128801
     0.777896643         0.340833843         0.380128801
     0.777896643         0.340833843         0.880128801
     0.777896643         0.840833843         0.380128801
     0.777896643         0.840833843         0.880128801
     0.333879709         0.235840857         0.038488697
     0.333879709         0.235840857         0.538488686
     0.333879709         0.735840857         0.038488697
     0.333879709         0.735840857         0.538488686
     0.833879709         0.235840857         0.038488697
     0.833879709         0.235840857         0.538488686
     0.833879709         0.735840857         0.038488697
     0.833879709         0.735840857         0.538488686
     0.041043874         0.277336985         0.322173625
     0.041043874         0.277336985         0.822173595
     0.041043874         0.777336955         0.322173625
     0.041043874         0.777336955         0.822173595
     0.541043878         0.277336985         0.322173625
     0.541043878         0.277336985         0.822173595
     0.541043878         0.777336955         0.322173625
     0.541043878         0.777336955         0.822173595
     0.386576861         0.352628440         0.270638317
     0.386576861         0.352628440         0.770638347
     0.386576861         0.852628469         0.270638317
     0.386576861         0.852628469         0.770638347
     0.886576891         0.352628440         0.270638317
     0.886576891         0.352628440         0.770638347
     0.886576891         0.852628469         0.270638317
     0.886576891         0.852628469         0.770638347
     0.056648690         0.249091566         0.068137258
     0.056648690         0.249091566         0.568137288
     0.056648690         0.749091566         0.068137258
     0.056648690         0.749091566         0.568137288
     0.556648672         0.249091566         0.068137258
     0.556648672         0.249091566         0.568137288
     0.556648672         0.749091566         0.068137258
     0.556648672         0.749091566         0.568137288
     0.101833351         0.409928232         0.463383168
     0.101833351         0.409928232         0.963383198
     0.101833351         0.909928203         0.463383168
     0.101833351         0.909928203         0.963383198
     0.601833344         0.409928232         0.463383168
     0.601833344         0.409928232         0.963383198
     0.601833344         0.909928203         0.463383168
     0.601833344         0.909928203         0.963383198
     0.168975249         0.355793297         0.243262336
     0.168975249         0.355793297         0.743262351
     0.168975249         0.855793297         0.243262336
     0.168975249         0.855793297         0.743262351
     0.668975234         0.355793297         0.243262336
     0.668975234         0.355793297         0.743262351
     0.668975234         0.855793297         0.243262336
     0.668975234         0.855793297         0.743262351
     0.260441899         0.359877378         0.119759284
     0.260441899         0.359877378         0.619759262
     0.260441899         0.859877348         0.119759284
     0.260441899         0.859877348         0.619759262
     0.760441899         0.359877378         0.119759284
     0.760441899         0.359877378         0.619759262
     0.760441899         0.859877348         0.119759284
     0.760441899         0.859877348         0.619759262
     0.339060783         0.494568795         0.363648772
     0.339060783         0.494568795         0.863648772
     0.339060783         0.994568825         0.363648772
     0.339060783         0.994568825         0.863648772
     0.839060783         0.494568795         0.363648772
     0.839060783         0.494568795         0.863648772
     0.839060783         0.994568825         0.363648772
     0.839060783         0.994568825         0.863648772
     0.493818551         0.386906028         0.168563724
     0.493818551         0.386906028         0.668563724
     0.493818551         0.886906028         0.168563724
     0.493818551         0.886906028         0.668563724
     0.993818521         0.386906028         0.168563724
     0.993818521         0.386906028         0.668563724
     0.993818521         0.886906028         0.168563724
     0.993818521         0.886906028         0.668563724
     0.382963181         0.401654929         0.027025232
     0.382963181         0.401654929         0.527025223
     0.382963181         0.901654959         0.027025232
     0.382963181         0.901654959         0.527025223
     0.882963181         0.401654929         0.027025232
     0.882963181         0.401654929         0.527025223
     0.882963181         0.901654959         0.027025232
     0.882963181         0.901654959         0.527025223
     0.101976134         0.472908020         0.339237750
     0.101976134         0.472908020         0.839237750
     0.101976134         0.972908020         0.339237750
     0.101976134         0.972908020         0.839237750
     0.601976156         0.472908020         0.339237750
     0.601976156         0.472908020         0.839237750
     0.601976156         0.972908020         0.339237750
     0.601976156         0.972908020         0.839237750
