Ca Mn V  Ni O 
1.0
       14.1065301895         0.0000000000         0.0000000000
        1.7276381257        14.0003378707         0.0000000000
        3.0815165413         2.7246314346        10.9440682525
   Ca   Mn    V   Ni    O
   15    8   32    8   96
Direct
     0.643146753         0.856853247         0.500000000
     0.356974840         0.143025160         0.250000000
     0.356974840         0.143025160         0.750000000
     0.356974840         0.643025160         0.250000000
     0.856974840         0.143025160         0.250000000
     0.856974840         0.143025160         0.750000000
     0.856974840         0.643025160         0.250000000
     0.856974840         0.643025160         0.750000000
     0.143146738         0.356853247         0.000000000
     0.143146738         0.356853247         0.500000000
     0.143146738         0.856853247         0.000000000
     0.143146738         0.856853247         0.500000000
     0.643146753         0.356853247         0.000000000
     0.643146753         0.356853247         0.500000000
     0.643146753         0.856853247         0.000000000
     0.458968669         0.041031338         0.000000000
     0.458968669         0.041031338         0.500000000
     0.458968669         0.541031361         0.000000000
     0.458968669         0.541031361         0.500000000
     0.958968639         0.041031338         0.000000000
     0.958968639         0.041031338         0.500000000
     0.958968639         0.541031361         0.000000000
     0.958968639         0.541031361         0.500000000
     0.403061986         0.307237387         0.989513457
     0.403061986         0.307237387         0.489513457
     0.403061986         0.807237387         0.989513457
     0.403061986         0.807237387         0.489513457
     0.903061986         0.307237387         0.989513457
     0.903061986         0.307237387         0.489513457
     0.903061986         0.807237387         0.989513457
     0.903061986         0.807237387         0.489513457
     0.304839194         0.403659284         0.241793051
     0.304839194         0.403659284         0.741793036
     0.304839194         0.903659284         0.241793051
     0.304839194         0.903659284         0.741793036
     0.804839194         0.403659284         0.241793051
     0.804839194         0.403659284         0.741793036
     0.804839194         0.903659284         0.241793051
     0.804839194         0.903659284         0.741793036
     0.192762643         0.096938044         0.510486603
     0.192762643         0.096938044         0.010486603
     0.192762643         0.596938014         0.510486603
     0.192762643         0.596938014         0.010486603
     0.692762613         0.096938044         0.510486603
     0.692762613         0.096938044         0.010486603
     0.692762613         0.596938014         0.510486603
     0.692762613         0.596938014         0.010486603
     0.096340701         0.195160821         0.258206934
     0.096340701         0.195160821         0.758206964
     0.096340701         0.695160806         0.258206934
     0.096340701         0.695160806         0.758206964
     0.596340716         0.195160821         0.258206934
     0.596340716         0.195160821         0.758206964
     0.596340716         0.695160806         0.258206934
     0.596340716         0.695160806         0.758206964
     0.041637432         0.458362579         0.250000000
     0.041637432         0.458362579         0.750000000
     0.041637432         0.958362579         0.250000000
     0.041637432         0.958362579         0.750000000
     0.541637421         0.458362579         0.250000000
     0.541637421         0.458362579         0.750000000
     0.541637421         0.958362579         0.250000000
     0.541637421         0.958362579         0.750000000
     0.494307995         0.400021017         0.440312713
     0.494307995         0.400021017         0.940312743
     0.494307995         0.900021017         0.440312713
     0.494307995         0.900021017         0.940312743
     0.994307995         0.400021017         0.440312713
     0.994307995         0.400021017         0.940312743
     0.994307995         0.900021017         0.440312713
     0.994307995         0.900021017         0.940312743
     0.451688081         0.185478419         0.029318923
     0.451688081         0.185478419         0.529318929
     0.451688081         0.685478449         0.029318923
     0.451688081         0.685478449         0.529318929
     0.951688051         0.185478419         0.029318923
     0.951688051         0.185478419         0.529318929
     0.951688051         0.685478449         0.029318923
     0.951688051         0.685478449         0.529318929
     0.400392324         0.490404159         0.200309053
     0.400392324         0.490404159         0.700309038
     0.400392324         0.990404129         0.200309053
     0.400392324         0.990404129         0.700309038
     0.900392294         0.490404159         0.200309053
     0.900392294         0.490404159         0.700309038
     0.900392294         0.990404129         0.200309053
     0.900392294         0.990404129         0.700309038
     0.311697602         0.323973179         0.396311074
     0.311697602         0.323973179         0.896311045
     0.311697602         0.823973179         0.396311074
     0.311697602         0.823973179         0.896311045
     0.811697602         0.323973179         0.396311074
     0.811697602         0.323973179         0.896311045
     0.811697602         0.823973179         0.396311074
     0.811697602         0.823973179         0.896311045
     0.314521611         0.048311949         0.470681071
     0.314521611         0.048311949         0.970681071
     0.314521611         0.548311949         0.470681071
     0.314521611         0.548311949         0.970681071
     0.814521611         0.048311949         0.470681071
     0.814521611         0.048311949         0.970681071
     0.814521611         0.548311949         0.470681071
     0.814521611         0.548311949         0.970681071
     0.326097518         0.314009845         0.144924834
     0.326097518         0.314009845         0.644924819
     0.326097518         0.814009845         0.144924834
     0.326097518         0.814009845         0.644924819
     0.826097488         0.314009845         0.144924834
     0.826097488         0.314009845         0.644924819
     0.826097488         0.814009845         0.144924834
     0.826097488         0.814009845         0.644924819
     0.176026821         0.188302413         0.103688933
     0.176026821         0.188302413         0.603688955
     0.176026821         0.688302398         0.103688933
     0.176026821         0.688302398         0.603688955
     0.676026821         0.188302413         0.103688933
     0.676026821         0.188302413         0.603688955
     0.676026821         0.688302398         0.103688933
     0.676026821         0.688302398         0.603688955
     0.182532758         0.450562298         0.277680576
     0.182532758         0.450562298         0.777680576
     0.182532758         0.950562298         0.277680576
     0.182532758         0.950562298         0.777680576
     0.682532787         0.450562298         0.277680576
     0.682532787         0.450562298         0.777680576
     0.682532787         0.950562298         0.277680576
     0.682532787         0.950562298         0.777680576
     0.185990170         0.173902512         0.355075151
     0.185990170         0.173902512         0.855075121
     0.185990170         0.673902512         0.355075151
     0.185990170         0.673902512         0.855075121
     0.685990155         0.173902512         0.355075151
     0.685990155         0.173902512         0.855075121
     0.685990155         0.673902512         0.355075151
     0.685990155         0.673902512         0.855075121
     0.099978976         0.005691982         0.059687298
     0.099978976         0.005691982         0.559687316
     0.099978976         0.505692005         0.059687298
     0.099978976         0.505692005         0.559687316
     0.599978983         0.005691982         0.059687298
     0.599978983         0.005691982         0.559687316
     0.599978983         0.505692005         0.059687298
     0.599978983         0.505692005         0.559687316
     0.049437698         0.317467242         0.222319394
     0.049437698         0.317467242         0.722319365
     0.049437698         0.817467213         0.222319394
     0.049437698         0.817467213         0.722319365
     0.549437702         0.317467242         0.222319394
     0.549437702         0.317467242         0.722319365
     0.549437702         0.817467213         0.222319394
     0.549437702         0.817467213         0.722319365
     0.009595838         0.099607684         0.299690932
     0.009595838         0.099607684         0.799690962
     0.009595838         0.599607706         0.299690932
     0.009595838         0.599607706         0.799690962
     0.509595811         0.099607684         0.299690932
     0.509595811         0.099607684         0.799690962
     0.509595811         0.599607706         0.299690932
     0.509595811         0.599607706         0.799690962
