Ca V  P  O 
 1.0000000000000000
    11.1296310424999998    0.0000000000000000    0.0000000000000000
     2.8994549615000000   10.7443060018000001    0.0000000000000000
    -1.6016288384999999    2.0900824976000001   13.7540809288000005
 Ca  V   P   O  
  11  12  24  84
Selective dynamics
Cartesian
  4.2138394870291469  4.8854462471514353  6.8770025255643361   T   T   T
  3.5299670659063991  6.0202353775093700 13.7539990809384136   T   T   T
  5.4819098816582139 10.6923363580857469  9.2065064290954286   T   T   T
  4.9890850060939025 11.3812685153396771 13.7238554397529189   T   T   T
  6.0922574283786668  9.9978919816631588  4.4931083682428969   T   T   T
  9.6393510034539247  5.3670528372750441  9.2607254375122583   T   T   T
  9.0864833396924549  6.0321890042099486 13.7841579980623763   T   T   T
 10.1510529178292295  4.5971708585586022  4.5474839600418546   T   T   T
 11.0864074676764144 10.6883259203668270  9.1818624090570591   T   T   T
 10.5459793537255599 11.3935196703025010 13.7540151147975198   T   T   T
 11.6072329205005804 10.0086859767971230  4.5721005433697099   T   T   T
  0.7863464257050766  0.6022369434775110  0.0000695041232973   T   T   T
  0.2742429583067901  1.2690008555701489  4.5451050615886750   T   T   T
 -0.3046410074762192  2.0244825043642574  9.2091171507611040   T   T   T
  2.2306670689948667  5.9542645648050412  0.0210093016487517   T   T   T
  1.6959318438780049  6.6481061572843956  4.5743188304662130   T   T   T
  1.2165106394557708  7.3135073885601019  9.1528825056397221   T   T   T
  6.3302996908338347  0.6022916432690478 -0.0208826030462786   T   T   T
  5.7774252949353642  1.3596090825583296  4.6013036588221814   T   T   T
  5.2595531170617278  1.9956249983656877  9.1798878003021045   T   T   T
  7.7741266708644474  5.9539412033569485  0.0000645054854891   T   T   T
  7.1607591525711038  6.5902937165336466  4.5622126727152290   T   T   T
  6.6274229578058810  7.2862805314693704  9.1919419723956519   T   T   T
  3.7045090939668412  1.5239529120548121  1.8890635686340289   T   T   T
  3.1246816061923131  2.0778770897291223  6.4722408254442314   T   T   T
  2.6924397217291509  2.8930995123120136 11.0402205353868972   T   T   T
  5.1704688087818278  6.8260402345866114  1.9127940913493275   T   T   T
  4.6355263308138603  7.6877042552292458  6.4912809074915208   T   T   T
  4.0525791430626850  8.2755272614886817 11.0939721588983655   T   T   T
  9.3042295837295583  1.5144076769508974  1.8752145995445284   T   T   T
  8.8085272309299860  2.1854103819215664  6.4747261101962383   T   T   T
  8.1926530783946863  2.8831683747642454 11.0883070609401013   T   T   T
 10.7216771863564606  6.8737307561740772  1.9065891657952827   T   T   T
 10.1803792043187844  7.5445084016907034  6.4765591800934716   T   T   T
  9.6747335980490110  8.2452851208431976 11.0655578704139632   T   T   T
  1.8938316770736165  3.9360478203705562  2.7138630553704410   T   T   T
  1.2191344006387461  4.5655538522797157  7.2818353620272243   T   T   T
  0.8350234247961692  5.2693716788308729 11.8650277681686287   T   T   T
  3.3171573959596650  9.2483992651269684  2.6658161793223396   T   T   T
  2.8036483804276071 10.0245524287567100  7.2793927668444640   T   T   T
  2.2846268778779781 10.6776853277247170 11.8788736123445737   T   T   T
  7.4453294942257280  3.8469074614223913  2.6600849302057576   T   T   T
  7.0293022518565760  4.5626203887233538  7.2628195947835419   T   T   T
  6.3364725342340824  5.3033032996742744 11.8413382151803095   T   T   T
  8.8807227911533619  9.2822754129046832  2.6885615956459010   T   T   T
  8.3355316446445915  9.9527850586042010  7.2775291034542438   T   T   T
  7.8286334700965456 10.6499031804292184 11.8475105312120768   T   T   T
  4.1340886096448006  0.9221155894722590  3.2354733237035016   T   T   T
  3.5542558144566971  1.4945439702425432  7.8277226321525424   T   T   T
  3.0965361761669734  2.2234278475540892 12.3776124583326101   T   T   T
  5.5833310237468705  6.2428571742608305  3.2440108765666249   T   T   T
  5.0658199426690409  6.9411996226002142  7.7602289954828567   T   T   T
  4.5142033569309250  7.6189948860558445 12.4039867410103195   T   T   T
  9.6937499219786130  0.8976952026986025  3.2273385229423606   T   T   T
  9.1656160523907246  1.5861779018619628  7.8405489254585357   T   T   T
  8.6331859174966858  2.2447133961252623 12.4153976141095317   T   T   T
 11.1279650619519046  6.2448386976885200  3.2426552776480393   T   T   T
 10.6211366675340741  6.9180445772564427  7.8077803501919849   T   T   T
 10.0875738329804996  7.6254844063837925 12.4064245439094094   T   T   T
  2.5498772634888129  4.9825180460464775  3.5972459350176753   T   T   T
  2.0622457777712131  5.5734529832498314  8.0707598647135192   T   T   T
  1.4789275375783391  6.3429157587009923 12.7649350627347715   T   T   T
  4.0020485732576478 10.3199196141798630  3.5416221513982151   T   T   T
  3.4458971416855508 11.1235327194187423  8.1480182951353779   T   T   T
  2.9225338237470995 11.7823418559219206 12.7530568454123276   T   T   T
  8.0803778621123321  4.9180238299717329  3.5804981628431838   T   T   T
  7.6278798085894994  5.6227699934733524  8.2030347104502184   T   T   T
  7.0448469270659650  6.3520845225535014 12.7466038543354525   T   T   T
  9.5423485913428028 10.3502122574378710  3.5818225890844064   T   T   T
  9.0250322660215936 11.0121422949677772  8.1660097335847031   T   T   T
  8.5060956453131737 11.7187663772918320 12.7287916172236724   T   T   T
  0.8092233523294875  3.1037364843255744  3.4325342581657470   T   T   T
  0.1104930807470242  3.8654957610510476  8.0671443164179841   T   T   T
 -0.2908446432905497  4.5100850833443911 12.5891813136985906   T   T   T
  2.2204513440252831  8.4839104704454495  3.4157047783873460   T   T   T
  1.7399509327774265  9.2070063530195352  8.0122760003455546   T   T   T
  1.2003871200443963  9.8827484717212659 12.6148149585741294   T   T   T
  6.5060820658660266  2.8871342515831633  3.3259733358170385   T   T   T
  5.9836364835467606  3.6635605558181772  7.9262801387752058   T   T   T
  5.2770356456552578  4.5128991548174167 12.6195805423220193   T   T   T
  7.7978127379088882  8.4777396328280386  3.4193949521703457   T   T   T
  7.2578867001636862  9.1537549658050335  8.0209357495498690   T   T   T
  6.7543965770895635  9.8545466806665516 12.5931775126536376   T   T   T
  1.3525945038166127  4.5006009990624696  1.3764366887569734   T   T   T
  0.7678443615695082  5.1321937109369538  5.9263240378764008   T   T   T
  0.3658926606990169  5.8408334484681088 10.5185834521654673   T   T   T
  2.8156043364783283  9.8399276452242290  1.3386374595046930   T   T   T
  2.3181998019352110 10.5253346994088108  5.9135113278740041   T   T   T
  1.7907225839522105 11.2143714027929189 10.5267149318124726   T   T   T
  6.9317309114551469  4.4635360712662839  1.3500279782938591   T   T   T
  6.4207406089509442  5.1724145465028322  5.9937923151777825   T   T   T
  5.8811007041261449  5.8537108919720300 10.5100288210379826   T   T   T
  8.3899239426625059  9.8422542524169341  1.3476479121940634   T   T   T
  7.8455612078286618 10.5414533694021841  5.9462615911730810   T   T   T
  7.3273551251282845 11.2059229138542751 10.5113928355558066   T   T   T
  3.1082555314277442  2.9751773767626783  2.2136446416330227   T   T   T
  2.3501231573759020  3.4582092128380610  6.8770424032982262   T   T   T
  2.0810002461873949  4.3158174654618113 11.5405242761286342   T   T   T
  4.5661438954827327  8.3162690032881041  2.2662714206424708   T   T   T
  4.1481347202343546  9.1486663622983357  6.9740222901951707   T   T   T
  3.6166278379135495  9.8030821293669668 11.5729042892132199   T   T   T
  8.8066928043510515  3.0281704765275292  2.1812726940745177   T   T   T
  8.3129990251110026  3.7115476876999498  6.7802756819596182   T   T   T
  7.6179956850617527  4.3317354448836038 11.4881207577228235   T   T   T
 10.1602756296118280  8.3516454017090211  2.3047929613094005   T   T   T
  9.6035059314084190  9.0133163411648578  6.8771021145010112   T   T   T
  9.1094211709917516  9.7229858832378433 11.4494598748220557   T   T   T
  2.6781850838656567  0.6347080621335578  1.1648837433012442   T   T   T
  2.1600181733030364  1.1898870200077609  5.6868984895556567   T   T   T
  1.6063099761730382  2.0627708490869296 10.3215350261275063   T   T   T
  4.1313717658911999  6.0091319859408223  1.1344808036396810   T   T   T
  3.4950917057278743  6.9124045534309833  5.8277847794873949   T   T   T
  2.8812596245980044  7.6187108547750837 10.4281121722541190   T   T   T
  8.2542886178704542  0.6746954988450096  1.1392467204833105   T   T   T
  7.7421018384970646  1.3714394483151708  5.7418116009250229   T   T   T
  7.1688203026854644  2.0235453261657717 10.3383859982014794   T   T   T
  9.6739409525979436  6.0438027639909127  1.1608769205603746   T   T   T
  9.1282403774038254  6.7122010645412926  5.7331096500507668   T   T   T
  8.6158861239293394  7.4093604782129532 10.3346857552345597   T   T   T
  4.9087194214133136  1.8660133670223944  0.9891667252787596   T   T   T
  4.3174220184574139  2.6293497427635222  5.6833277085538567   T   T   T
  3.8736635976182803  3.2539210864787078 10.1568335734197994   T   T   T
  6.3675345661334521  7.2368511044042263  1.0075190226516300   T   T   T
  5.8149863222004674  7.9894921815336346  5.5510603564015870   T   T   T
  5.2521352302185882  8.6096628812874147 10.1735610734633646   T   T   T
 10.5369102665100502  1.8425350903440667  1.0010298416026544   T   T   T
 10.0368431149840021  2.5192384810267274  5.6060845150922844   T   T   T
  9.4055473495375956  3.2653232283660865 10.2124622649234809   T   T   T
 11.9301012040463128  7.2494091487912193  1.0253164010332871   T   T   T
 11.3827704959969704  7.9342878961028411  5.5880987462702416   T   T   T
 10.8781515021084232  8.6059154477233957 10.1723169544289060   T   T   T
