Ca Mn P O  
   1.00000000000000     
   9.5453596129753606  -0.1794384977406990  -0.1314915386359810
   0.5547310519987300   9.4716000710766100   0.1776587628171190
  -8.7211393955947401  -7.3002034891908796  21.1763433043217013
Ca Mn P O  
11  24  24  96  
Direct
  0.5224409353054993  0.5331746153912132  0.5245722167604995  
  0.4975624805529782  0.4877533946655417  0.9952306125184822  
  0.3526719626662035  0.3693449468257373  0.1723521583963618  
  0.3291525304386936  0.3961697399698039  0.6770075257654937  
  0.7504757296904380  0.7443698014999187  0.1228017158969549  
  0.0028880548487695  0.0077615126790312  0.2518495756098739  
  0.9716644988279182  0.9607395971919990  0.7241415667280815  
  0.2571467378434784  0.2782195559024070  0.3876363118838411  
  0.2418262165178464  0.2231186513748623  0.8610897289888690  
  0.6405714444637518  0.6431733432777527  0.3279467505833915  
  0.6595380270229805  0.6149173976202313  0.8256516371064340  
  0.4649793068589285  0.1431114817498035  0.0434252489014629  
  0.4624702269776240  0.1679109237772569  0.5495485677582774  
  0.0223275774955092  0.3469307415198123  0.2040295205468607  
  0.0136608529382692  0.3331198036615646  0.7021300525290735  
  0.0844879990742728  0.8228113725591686  0.0707054977187251  
  0.0783126956734271  0.8154736487570549  0.5753026976745527  
  0.8811543479751957  0.3753671980431688  0.0583445471475837  
  0.8731405164671482  0.3949751867793111  0.5589035291650032  
  0.6374656268903804  0.1091318699988286  0.1887203271260793  
  0.6326843404850626  0.0951224716711665  0.6860487828830490  
  0.3993662588496371  0.7220096990668446  0.1753062909968244  
  0.4087635992376946  0.7292551149173842  0.6723828083932916  
  0.5926972722504527  0.2907787960293607  0.3246217710673800  
  0.6096746806482456  0.2646270081771397  0.8272412652877256  
  0.3639546713681286  0.9041644924590004  0.3123044146880148  
  0.3615212638577176  0.8758430313575968  0.8107812947179196  
  0.1140180689360432  0.6339805005454293  0.4412734421602907  
  0.1253685113781013  0.6097422454840002  0.9417645835562533  
  0.9755903213689588  0.6599806333438660  0.2948353710960872  
  0.9800134183922526  0.6451301516070214  0.7975022382102148  
  0.9148232506316760  0.1835519591086462  0.4285143670505710  
  0.9246679078390022  0.1677201259820923  0.9287553180727161  
  0.5280946930854963  0.8659309343965295  0.4574561305622920  
  0.5405177546159020  0.8404493335602724  0.9555743154487401  
  0.2111125013573948  0.4052961073703641  0.0399215992845419  
  0.2003433306632450  0.4288322518050218  0.5384217326042902  
  0.8215316372207261  0.0603091882812087  0.0889643458729836  
  0.8193048535116176  0.0706038846568243  0.5878426978620845  
  0.2913191515735218  0.0847413171294838  0.2064399901374357  
  0.2982854884544248  0.0785930938677732  0.7105638617688929  
  0.4259685965010333  0.8300929299141216  0.0671533772343494  
  0.4085166565229174  0.8348621548561329  0.5597933048974897  
  0.0742987513922679  0.6690547995200872  0.1791294607386843  
  0.0900146317170594  0.6635932803161610  0.6858711546903763  
  0.6617171934084699  0.4549221134880373  0.1684287270816807  
  0.6586112333956178  0.4451232894469817  0.6708153557942282  
  0.3321354046293029  0.5516420390956612  0.3279263432865404  
  0.3428147414987676  0.5333906134478893  0.8316334742535260  
  0.9228948500957612  0.3398106515562452  0.3198087559198405  
  0.9275697772661904  0.3236268261807317  0.8205219432025843  
  0.5745323324156726  0.1737907791300445  0.4336491179350566  
  0.5816419645640246  0.1566922670741745  0.9343328035495614  
  0.7081244309238149  0.9203638315308484  0.2921025271565643  
  0.7092512498875225  0.9112940754015240  0.7920757271878331  
  0.1804364377124277  0.9492116200952172  0.4107316114492992  
  0.1867581816411859  0.9283974553454808  0.9124352805557576  
  0.7803209143346054  0.6031522356849314  0.4599609763482967  
  0.7960187451357785  0.5811553391143118  0.9611606219894236  
  0.0399929460834811  0.3517040398211638  0.0147267616395215  
  0.0318696136776599  0.3656186273045132  0.5121022719172736  
  0.6578112556549617  0.0333392502808951  0.0388703588535239  
  0.6554275352966104  0.0485193005471795  0.5380776576758493  
  0.4596047540113151  0.0013145016940037  0.0948716306090855  
  0.4543716064761665  0.0017772884817090  0.5942004999836296  
  0.3038697253831953  0.2774520180411659  0.0588406480402629  
  0.3033168608078589  0.3161136100612302  0.5660667003038602  
  0.1927068021828287  0.2044074924781610  0.1828193306653085  
  0.2037956489188610  0.2007839740675198  0.6874268808786062  
  0.2558758243735199  0.7797379932984259  0.0309436618769946  
  0.2337075984842070  0.8019972824152626  0.5275082503901311  
  0.0408257081987919  0.4968340547198095  0.1522951644632971  
  0.0488272738555833  0.4930247646519402  0.6530314863325376  
  0.2558920814397757  0.5363929793020688  0.1021716368048203  
  0.2288401701353795  0.5741618899352635  0.5936564498243666  
  0.5177547952339103  0.7530507161784398  0.0246368236910098  
  0.4778816909874054  0.7649638918745476  0.5080611181031566  
  0.0046188101248028  0.7343994629313795  0.1242576454358342  
  0.0195737345672945  0.7558206338441432  0.6410659296717437  
  0.7571771367958656  0.5481257005182733  0.0145149754809198  
  0.7483723250291177  0.5518429997993824  0.5098351563687936  
  0.8178876548785855  0.0181413859363835  0.1478895013648535  
  0.8133945036663858  0.0513887772403950  0.6496274826106491  
  0.2545710410112705  0.0598367580220709  0.2612163663738992  
  0.2532224568699838  0.0507383139836125  0.7635567748535127  
  0.5925543133097889  0.2902225924003784  0.1477587002611848  
  0.5850387839945465  0.2836381281808645  0.6528621934910246  
  0.8737231479370797  0.2287007764686777  0.1105978518956401  
  0.8802825317143208  0.2363305827643950  0.6057707291143738  
  0.4601868692280731  0.1492959157901344  0.2290162206764812  
  0.4695897639908281  0.1340778989489692  0.7362843057850393  
  0.6530880928628703  0.4992773673215100  0.1099639162113237  
  0.6536124478450211  0.4739126665317331  0.6108517822093839  
  0.5010062513082844  0.7682561838486182  0.1232359993841582  
  0.4804313784790433  0.7430959420731026  0.6052562560612677  
  0.9818921110960244  0.7427530578939184  0.2217439726693302  
  0.0268266013322663  0.7311687943875972  0.7386631983071800  
  0.1665005504723771  0.5343997607148766  0.2808183736392545  
  0.1796657430629236  0.5041502181125875  0.7823905418317916  
  0.2651478344138020  0.9336418226399718  0.1545663439427893  
  0.2720017836357209  0.9283810973188028  0.6576716541522194  
  0.2449252535258699  0.7158896448720110  0.2179990044373681  
  0.2677794816851075  0.6877804042668352  0.7181172584365018  
  0.5612479470836933  0.5497915135288636  0.2034737393317961  
  0.5571133998190770  0.5469412476366742  0.7035531401375280  
  0.0822510493780138  0.0511284633649714  0.4400028134016760  
  0.0837259770103414  0.0264998650779732  0.9403300160750808  
  0.9235829768965598  0.9626048941838092  0.0605264841408766  
  0.9227636085606084  0.9645918099970816  0.5638444054957183  
  0.4318980973454364  0.4587671278392754  0.2914293023122148  
  0.4500328042045750  0.4447347158338282  0.7987127247886787  
  0.7515499656515900  0.2932949661190419  0.2817379000245511  
  0.7551448297359334  0.2831670850858976  0.7842517222973833  
  0.8272946947052181  0.4764293953923536  0.2153746451232144  
  0.8242616900425924  0.4671536742773972  0.7191102345343884  
  0.7389453277745243  0.0707068496108141  0.3442935241339926  
  0.7405540593037366  0.0614322659942238  0.8457547408940459  
  0.0126146836558887  0.2673931371139435  0.2762389168264109  
  0.0122576363005080  0.2487024456916068  0.7752765503715625  
  0.4953538257913419  0.2236278372876647  0.3743724012671738  
  0.5070470049090401  0.2274935379773372  0.8805998748163523  
  0.3398116196314712  0.5010915745591900  0.3839822614902416  
  0.3478652845834023  0.4857316506078839  0.8889653862867705  
  0.5388387806140204  0.8582914258884591  0.2709056011090590  
  0.5396755635261581  0.8508024048048921  0.7703167637347079  
  0.1259864304333617  0.7820146869351896  0.3887717204826969  
  0.1298857417333284  0.7601597302525561  0.8900743312187603  
  0.4038439173545532  0.7162092609587677  0.3500317132957088  
  0.4064262504157093  0.7000226771155995  0.8538147884481643  
  0.7425985063370419  0.9429340266312050  0.2361860340772962  
  0.7406075269496338  0.9375640690966246  0.7367147105828047  
  0.1859804949474654  0.9920419639907060  0.3524194967913521  
  0.1977059281041268  0.9721652696407476  0.8557302593127433  
  0.2427426608227736  0.4570584923336650  0.4847705720556940  
  0.2490442914147789  0.4472909980066773  0.9885884677756400  
  0.9929030817213724  0.2734241869802095  0.3743402346123577  
  0.0034286313878091  0.2617708441894680  0.8760229003852640  
  0.4863713340571530  0.2536382877251652  0.4767365578303536  
  0.4921626149896605  0.2300562413303792  0.9780719343238647  
  0.7312390651009723  0.4796700309753785  0.3948439188811207  
  0.7544052273842942  0.4429369285051399  0.9018378233484324  
  0.9565095411809472  0.5120833045277955  0.3468115285185503  
  0.9599014399306596  0.4974254277274210  0.8470964493233524  
  0.7448453563936406  0.2233673108319760  0.4676218097017964  
  0.7522692792437907  0.2066866252181333  0.9702029691163976  
  0.8050436709830875  0.7989826531250028  0.3150251748846769  
  0.8064047440891056  0.7898658148287442  0.8151651381877346  
  0.6886714985721112  0.7355452900032003  0.4441123031543108  
  0.7004630003240501  0.7036468763173744  0.9384816087890812  
  0.5437366255374178  0.9998139934976140  0.4079972295794764  
  0.5472389416864063  0.9867181642473212  0.9049042259187972  
  0.3448876279525294  0.9770897392309410  0.4614934323333623  
  0.3490986107262708  0.9493250861587030  0.9636918874949736  
  0.9518731357754644  0.6535716852111798  0.4838877669530063  
  0.9662537515909432  0.6367435283099346  0.9860998035104112  
