Ca Mn P O                               
   1.00000000000000     
     9.5146218735974397   -0.1381853726807050   -0.0950242492644268
     0.5930583455617841    9.4509228439757607    0.1186088061302650
    -8.6447228412532002   -7.4587279949449004   21.2764999532117010
   Ca   Mn   P    O 
    11    24    24    96
Direct
  0.5702058506900892  0.5735857490312651  0.5426642612472355
  0.4980856058055187  0.4923066430579945  0.9957107973807019
  0.3366036443043241  0.3895621707106782  0.1737206726892250
  0.3310586369424793  0.3958617190252049  0.6779901879550057
  0.7555880504228840  0.7492532992425687  0.1265481468806357
  0.0100431806072788  0.0114292560101937  0.2576767534009088
  0.9711802587586308  0.9661595509360765  0.7263673227342974
  0.2723876304029726  0.2847239835135517  0.3955849867370175
  0.2370425664243614  0.2318156624044106  0.8629355430137556
  0.6602725297333245  0.6199052592309224  0.3282051465483503
  0.6693558788287901  0.6037924700987111  0.8256241103712985
  0.4632732446244039  0.1479997263586347  0.0452881707181753
  0.4668398094783180  0.1699352622547816  0.5486864892576545
  0.0224069799534929  0.3440896034137681  0.2018055751894454
  0.0127085966738021  0.3366201939566074  0.7032331683375790
  0.0863652947984302  0.8156502023650887  0.0717427652686429
  0.0759960024709977  0.8036351573715028  0.5746304507544296
  0.8777963378698610  0.3771765469395713  0.0592902375856955
  0.8847815637825693  0.3768339781540148  0.5585192926522758
  0.6388030474683045  0.1113739798978022  0.1877432852322514
  0.6259894649930476  0.0934032570126879  0.6856307730737938
  0.4014117600998776  0.7287704307401216  0.1735737023147971
  0.4037192981418267  0.7357323585655297  0.6738942214265095
  0.5959524613453085  0.2753223979973943  0.3244188490831574
  0.6028211609275105  0.2651052765330523  0.8284135746963981
  0.3709017298134791  0.9012558577384407  0.3135607926844747
  0.3601178638758168  0.8797792773488110  0.8117632137531896
  0.1309172519008756  0.6332194077181156  0.4407135819237851
  0.1261097281493981  0.6147844512067232  0.9409760978039867
  0.9808692412281711  0.6593032620889361  0.2952910507627290
  0.9795971405508729  0.6530404760185708  0.7993814377747308
  0.9158584406322909  0.1906199565901185  0.4247639156410609
  0.9187365775582952  0.1794917479762350  0.9284355776275619
  0.5343144535890171  0.8572979512991823  0.4557333039452074
  0.5400417052802002  0.8438284560867114  0.9549047354070752
  0.2079053183350921  0.4134163595715720  0.0388967646544376
  0.2053276898327679  0.4328161004734779  0.5388985070200466
  0.8207800456149653  0.0569922541309163  0.0883222390393109
  0.8167923427708147  0.0619839499306724  0.5882542863640895
  0.2957448447014265  0.0820724708014042  0.2069879657673363
  0.2937111262856420  0.0822924793318873  0.7112639261477759
  0.4240365829275671  0.8322155065322521  0.0647457313824309
  0.4048579989819823  0.8461766676941171  0.5615164658901716
  0.0810280006079694  0.6667487992569532  0.1802535817167716
  0.0847816539188351  0.6633600061731866  0.6859002367938764
  0.6617314728228205  0.4547061633776151  0.1670779419155690
  0.6598317727133826  0.4469761497083012  0.6747881093564920
  0.3354183211261665  0.5501614625640744  0.3283327432333599
  0.3400030921397493  0.5395504601273559  0.8330014445044231
  0.9223976218259744  0.3380378567872798  0.3159872037181445
  0.9206765241859253  0.3296281177389730  0.8203695481977142
  0.5819995636745589  0.1697599685768498  0.4354639631991188
  0.5800221837206249  0.1612597194532076  0.9367943364059760
  0.7074679798192522  0.9163439299160174  0.2898470141581961
  0.7044491727503422  0.9159465229160726  0.7928716178119830
  0.1831525989469835  0.9496951797882305  0.4108122413731853
  0.1844776477694331  0.9375544649453962  0.9131958850504527
  0.7949376162495247  0.5855422183303441  0.4592657971061829
  0.7967363667251626  0.5802062954304783  0.9623091614176498
  0.0379383891555090  0.3567197092608334  0.0147854599425079
  0.0393765537722040  0.3618958059333666  0.5122504647607731
  0.6580729758285402  0.0340507180191844  0.0384795613944487
  0.6542868758788792  0.0440086067324421  0.5382344831795377
  0.4568166353432879  0.0039598541848444  0.0945408175993043
  0.4430946091236140  0.0160144464953373  0.5937542365003077
  0.3054025459391651  0.2932630605854047  0.0630329432140520
  0.3124805145174528  0.3249063746537186  0.5683690681380940
  0.2010499432171645  0.2040739031464950  0.1836271873311895
  0.2009038773444399  0.2057165165666398  0.6883153955714389
  0.2537089603922627  0.7828893696659429  0.0294469835744972
  0.2322055423016063  0.8058128729528943  0.5289342448873290
  0.0492658190389100  0.4925401049008507  0.1522378501244377
  0.0479841187670860  0.4907900879740944  0.6534790199713186
  0.2465920783022815  0.5554417487032152  0.0972965798924427
  0.2255643193170787  0.5819776456757524  0.5925737370367278
  0.5138919406844877  0.7565080818518291  0.0209237842860829
  0.4790569968269842  0.7721268573681936  0.5116344325412834
  0.0080624289290870  0.7337465863119128  0.1267957673579384
  0.0125362705450603  0.7535122024623809  0.6409774704500255
  0.7586600039097966  0.5547774434311792  0.0169556340381325
  0.7718965132922148  0.5463435348637725  0.5134513542663913
  0.8138030910495021  0.0175590847502945  0.1468469573005346
  0.8059578342746333  0.0406462186575703  0.6485096336986905
  0.2566029823999060  0.0580305229343986  0.2611049141920896
  0.2501550283311715  0.0594293626730048  0.7651876089421077
  0.5972751224324867  0.2885650384299561  0.1462142081642349
  0.5869969050431703  0.2849981913999120  0.6551792406937967
  0.8774998616571793  0.2248469585698137  0.1096513385140478
  0.8810036205413313  0.2278497765933246  0.6076555887456619
  0.4663883401683471  0.1395776714143315  0.2301522065851210
  0.4650433131715220  0.1361464672475645  0.7356921905719465
  0.6588893345000869  0.4989636327051467  0.1096429742991954
  0.6602108895396033  0.4769133113749741  0.6163269408815873
  0.4999211832972681  0.7647287958939200  0.1186184781231862
  0.4831875680677811  0.7662697518136017  0.6111660202859298
  0.9921543906886803  0.7417012150576472  0.2245463202225174
  0.0194660920247276  0.7324668224012342  0.7383073259150531
  0.1729313438779037  0.5304459888078008  0.2786222902283703
  0.1779435493003010  0.5091019113928632  0.7833763905183168
  0.2668659212221255  0.9293635614310923  0.1542639943635221
  0.2639986141935480  0.9299823891348116  0.6587530031655959
  0.2531141964737820  0.7074519113335045  0.2171264855752061
  0.2622132099081209  0.6897580700940331  0.7180426137025119
  0.5554053714351168  0.5490679207443857  0.2001775188523196
  0.5553493869051952  0.5498133576606700  0.7064517590398971
  0.0793289770049063  0.0525935884648370  0.4374980460599263
  0.0818807787004713  0.0406781637372110  0.9408338140970667
  0.9222649209238879  0.9535923534717359  0.0602321955450483
  0.9172330657678296  0.9515122987943081  0.5627039223034478
  0.4412582383545680  0.4537522029311395  0.2949353125449092
  0.4502824277906151  0.4478863013151487  0.8015496107100375
  0.7491551324395372  0.2956484514301267  0.2807292699600016
  0.7477237377202720  0.2935232016627822  0.7856456838976049
  0.8256079056905525  0.4804269175723113  0.2153120720505698
  0.8241966860542472  0.4705219309886736  0.7233568906732366
  0.7392659557589510  0.0703698002951612  0.3413525493176859
  0.7354675565559812  0.0680095574237961  0.8466119427993567
  0.0027175357713027  0.2654315995570973  0.2687357363439000
  0.0050399753618686  0.2533115219980843  0.7745891546657845
  0.5015668423239742  0.2258062641939418  0.3784014846062296
  0.5036660851507623  0.2359814478907498  0.8849784052132276
  0.3315187588421818  0.5045527204523269  0.3836486214120947
  0.3406933662262014  0.4944635192639129  0.8900347719052869
  0.5370379313312073  0.8605946308761745  0.2679371507606870
  0.5336004541989846  0.8597773824209678  0.7702259597628328
  0.1274924616265335  0.7813805460108157  0.3885140293616616
  0.1252752469303162  0.7696035702499427  0.8910740910730244
  0.4070754354252613  0.7147826603340820  0.3505389098643586
  0.4016477865510459  0.7065183497104084  0.8546157776374076
  0.7460435789885218  0.9346153361580446  0.2342180265362479
  0.7399105514834240  0.9413786854693064  0.7384844624295845
  0.1924806890472348  0.9891102153031623  0.3526964709725142
  0.1964170069181166  0.9778264520929286  0.8561688155831088
  0.2464754636281013  0.4589653127716489  0.4852813492374839
  0.2458706868623509  0.4437562259896505  0.9854218645703150
  0.9984009241949990  0.2633017981374959  0.3671955801063264
  0.9971480686894538  0.2651156742042030  0.8743820770212617
  0.4964464921421981  0.2500959120712497  0.4801968575647012
  0.4937866765613709  0.2349803116085421  0.9821714986901107
  0.7520775456965562  0.4488964800512109  0.3982198275368954
  0.7598030688330873  0.4345425957023819  0.9059185461588682
  0.9544130066039429  0.5111047749547009  0.3451323252112904
  0.9536430688251235  0.5047393322662970  0.8482924458999905
  0.7531473847487467  0.2156607791670327  0.4682662120143683
  0.7509211015333027  0.2099598919278038  0.9714784600977378
  0.8016765932119504  0.7946189568952141  0.3137214715228669
  0.7994255817413494  0.7934375070012419  0.8158387290427981
  0.6909484215030264  0.7072684761822453  0.4393751186486595
  0.6968372107832577  0.6968226829637567  0.9363538613139972
  0.5511950422514122  0.9958120540840497  0.4074997214452685
  0.5461931086459029  0.9905923814022500  0.9057760979486276
  0.3446219825371123  0.9775103848438556  0.4614467354309910
  0.3461526863025804  0.9568638280073609  0.9638927934084959
  0.9627325020343710  0.6443786040673485  0.4808752487773099
  0.9659288724219438  0.6384316450674892  0.9861934523888261
 
             NaN             NaN             NaN
             NaN             NaN             NaN
             NaN             NaN             NaN
             NaN             NaN             NaN
             NaN             NaN             NaN
             NaN             NaN             NaN
             NaN             NaN             NaN
             NaN             NaN             NaN
             NaN             NaN             NaN
             NaN             NaN             NaN
             NaN             NaN             NaN
             NaN             NaN             NaN
             NaN             NaN             NaN
             NaN             NaN             NaN
             NaN             NaN             NaN
             NaN             NaN             NaN
             NaN             NaN             NaN
             NaN             NaN             NaN
             NaN             NaN             NaN
             NaN             NaN             NaN
             NaN             NaN             NaN
             NaN             NaN             NaN
             NaN             NaN             NaN
             NaN             NaN             NaN
             NaN             NaN             NaN
             NaN             NaN             NaN
             NaN             NaN             NaN
             NaN             NaN             NaN
             NaN             NaN             NaN
             NaN             NaN             NaN
             NaN             NaN             NaN
             NaN             NaN             NaN
             NaN             NaN             NaN
             NaN             NaN             NaN
             NaN             NaN             NaN
             NaN             NaN             NaN
             NaN             NaN             NaN
             NaN             NaN             NaN
             NaN             NaN             NaN
             NaN             NaN             NaN
             NaN             NaN             NaN
             NaN             NaN             NaN
             NaN             NaN             NaN
             NaN             NaN             NaN
             NaN             NaN             NaN
             NaN             NaN             NaN
             NaN             NaN             NaN
             NaN             NaN             NaN
             NaN             NaN             NaN
             NaN             NaN             NaN
             NaN             NaN             NaN
             NaN             NaN             NaN
             NaN             NaN             NaN
             NaN             NaN             NaN
             NaN             NaN             NaN
             NaN             NaN             NaN
             NaN             NaN             NaN
             NaN             NaN             NaN
             NaN             NaN             NaN
             NaN             NaN             NaN
             NaN             NaN             NaN
             NaN             NaN             NaN
             NaN             NaN             NaN
             NaN             NaN             NaN
             NaN             NaN             NaN
             NaN             NaN             NaN
             NaN             NaN             NaN
             NaN             NaN             NaN
             NaN             NaN             NaN
             NaN             NaN             NaN
             NaN             NaN             NaN
             NaN             NaN             NaN
             NaN             NaN             NaN
             NaN             NaN             NaN
             NaN             NaN             NaN
             NaN             NaN             NaN
             NaN             NaN             NaN
             NaN             NaN             NaN
             NaN             NaN             NaN
             NaN             NaN             NaN
             NaN             NaN             NaN
             NaN             NaN             NaN
             NaN             NaN             NaN
             NaN             NaN             NaN
             NaN             NaN             NaN
             NaN             NaN             NaN
             NaN             NaN             NaN
             NaN             NaN             NaN
             NaN             NaN             NaN
             NaN             NaN             NaN
             NaN             NaN             NaN
             NaN             NaN             NaN
             NaN             NaN             NaN
             NaN             NaN             NaN
             NaN             NaN             NaN
             NaN             NaN             NaN
             NaN             NaN             NaN
             NaN             NaN             NaN
             NaN             NaN             NaN
             NaN             NaN             NaN
             NaN             NaN             NaN
             NaN             NaN             NaN
             NaN             NaN             NaN
             NaN             NaN             NaN
             NaN             NaN             NaN
             NaN             NaN             NaN
             NaN             NaN             NaN
             NaN             NaN             NaN
             NaN             NaN             NaN
             NaN             NaN             NaN
             NaN             NaN             NaN
             NaN             NaN             NaN
             NaN             NaN             NaN
             NaN             NaN             NaN
             NaN             NaN             NaN
             NaN             NaN             NaN
             NaN             NaN             NaN
             NaN             NaN             NaN
             NaN             NaN             NaN
             NaN             NaN             NaN
             NaN             NaN             NaN
             NaN             NaN             NaN
             NaN             NaN             NaN
             NaN             NaN             NaN
             NaN             NaN             NaN
             NaN             NaN             NaN
             NaN             NaN             NaN
             NaN             NaN             NaN
             NaN             NaN             NaN
             NaN             NaN             NaN
             NaN             NaN             NaN
             NaN             NaN             NaN
             NaN             NaN             NaN
             NaN             NaN             NaN
             NaN             NaN             NaN
             NaN             NaN             NaN
             NaN             NaN             NaN
             NaN             NaN             NaN
             NaN             NaN             NaN
             NaN             NaN             NaN
             NaN             NaN             NaN
             NaN             NaN             NaN
             NaN             NaN             NaN
             NaN             NaN             NaN
             NaN             NaN             NaN
             NaN             NaN             NaN
             NaN             NaN             NaN
             NaN             NaN             NaN
             NaN             NaN             NaN
             NaN             NaN             NaN
             NaN             NaN             NaN
             NaN             NaN             NaN
             NaN             NaN             NaN
             NaN             NaN             NaN
             NaN             NaN             NaN
