Ca Mn P O  
1
   9.5146218735974397  -0.1381853726807050  -0.0950242492644268
   0.5930583455617841   9.4509228439757607   0.1186088061302650
  -8.6447228412532002  -7.4587279949449004  21.2764999532117010
Ca Mn P O  
11  24  24  96  
Direct
  0.5873852202901230  0.5939499114923280  0.5493966244871630  
  0.4983824914690250  0.4918313946950260  0.9968283756679640  
  0.3456876276669170  0.3797951226315680  0.1743013236870500  
  0.3275574922729850  0.3969444388071070  0.6763369349413830  
  0.7542059271638299  0.7473676012432150  0.1251657027072950  
  0.0084483031585248  0.0095693906666880  0.2563515115050850  
  0.9745840992704460  0.9694392793700100  0.7276439294174410  
  0.2656636521365840  0.2803046718482970  0.3920633910305720  
  0.2406689111261690  0.2309576067998320  0.8640994534101460  
  0.6522562690473320  0.6292673140144780  0.3269480566149870  
  0.6624562209573110  0.6097062313819940  0.8243711106503580  
  0.4630170314820550  0.1463386211684450  0.0446018946092217  
  0.4625035043549150  0.1662184462455160  0.5484298443953280  
  0.0224241420066416  0.3434787178488360  0.2024186673716760  
  0.0130501562152622  0.3367648358383570  0.7024162637053090  
  0.0863880663525333  0.8146745692142430  0.0715986218570243  
  0.0797164222906673  0.8079841282677540  0.5748978196816150  
  0.8788488883923889  0.3753417336220090  0.0592569175456364  
  0.8692896191461430  0.3876405724424820  0.5590494371517630  
  0.6378227647376720  0.1104011149263910  0.1881216078124090  
  0.6286386747380790  0.0982913572585877  0.6856176749655160  
  0.4022434273657310  0.7254093929540770  0.1739653430188160  
  0.4064959431106010  0.7315764524375190  0.6726610145679510  
  0.5944847253764900  0.2817789932745500  0.3253395645140830  
  0.6037947818524440  0.2656839446916730  0.8277419361769420  
  0.3691150736746480  0.9012422488778979  0.3132816915188740  
  0.3615046235612950  0.8795870955090470  0.8115522751408730  
  0.1221445657972770  0.6316581549957681  0.4410625614943980  
  0.1255113908941410  0.6147260731777120  0.9408184952606320  
  0.9797858850017350  0.6586389606041170  0.2955610330624850  
  0.9791397268485460  0.6512432366542080  0.7986073000181600  
  0.9156896355132930  0.1913720635717190  0.4276383822593290  
  0.9197258581111760  0.1790296904686810  0.9280480164252241  
  0.5312020760084410  0.8563282399139610  0.4562244097356800  
  0.5406545005315100  0.8427058213169660  0.9547390631092090  
  0.2081620959881130  0.4117308965237370  0.0392316627715004  
  0.1991784254675940  0.4296090392604410  0.5386368473487310  
  0.8207359901136020  0.0566921959142751  0.0881897906083343  
  0.8174372321700430  0.0641970874996135  0.5877865429641160  
  0.2943775762374370  0.0827146919354381  0.2070113490335990  
  0.2957925228449880  0.0815206719620246  0.7107293525405990  
  0.4240716958393810  0.8310225230391159  0.0648367300131137  
  0.4107986656703230  0.8380604575842719  0.5609140387379200  
  0.0791509018582617  0.6673017985365050  0.1804629038645880  
  0.0867003834303038  0.6646339445729910  0.6862437137936690  
  0.6627587073529470  0.4545425624586410  0.1677820302399210  
  0.6598468669241320  0.4489304224780260  0.6707737812495840  
  0.3339835374021890  0.5488998965099799  0.3283817929256440  
  0.3402644671297920  0.5376538693665750  0.8322624225103610  
  0.9218954833584870  0.3376279100887770  0.3175414455345300  
  0.9220930249406371  0.3278228181684400  0.8193072134421360  
  0.5778948291887530  0.1677293856836570  0.4347088153378290  
  0.5810112806461470  0.1601695502081340  0.9361586623311799  
  0.7084779319331680  0.9177995157583650  0.2910470522016310  
  0.7060112060980710  0.9146539325106550  0.7920048833957960  
  0.1823651353885820  0.9490142661372010  0.4112583257148890  
  0.1847996410875040  0.9357902867681280  0.9127517316477730  
  0.7879331068239650  0.5916795289782830  0.4602736043382750  
  0.7966104124551900  0.5792282035927661  0.9614955264297330  
  0.0383130766481997  0.3555334968037080  0.0150346976221667  
  0.0323659158575536  0.3641817308803730  0.5142878435608170  
  0.6583586349724910  0.0325660430506590  0.0380464189977054  
  0.6551960412301669  0.0446607156032373  0.5379172118831330  
  0.4578952622679150  0.0026163838144029  0.0945464199892245  
  0.4494469073234090  0.0079763325900547  0.5936992372183600  
  0.3051658410333300  0.2910398358252610  0.0621794718661825  
  0.3055736230286530  0.3197454625245560  0.5670144700726470  
  0.1980178035288220  0.2036899660175040  0.1834978938936170  
  0.2022662765369920  0.2042764351390100  0.6876179602754851  
  0.2536971479142060  0.7826851310024340  0.0296091464653436  
  0.2378281006794730  0.7996587193517120  0.5280067794736309  
  0.0452559305442553  0.4938205850946840  0.1523071695041980  
  0.0477302403435311  0.4927848715476760  0.6536481630340060  
  0.2472488334355610  0.5517114049722310  0.0978416861142871  
  0.2257812698447090  0.5788726407215290  0.5929321567552800  
  0.5130303937204520  0.7549250765319030  0.0207211341467791  
  0.4884194378669590  0.7666637087013970  0.5121616605549280  
  0.0071517559135752  0.7354158529638360  0.1272806379650160  
  0.0128485733220856  0.7544320377604889  0.6410272022824920  
  0.7577882431606791  0.5534082816410970  0.0158678619176997  
  0.7576408296932190  0.5525360023107420  0.5125720461600400  
  0.8130606737440540  0.0168391088688712  0.1465003699009240  
  0.8074512398345690  0.0394847429971233  0.6479132697700500  
  0.2559851408866670  0.0593778131991806  0.2614320003130160  
  0.2525579267080880  0.0584369114933908  0.7647032216103020  
  0.5956471180220611  0.2890614577440420  0.1469694838554970  
  0.5889757131735450  0.2856284543992400  0.6513315795270100  
  0.8758547893884090  0.2249718713621600  0.1099373550719160  
  0.8798695694723710  0.2301182706896510  0.6073729091076420  
  0.4640998024504260  0.1435538512706410  0.2296759632244090  
  0.4670405605212380  0.1353430630537530  0.7350821441999490  
  0.6593593726697290  0.4979884267772470  0.1101509048885460  
  0.6616912239944370  0.4819825373999350  0.6129303997660340  
  0.4998648535349500  0.7631194031473530  0.1184944996190690  
  0.4846803695041470  0.7572289240539800  0.6097200205082850  
  0.9906652822830760  0.7421531895026120  0.2248798473510710  
  0.0226142310824990  0.7350215135612080  0.7389366219962510  
  0.1711593288767230  0.5289873071538930  0.2794094599812460  
  0.1782728656414540  0.5086652012501590  0.7827421647554860  
  0.2673393343748400  0.9300999775275079  0.1547423095194680  
  0.2664353943306480  0.9291067261459990  0.6582501340495330  
  0.2509603336609250  0.7082567301816740  0.2171609039166740  
  0.2639327071081470  0.6902397535194710  0.7177062898894000  
  0.5578516278145740  0.5501567961549521  0.2011958076767290  
  0.5536745738180240  0.5491226504139800  0.7025413104283740  
  0.0834083756983296  0.0556576923598630  0.4395346519989260  
  0.0811620082887922  0.0377462229787777  0.9400273906001290  
  0.9237145265480970  0.9550064536429290  0.0605494831485111  
  0.9198861723911240  0.9548055725564740  0.5630197179545769  
  0.4390040541762930  0.4546709598340220  0.2941115813861810  
  0.4496762404728380  0.4461770515420300  0.8002692825434390  
  0.7489417725355700  0.2971382849171480  0.2821985251276540  
  0.7490822173768430  0.2911199991635560  0.7843454826488639  
  0.8263659991767950  0.4783837602268300  0.2157726814566450  
  0.8226814121817790  0.4720348541941980  0.7205373392745440  
  0.7408447720784230  0.0703065914209251  0.3430544241372860  
  0.7364810687349230  0.0666325401097864  0.8454783562393720  
  0.0036631363046800  0.2640139470384200  0.2709952317873190  
  0.0054220241801257  0.2521509261821730  0.7731332838529480  
  0.4991860195012050  0.2206375060484330  0.3767017163333390  
  0.5055107309981129  0.2340691705555000  0.8840732937971491  
  0.3339152313076250  0.5013378548144440  0.3836173974208150  
  0.3412649446642550  0.4920100759580060  0.8891369930645040  
  0.5385801452072190  0.8595774880127151  0.2697118596575920  
  0.5358134556095290  0.8565397763744090  0.7698874422259410  
  0.1242987396098580  0.7821070484208180  0.3889855074780040  
  0.1265575919646100  0.7676144767124020  0.8905187510533830  
  0.4036025814730360  0.7142575385493650  0.3505872895495670  
  0.4036842750998440  0.7044242428615930  0.8540831782510300  
  0.7446505227580380  0.9373671712639380  0.2351241024968030  
  0.7408120357236280  0.9389039708862830  0.7371960093420080  
  0.1921107752945280  0.9894721371384430  0.3534470031672110  
  0.1973513379915480  0.9767097766039160  0.8559215152195589  
  0.2364266716267950  0.4533681515906900  0.4838190365676500  
  0.2463814907149070  0.4435287093964330  0.9862086702073900  
  0.9954536535430230  0.2650477547379550  0.3692379334286970  
  0.9982214802781040  0.2620348854616600  0.8729090219693150  
  0.4877387833437620  0.2457497297483740  0.4776980959971630  
  0.4935941776619460  0.2338047522189860  0.9810920400474710  
  0.7476175298839890  0.4569658546534070  0.3993967612590210  
  0.7596309766159201  0.4344933469368700  0.9048418824878550  
  0.9558191751625960  0.5106116814086450  0.3462414991732270  
  0.9552258179239000  0.5023580606569620  0.8472900753552840  
  0.7478673809100850  0.2172565884914360  0.4687428649117650  
  0.7517431045757800  0.2082673643861200  0.9711601181862030  
  0.8036344447392160  0.7955921215357320  0.3140157634024990  
  0.8013966651563950  0.7925032522960220  0.8151648747691750  
  0.6890871576880250  0.7146446433141270  0.4397520432459020  
  0.6977381540142180  0.6963503111918991  0.9360414898613750  
  0.5492771021152600  0.9931114141638370  0.4077563164437910  
  0.5466814065195300  0.9894071803573680  0.9053081194040580  
  0.3449860333431580  0.9724322168714140  0.4617911846759620  
  0.3462517899010170  0.9558954256449050  0.9636734872452730  
  0.9567940852406830  0.6485849771330240  0.4830277632084280  
  0.9658705129929870  0.6367502662864570  0.9855196424328400  
