Ca V  P  O 
 1.0000000000000000
    10.5155344009000000    0.0000000000000000    0.0000000000000000
     0.0000067011000000    7.1892080306999997    0.0000000000000000
     0.0000045097000000    3.2146597663000001    7.8328516333999998
 Ca  V   P   O  
   3   4   8  28
Selective dynamics
Cartesian
  8.3125534921719222  3.0037302070454794  2.1923039677417027   T   T   T
  2.1759241777145570  7.3722780685135776  6.9963828809323569   T   T   T
  3.1201884744830726  5.7602676124024628  3.1875770625208051   T   T   T
  6.4730617543023090  7.6140214760365508  5.8288291930368654   T   T   T
  9.3571777288377671  6.1531229209980030  1.9475304293891611   T   T   T
  1.0737233764742899  4.2712282987520949  5.9118044974940522   T   T   T
  4.1294158887041874  2.7459559055323486  2.0055301179764324   T   T   T
  9.0525470036113482  9.4442403678843974  6.2031505126899811   T   T   T
  6.6642491344740620  7.8646671703892004  2.4006197226595960   T   T   T
  9.5247471298297448  6.7141274271580906  5.4070682389633342   T   T   T
  6.1685938287227673  5.2719633888007680  1.3439115068328056   T   T   T
  4.2845200831967860  5.2569755615862173  6.4036255001311382   T   T   T
  0.9877847976827837  3.6530606328666280  2.4824881454239351   T   T   T
  3.7392960886154896  2.5571226016102275  5.5113595923990362   T   T   T
  1.5454337650344940  0.8977674531214386  1.5872941611521634   T   T   T
  7.6153769698361042  2.1104319279505637  5.6392133092697678   T   T   T
  9.2041350015400329  9.2210334823877105  7.6956687001485484   T   T   T
  4.3710568769502061  8.3970969181434008  5.8521596990854938   T   T   T
  9.9158841149454933  8.2978566685130613  5.4051277302411647   T   T   T
  8.1900252067703878  0.7103579476526157  2.0839866129112234   T   T   T
  6.3041987319943908  7.4136629624095161  3.7936812714144588   T   T   T
  6.2996151068429462  4.7103910365815214 -0.0403589155030230   T   T   T
  0.8877975440915172  6.7725157614060860  1.9992099128235425   T   T   T
  5.9780568823185307  6.8858027337503636  1.3103209012714803   T   T   T
  8.2477593803108782  6.5908822586658200  6.2390679014538959   T   T   T
  9.4228669482264156  6.2031804759090123  3.9946821277245110   T   T   T
  0.3000200507066908  6.1505783583884615  6.1018292875941302   T   T   T
  5.5037450145821358  5.8147155740785239  5.7143526798326434   T   T   T
  7.4742174673137205  5.0586519568853170  2.1495786121599703   T   T   T
  2.9571565043091570  5.5022292302110882  5.5797726169457054   T   T   T
  4.9157199579380979  4.7652886901765781  2.0747416572469319   T   T   T
 10.1911782823103518  4.1818548227834507  1.8838050709398624   T   T   T
  1.2709300607331029  4.2320446453666998  3.8557443907722710   T   T   T
  2.2191980802062821  3.9553586886916676  1.5947318140113069   T   T   T
  4.4483148963027981  3.6620446792510362  6.4997082484386866   T   T   T
  9.7269797250365215  3.5378109705269294  5.7057332493340578   T   T   T
  4.0079400789516058  5.8744165405869602  7.7629952754296552   T   T   T
  3.9154975985419331  3.0643038139997665  4.0956147385106600   T   T   T
  2.2539322655026797  9.6781590791675676  5.9930987738587627   T   T   T
  0.7698400633702017  2.0601495386360131  2.5127088048543906   T   T   T
  6.1604342338430138  2.0886970944400347  2.0611681526840955   T   T   T
  1.3455132525734175  1.3206729447655143  0.1460989318876365   T   T   T
  2.9987069060134734  8.0550020256629757  2.1042315023871616   T   T   T
