Ca V  Cr P  O 
1.0
        9.8034191132         0.0000000000         0.0000000000
        0.0310846032         8.1394794093         0.0000000000
       -2.1279917692        -0.0524358375         6.8508461865
   Ca    V   Cr    P    O
    1    2    2    8   28
Direct
     0.104540221         0.926747799         0.739114583
     0.109384067         0.492585421         0.730489850
     0.609384060         0.492585421         0.730489850
     0.387004435         0.004001370         0.264230669
     0.887004435         0.004001370         0.264230669
     0.194450989         0.198292762         0.487631530
     0.694450974         0.198292762         0.487631530
     0.110626698         0.765998840         0.116637222
     0.610626698         0.765998840         0.116637222
     0.386184752         0.259790868         0.887615085
     0.886184752         0.259790868         0.887615085
     0.306897879         0.690667987         0.499949962
     0.806897879         0.690667987         0.499949962
     0.018962432         0.291034251         0.823321342
     0.518962443         0.291034251         0.823321342
     0.074680448         0.673730969         0.921709299
     0.574680448         0.673730969         0.921709299
     0.077014960         0.064500161         0.449430436
     0.577014983         0.064500161         0.449430436
     0.140586108         0.370431006         0.502308130
     0.640586138         0.370431006         0.502308130
     0.206799686         0.699384749         0.630330086
     0.706799686         0.699384749         0.630330086
     0.298725128         0.413026810         0.897637129
     0.798725128         0.413026810         0.897637129
     0.282867342         0.139235720         0.712495029
     0.782867312         0.139235720         0.712495029
     0.211793527         0.649713874         0.278838396
     0.711793542         0.649713874         0.278838396
     0.197806910         0.919925869         0.091356218
     0.697806895         0.919925869         0.091356218
     0.290469378         0.185835227         0.358005375
     0.790469408         0.185835227         0.358005375
     0.373470634         0.863631606         0.496698022
     0.873470664         0.863631606         0.496698022
     0.417491198         0.557032824         0.553415120
     0.917491198         0.557032824         0.553415120
     0.419924825         0.146669850         0.061761353
     0.919924855         0.146669850         0.061761353
     0.478269875         0.810440183         0.173821151
     0.978269875         0.810440183         0.173821151
