Sc Mn O  Ca
1.0
       11.5374555588         0.0000000000         0.0000000000
       -8.6585401880         7.6251270536         0.0000000000
        0.0000000000         0.0000000000        10.1281061172
   Ca  Sc   Mn    O  
    7   8   16   40 
Direct
     0.258900000         0.241100000         0.750000000
     0.241101116         0.758898854         0.249999985
     0.741101146         0.258898854         0.249999985
     0.741101146         0.758898854         0.249999985
     0.258898854         0.741101146         0.750000000
     0.758898854         0.241101116         0.750000000
     0.758898854         0.741101146         0.750000000
     0.388386965         0.111612998         0.249999985
     0.388386965         0.611612976         0.249999985
     0.888386965         0.111612998         0.249999985
     0.888386965         0.611612976         0.249999985
     0.111612998         0.388386965         0.750000000
     0.111612998         0.888386965         0.750000000
     0.611612976         0.388386965         0.750000000
     0.611612976         0.888386965         0.750000000
     0.432493627         0.067506351         0.558189690
     0.432493627         0.567506373         0.558189690
     0.932493627         0.067506351         0.558189690
     0.932493627         0.567506373         0.558189690
     0.432493627         0.067506351         0.941810369
     0.432493627         0.567506373         0.941810369
     0.932493627         0.067506351         0.941810369
     0.932493627         0.567506373         0.941810369
     0.067506351         0.432493627         0.058189694
     0.067506351         0.932493627         0.058189694
     0.567506373         0.432493627         0.058189694
     0.567506373         0.932493627         0.058189694
     0.067506351         0.432493627         0.441810310
     0.067506351         0.932493627         0.441810310
     0.567506373         0.432493627         0.441810310
     0.567506373         0.932493627         0.441810310
     0.467105001         0.032894965         0.124073520
     0.467105001         0.532894969         0.124073520
     0.967105031         0.032894965         0.124073520
     0.967105031         0.532894969         0.124073520
     0.467105001         0.032894965         0.375926465
     0.467105001         0.532894969         0.375926465
     0.967105031         0.032894965         0.375926465
     0.967105031         0.532894969         0.375926465
     0.326149732         0.173850238         0.410867214
     0.326149732         0.673850238         0.410867214
     0.826149702         0.173850238         0.410867214
     0.826149702         0.673850238         0.410867214
     0.326149732         0.173850238         0.089132771
     0.326149732         0.673850238         0.089132771
     0.826149702         0.173850238         0.089132771
     0.826149702         0.673850238         0.089132771
     0.121556893         0.378443092         0.249999985
     0.121556893         0.878443122         0.249999985
     0.621556878         0.378443092         0.249999985
     0.621556878         0.878443122         0.249999985
     0.032894965         0.467105001         0.624073505
     0.032894965         0.967105031         0.624073505
     0.532894969         0.467105001         0.624073505
     0.532894969         0.967105031         0.624073505
     0.173850238         0.326149732         0.589132726
     0.173850238         0.826149702         0.589132726
     0.673850238         0.326149732         0.589132726
     0.673850238         0.826149702         0.589132726
     0.378443092         0.121556893         0.750000000
     0.378443092         0.621556878         0.750000000
     0.878443122         0.121556893         0.750000000
     0.878443122         0.621556878         0.750000000
     0.032894965         0.467105001         0.875926435
     0.032894965         0.967105031         0.875926435
     0.532894969         0.467105001         0.875926435
     0.532894969         0.967105031         0.875926435
     0.173850238         0.326149732         0.910867214
     0.173850238         0.826149702         0.910867214
     0.673850238         0.326149732         0.910867214
     0.673850238         0.826149702         0.910867214
