Ca V  Cr Cu O 
1.0
       13.9610157013         0.0000000000         0.0000000000
        3.0665011584        13.6200967691         0.0000000000
        3.0245941408         2.4194127591        10.2484502095
   Ca    V   Cr   Cu    O
   15   32    8    8   96
Direct
     0.162953049         0.337051362         0.249992386
     0.340272427         0.159732386         0.000003635
     0.340272427         0.659732401         0.000003635
     0.340272427         0.659732401         0.500003636
     0.840272427         0.159732386         0.000003635
     0.840272427         0.159732386         0.500003636
     0.840272427         0.659732401         0.000003635
     0.840272427         0.659732401         0.500003636
     0.162953049         0.337051362         0.749992371
     0.162953049         0.837051392         0.249992386
     0.162953049         0.837051392         0.749992371
     0.662953019         0.337051362         0.249992386
     0.662953019         0.337051362         0.749992371
     0.662953019         0.837051392         0.249992386
     0.662953019         0.837051392         0.749992371
     0.418136269         0.318155617         0.186748713
     0.418136269         0.318155617         0.686748743
     0.418136269         0.818155646         0.186748713
     0.418136269         0.818155646         0.686748743
     0.918136239         0.318155617         0.186748713
     0.918136239         0.318155617         0.686748743
     0.918136239         0.818155646         0.186748713
     0.918136239         0.818155646         0.686748743
     0.324748248         0.416226000         0.917126536
     0.324748248         0.416226000         0.417126536
     0.324748248         0.916226029         0.917126536
     0.324748248         0.916226029         0.417126536
     0.824748278         0.416226000         0.917126536
     0.824748278         0.416226000         0.417126536
     0.824748278         0.916226029         0.917126536
     0.824748278         0.916226029         0.417126536
     0.181805536         0.081834443         0.313148588
     0.181805536         0.081834443         0.813148618
     0.181805536         0.581834435         0.313148588
     0.181805536         0.581834435         0.813148618
     0.681805551         0.081834443         0.313148588
     0.681805551         0.081834443         0.813148618
     0.681805551         0.581834435         0.313148588
     0.681805551         0.581834435         0.813148618
     0.083773650         0.175304741         0.582941771
     0.083773650         0.175304741         0.082941771
     0.083773650         0.675304770         0.582941771
     0.083773650         0.675304770         0.082941771
     0.583773673         0.175304741         0.582941771
     0.583773673         0.175304741         0.082941771
     0.583773673         0.675304770         0.582941771
     0.583773673         0.675304770         0.082941771
     0.462767541         0.037237197         0.250031769
     0.462767541         0.037237197         0.750031769
     0.462767541         0.537237167         0.250031769
     0.462767541         0.537237167         0.750031769
     0.962767541         0.037237197         0.250031769
     0.962767541         0.037237197         0.750031769
     0.962767541         0.537237167         0.250031769
     0.962767541         0.537237167         0.750031769
     0.037849788         0.462148041         0.999997079
     0.037849788         0.462148041         0.499997079
     0.037849788         0.962148070         0.999997079
     0.037849788         0.962148070         0.499997079
     0.537849784         0.462148041         0.999997079
     0.537849784         0.462148041         0.499997079
     0.537849784         0.962148070         0.999997079
     0.537849784         0.962148070         0.499997079
     0.477210075         0.387138963         0.262415737
     0.477210075         0.387138963         0.762415767
     0.477210075         0.887138963         0.262415737
     0.477210075         0.887138963         0.762415767
     0.977210045         0.387138963         0.262415737
     0.977210045         0.387138963         0.762415767
     0.977210045         0.887138963         0.262415737
     0.977210045         0.887138963         0.762415767
     0.467263609         0.182337791         0.250216603
     0.467263609         0.182337791         0.750216603
     0.467263609         0.682337761         0.250216603
     0.467263609         0.682337761         0.750216603
     0.967263579         0.182337791         0.250216603
     0.967263579         0.182337791         0.750216603
     0.967263579         0.682337761         0.250216603
     0.967263579         0.682337761         0.750216603
     0.402334362         0.500593185         0.444209844
     0.402334362         0.500593185         0.944209814
     0.402334362         0.000593185         0.444209844
     0.402334362         0.000593185         0.944209814
     0.902334332         0.500593185         0.444209844
     0.902334332         0.500593185         0.944209814
     0.902334332         0.000593185         0.444209844
     0.902334332         0.000593185         0.944209814
     0.326332569         0.328196287         0.091567881
     0.326332569         0.328196287         0.591567874
     0.326332569         0.828196287         0.091567881
     0.326332569         0.828196287         0.591567874
     0.826332569         0.328196287         0.091567881
     0.826332569         0.328196287         0.591567874
     0.826332569         0.828196287         0.091567881
     0.826332569         0.828196287         0.591567874
     0.317668587         0.032733500         0.249779239
     0.317668587         0.032733500         0.749779224
     0.317668587         0.532733500         0.249779239
     0.317668587         0.532733500         0.749779224
     0.817668557         0.032733500         0.249779239
     0.817668557         0.032733500         0.749779224
     0.817668557         0.532733500         0.249779239
     0.817668557         0.532733500         0.749779224
     0.307223856         0.315452933         0.347751260
     0.307223856         0.315452933         0.847751260
     0.307223856         0.815452933         0.347751260
     0.307223856         0.815452933         0.847751260
     0.807223856         0.315452933         0.347751260
     0.807223856         0.315452933         0.847751260
     0.807223856         0.815452933         0.347751260
     0.807223856         0.815452933         0.847751260
     0.171825692         0.173713207         0.408445150
     0.171825692         0.173713207         0.908445120
     0.171825692         0.673713207         0.408445150
     0.171825692         0.673713207         0.908445120
     0.671825707         0.173713207         0.408445150
     0.671825707         0.173713207         0.908445120
     0.671825707         0.673713207         0.408445150
     0.671825707         0.673713207         0.908445120
     0.187117919         0.466087043         0.965790510
     0.187117919         0.466087043         0.465790510
     0.187117919         0.966087043         0.965790510
     0.187117919         0.966087043         0.465790510
     0.687117934         0.466087043         0.965790510
     0.687117934         0.466087043         0.465790510
     0.687117934         0.966087043         0.965790510
     0.687117934         0.966087043         0.465790510
     0.184512094         0.192741036         0.152254701
     0.184512094         0.192741036         0.652254701
     0.184512094         0.692741036         0.152254701
     0.184512094         0.692741036         0.652254701
     0.684512079         0.192741036         0.152254701
     0.684512079         0.192741036         0.652254701
     0.684512079         0.692741036         0.152254701
     0.684512079         0.692741036         0.652254701
     0.112878360         0.022809912         0.237593874
     0.112878360         0.022809912         0.737593889
     0.112878360         0.522809923         0.237593874
     0.112878360         0.522809923         0.737593889
     0.612878382         0.022809912         0.237593874
     0.612878382         0.022809912         0.737593889
     0.612878382         0.522809923         0.237593874
     0.612878382         0.522809923         0.737593889
     0.033919774         0.312838733         0.534226358
     0.033919774         0.312838733         0.034226358
     0.033919774         0.812838733         0.534226358
     0.033919774         0.812838733         0.034226358
     0.533919752         0.312838733         0.534226358
     0.533919752         0.312838733         0.034226358
     0.533919752         0.812838733         0.534226358
     0.533919752         0.812838733         0.034226358
     0.999405086         0.097669125         0.055758376
     0.999405086         0.097669125         0.555758357
     0.999405086         0.597669125         0.055758376
     0.999405086         0.597669125         0.555758357
     0.499405086         0.097669125         0.055758376
     0.499405086         0.097669125         0.555758357
     0.499405086         0.597669125         0.055758376
     0.499405086         0.597669125         0.555758357
