Ca V  Cr P  O 
1.0
        8.5269966125         0.0000000000         0.0000000000
        0.0000009883         7.4221930504         0.0000000000
        0.0000000000         3.5380282517         9.3851760227
   Ca    V   Cr    P    O
    3    2    2    8   28
Direct
     0.094059862         0.263002694         0.750727832
     0.599741876         0.741931617         0.749641001
     0.594065011         0.736998260         0.249271050
     0.007544557         0.732988238         0.744491696
     0.507552087         0.267015964         0.255506873
     0.509292185         0.269046783         0.757663429
     0.009293318         0.730951548         0.242333561
     0.224888340         0.890143096         0.951212108
     0.309246629         0.502838373         0.941601694
     0.813244343         0.517505586         0.548492551
     0.231270894         0.886252463         0.443610340
     0.731286407         0.113761090         0.556395948
     0.313222498         0.482411325         0.451525480
     0.809222341         0.497173131         0.058367904
     0.724922836         0.109798662         0.048804052
     0.339887947         0.732435703         0.915347159
     0.074004903         0.914051533         0.861326814
     0.811042964         0.611629963         0.898303628
     0.151824802         0.483908713         0.873783827
     0.451052964         0.467661589         0.860122085
     0.702681243         0.188122645         0.888132036
     0.311300218         0.081497669         0.894984305
     0.828276753         0.931438923         0.624961078
     0.204705074         0.833342373         0.601651669
     0.957749844         0.546008587         0.628656328
     0.657917500         0.556319535         0.608603537
     0.319249213         0.377416939         0.613823235
     0.579690516         0.088140152         0.647651672
     0.835739255         0.284680068         0.582068563
     0.335732162         0.715351105         0.417930067
     0.079731710         0.911859035         0.352370650
     0.819251716         0.622624993         0.386113286
     0.157980114         0.443696648         0.391421467
     0.457706511         0.454004228         0.371368617
     0.704688370         0.166680366         0.398300469
     0.328244746         0.068506561         0.375060797
     0.811259985         0.918570220         0.104993813
     0.202678233         0.811865985         0.111886539
     0.951049328         0.532339036         0.139877111
     0.651854753         0.516093493         0.126203418
     0.311045378         0.388339549         0.101740777
     0.574013293         0.085944608         0.138665184
     0.839883268         0.267580420         0.084649332
