V18 O44
1.0
   3.6735180000000001    0.0000000000000000    0.0000000000000000
   0.0000000000000000   10.3704190000000001    0.0000000000000000
   0.0000000000000000    3.8037190000000001   21.0831020000000002
V O
18 44
direct
   0.0000000000000000    0.6187220000000000    0.9739110000000000 V
   0.5000000000000000    0.2205820000000000    0.9137059999999990 V
   0.0000000000000000    0.9699490000000000    0.9384520000000000 V
   0.0000000000000000    0.4535889999999990    0.7175000000000000 V
   0.5000000000000000    0.2059320000000000    0.7463719999999990 V
   0.0000000000000000    0.8042779999999990    0.6854159999999990 V
   0.5000000000000000    0.0443260000000000    0.6359600000000001 V
   0.0000000000000000    0.6524559999999990    0.5705400000000000 V
   0.5000000000000000    0.3991579999999990    0.5956220000000000 V
   0.0000000000000000    0.6050780000000000    0.4043090000000000 V
   0.5000000000000000    0.3521240000000000    0.4294670000000000 V
   0.0000000000000000    0.9570869999999990    0.3634150000000000 V
   0.5000000000000000    0.1956500000000000    0.3141589999999990 V
   0.0000000000000000    0.7950600000000001    0.2537890000000000 V
   0.5000000000000000    0.5459630000000000    0.2828219999999990 V
   0.5000000000000000    0.0297430000000000    0.0617020000000000 V
   0.0000000000000000    0.7796740000000000    0.0869610000000000 V
   0.5000000000000000    0.3817959999999990    0.0261220000000000 V
   0.5000000000000000    0.5767780000000000    0.9928600000000001 O
   0.0000000000000000    0.1699610000000000    0.9188750000000000 O
   0.0000000000000000    0.7857130000000000    0.9879260000000000 O
   0.5000000000000000    0.3831940000000000    0.9081370000000000 O
   0.5000000000000000    0.0081540000000000    0.9557410000000000 O
   0.0000000000000000    0.6348200000000001    0.8963949999999991 O
   0.5000000000000000    0.2108219999999990    0.8277400000000000 O
   0.0000000000000000    0.9255479999999990    0.8668990000000000 O
   0.0000000000000000    0.4977570000000000    0.7891440000000000 O
   0.0000000000000000    0.7845080000000000    0.7630880000000000 O
   0.5000000000000000    0.4130910000000000    0.6989510000000000 O
   0.5000000000000000    0.0433680000000000    0.7463430000000000 O
   0.0000000000000000    0.6394580000000000    0.6683979999999990 O
   0.0000000000000000    0.2552370000000000    0.7356690000000000 O
   0.0000000000000000    0.4313380000000000    0.6120380000000000 O
   0.5000000000000000    0.8463120000000000    0.6676380000000000 O
   0.0000000000000000    0.0008400000000000    0.6530509999999990 O
   0.5000000000000000    0.5956690000000000    0.5746420000000000 O
   0.5000000000000000    0.2130820000000000    0.6433360000000000 O
   0.0000000000000000    0.8137570000000000    0.5649839999999990 O
   0.5000000000000000    0.0526750000000000    0.5579769999999999 O
   0.0000000000000000    0.6397929999999999    0.4790520000000000 O
   0.5000000000000000    0.3625960000000000    0.5206620000000000 O
   0.0000000000000000    0.9453440000000000    0.4399480000000000 O
   0.5000000000000000    0.1915029999999990    0.4357080000000000 O
   0.0000000000000000    0.7873779999999990    0.3543210000000000 O
   0.0000000000000000    0.4055160000000000    0.4254560000000000 O
   0.5000000000000000    0.0009920000000000    0.3442610000000000 O
   0.0000000000000000    0.1554640000000000    0.3325639999999990 O
   0.5000000000000000    0.5702000000000000    0.3872569999999990 O
   0.5000000000000000    0.7441100000000000    0.2634090000000000 O
   0.5000000000000000    0.3615870000000000    0.3319260000000000 O
   0.0000000000000000    0.9576739999999990    0.2516339999999990 O
   0.0000000000000000    0.5816560000000000    0.3001790000000000 O
   0.5000000000000000    0.2169029999999990    0.2364639999999990 O
   0.5000000000000000    0.5022500000000001    0.2111880000000000 O
   0.5000000000000000    0.0746540000000000    0.1332020000000000 O
   0.0000000000000000    0.7876540000000000    0.1719520000000000 O
   0.5000000000000000    0.3653710000000000    0.1036339999999990 O
   0.0000000000000000    0.9898429999999990    0.0441350000000000 O
   0.0000000000000000    0.6170949999999999    0.0915759999999990 O
   0.5000000000000000    0.2145100000000000    0.0118140000000000 O
   0.5000000000000000    0.8296390000000000    0.0809759999999990 O
   0.0000000000000000    0.4231060000000000    0.0071290000000000 O
