V  O 
 1.0000000000000000
     3.6735180000000001    0.0000000000000000    0.0000000000000000
     0.0000000000000000   10.3704190000000001    0.0000000000000000
     0.0000000000000000    3.8037190000000001   21.0831020000000002
 V   O  
  18  44
Cartesian
 -0.0000000000000000 10.1017732391296686 20.5167803359517116
  1.8367590000000000  5.7395722014698869 19.2172435345491337
 -0.0000000000000001 13.5658005735679108 19.7684626854040779
 -0.0000000000000001  7.4690271160156136 15.0824874226643768
  1.8367590000000000  4.9385313224432590 15.7002329577786117
  0.0000000000000001 10.9687871786010316 14.4348245436086629
  1.8367590000000000  2.8423604290127868 13.3147760674987197
 -0.0000000000000001  8.8539089995974827 12.0106447025549379
  1.8367590000000000  6.3268773825309408 12.5405971115771386
 -0.0000000000000000  7.8606154509615820  8.5344543245166964
  1.8367590000000000  5.3287836598208127  9.0664112376481647
  0.0000000000000001 11.3431383742486993  7.7597755826914883
  1.8367590000000000  3.2135299818684877  6.6401301688690655
  0.0000000000000001  9.2386397903968405  5.3720431608193460
  1.8367590000000000  6.7132042566071313  5.9940632442003192
  1.8367590000000000  0.6057070243060884  1.3082067675512457
 -0.0000000000000000  8.4305482250696180  1.8563483585028400
  1.8367590000000000  4.0681540970280174  0.5588207378535007
  1.8367590000000000  9.7787562548849980 20.9742858744884124
 -0.0000000000000000  5.2084678619579776 19.4224563716905259
 -0.0000000000000000 11.9821175382347835 20.8091747421717734
  1.8367590000000000  7.3653703163858832 19.1940756668326031
  1.8367590000000000  3.6297963861519551 20.0858513115332471
  0.0000000000000000 10.0531248751620588 18.9225859445925479
  1.8367590000000000  5.3746321198900695 17.4429614552408161
  0.0000000000000000 12.9891101924314540 18.2777038294225385
 -0.0000000000000001  8.0640953253419241 16.5654888677848398
  0.0000000000000001 10.9675522231984406 16.0290796688180990
  1.8367590000000000  7.0688867005526426 14.7101735519640986
  1.8367590000000000  3.3177565437886898 15.7706258697683790
 -0.0000000000000000  9.0931507438729025 14.0655603145440189
 -0.0000000000000001  5.4887053210197863 15.4710233696353150
 -0.0000000000000001  6.7661768379728278 12.8256169956487973
  1.8367590000000000 11.2834072961106298 13.9885572448406545
 -0.0000000000000001  2.4894266945376935 13.7790315721279377
  1.8367590000000000  8.3503309264542640 12.1387710462865286
  1.8367590000000000  4.6684670016413161 13.5794123697877129
 -0.0000000000000001 10.4725420870576400 11.9383142340979305
  1.8367590000000000  2.7426368793168354 11.7219576722509959
 -0.0000000000000000  8.4349351097282348 10.1686897819434954
  1.8367590000000000  5.7477628820309601 10.9086624416108862
  0.0000000000000001 11.4412608383462153  9.3529993291976918
  1.8367590000000000  3.7098042901225021  9.1383951188567405
  0.0000000000000000  9.5157670052751797  7.4967639719531887
 -0.0000000000000001  5.8350489254023374  8.9357349774585746
  1.8367590000000000  1.3246435494658371  7.2948268045026721
 -0.0000000000000001  2.9000581346464966  7.0853006609331102
  1.8367590000000000  7.4184520269903427  8.2482293356930487
  1.8367590000000000  8.6928459483980127  5.6033309635167416
  1.8367590000000000  5.0888233347474756  7.0083861306632134
 -0.0000000000000000 10.8596343642471478  5.3030202830271467
  0.0000000000000001  7.1144701078059827  6.3666347121597822
  1.8367590000000000  3.2178588601343407  5.0460015631093453
  1.8367590000000000  6.1185794822571742  4.5106157133353930
  1.8367590000000000  1.1820422859766602  2.7991281703972053
 -0.0000000000000000  8.8002932309353437  3.6309573093517540
  1.8367590000000000  4.1173336873359405  2.1530200313294583
  0.0000000000000000 10.5409272407809418  0.9910375427989665
  0.0000000000000000  6.8046518877213726  1.8810952537381493
  1.8367590000000000  2.1883635293100223  0.2675349252610902
  1.8367590000000000  8.9633289041294830  1.6523943181146195
  0.0000000000000001  4.3913461604003992  0.1020204026874680
