Ca Ti Mn Si O  F                        
   1.00000000000000     
     9.9872684479000000    0.0000000000000000    0.0000000000000000
     0.0000000000000000   10.9652748108000004    0.0000000000000000
     0.0000000000000000   -4.3438069094999996   13.5038650633999993
   Ca   Ti   Mn   Si   O    F 
    11     8    12    16    64     8
Selective dynamics
Direct
  0.3568940677152881  0.4185344787346779  0.4218520854904426   T   T   T
  0.6031243184466035  0.1942642651851187  0.9823973807416309   T   T   T
  0.3987811919242787  0.8070991627000623  0.0179925962261080   T   T   T
  0.9021544795443290  0.6915812610413781  0.4907565165403511   T   T   T
  0.3717614641277933  0.4237542356214163  0.9113066184281138   T   T   T
  0.6287236188751848  0.5774011626659075  0.0914783711631344   T   T   T
  0.8809297690015327  0.0898440435800296  0.5880505622360204   T   T   T
  0.1314871879258916  0.9289969563343803  0.4153885826389114   T   T   T
  0.1217340065482304  0.9193102497777517  0.9117746420395960   T   T   T
  0.8799190163039157  0.0823565938730297  0.0905921687587252   T   T   T
  0.6197613690695363  0.5790162115389563  0.5850400407703020   T   T   T
  0.4056594389266195  0.7786963422323083  0.7496648801060957   T   T   T
  0.5923542564034818  0.2234997210002447  0.2532578655267059   T   T   T
  0.9028423976748385  0.7208877675363894  0.7500097971931865   T   T   T
  0.0966804610509655  0.2825690254939843  0.2542225374169433   T   T   T
  0.0966399104897420  0.2751144468522924  0.7659934359997820   T   T   T
  0.9053897059755300  0.7268038753260271  0.2332515329148421   T   T   T
  0.5960036487102229  0.2279814525968717  0.7298401514141872   T   T   T
  0.4032761527496049  0.7737510522930009  0.2683461276135404   T   T   T
  0.3916667764534836  0.8134778670719456  0.5168930993663992   T   T   T
  0.6089179144185266  0.1870515466608040  0.4828137694751007   T   T   T
  0.8916782196541959  0.6861306736151320  0.9829024166198366   T   T   T
  0.1078779389988966  0.3121431570192570  0.0171622034186996   T   T   T
  0.3584318663923796  0.4330719046429010  0.6822189891225392   T   T   T
  0.6328746461406780  0.5575780847598466  0.3182433414025283   T   T   T
  0.8640384537855823  0.0584066489387638  0.8125952037425748   T   T   T
  0.1359399563332886  0.9449207636223278  0.1876664599671543   T   T   T
  0.1378381759486302  0.9390128679272820  0.6829580084894076   T   T   T
  0.8691623898214900  0.0644841031069845  0.3200690218480560   T   T   T
  0.6375547198902325  0.5606217011431269  0.8122029686276449   T   T   T
  0.3634635398586923  0.4386759641076168  0.1867212434487087   T   T   T
  0.3370013072507803  0.1244395818579846  0.8596714122839870   T   T   T
  0.6660485085008787  0.8767410001648415  0.1414360360315214   T   T   T
  0.8417128865316954  0.3803780078317374  0.6373739422188009   T   T   T
  0.1611188659364515  0.6227485766656997  0.3603902105122287   T   T   T
  0.6750189589108615  0.8739667175865549  0.6366783723117351   T   T   T
  0.3292215278531998  0.1224703863125072  0.3586854843739005   T   T   T
  0.1728896376569224  0.6252815520750374  0.8597968234829096   T   T   T
  0.8242921997421817  0.3716794650281869  0.1393463416762231   T   T   T
  0.1699605333730432  0.6221802177148135  0.5898045218415149   T   T   T
  0.8344805744227060  0.3801016435419129  0.4137948901920652   T   T   T
  0.6665243238831735  0.8801946857113734  0.9135820330032516   T   T   T
  0.3307428043495975  0.1222623831069143  0.0875680935220444   T   T   T
  0.3293881190445447  0.1261467169915917  0.5847102273109357   T   T   T
  0.6691945649886009  0.8747008781979488  0.4119813896426265   T   T   T
  0.8300023330679451  0.3752043087548174  0.9121955875512597   T   T   T
  0.1706270030369623  0.6232546290058352  0.0862856071672482   T   T   T
  0.5143974251642547  0.3831233264781133  0.2825153300677101   T   T   T
  0.4856599550722507  0.6207110354532475  0.7247582424221051   T   T   T
  0.0182773875910556  0.1143079030028815  0.2235666219272687   T   T   T
  0.9778841742871336  0.8834913813561656  0.7788204068885776   T   T   T
  0.2184056078492489  0.4788673446540272  0.8014331382487043   T   T   T
  0.7780930764707534  0.5164651548514385  0.2015365810804681   T   T   T
  0.7230741929334386  0.0203001882297684  0.6936979229910918   T   T   T
  0.2842486437731182  0.9746032083852043  0.3007166437770081   T   T   T
  0.0213032685265375  0.1112143026548367  0.7289190875121037   T   T   T
  0.9869469855168020  0.8848257192522553  0.2700181362862821   T   T   T
  0.5175243669198863  0.3900505408469712  0.7708234868976263   T   T   T
  0.4813036752441633  0.6099061447954099  0.2293624441294142   T   T   T
  0.5176598339134628  0.8362620687599431  0.6448026070021555   T   T   T
  0.4877765570256116  0.1583037571920087  0.3534987036493504   T   T   T
  0.0160748992033248  0.6651569541207110  0.8546300852378650   T   T   T
  0.9799316800404796  0.3269481689124021  0.1404990621223376   T   T   T
  0.2290377877267460  0.2442557416934434  0.8751925258776936   T   T   T
  0.7729986407585514  0.7553551043732440  0.1235874812046447   T   T   T
  0.7285856876729540  0.2626723130167576  0.6215312684843184   T   T   T
  0.2687776991100321  0.7419958784218608  0.3744617165035677   T   T   T
  0.7449661853970042  0.0165221283389130  0.9259923959276080   T   T   T
  0.2533769823269267  0.9842861733463408  0.0717595917264049   T   T   T
  0.2586233455582345  0.4959463079378992  0.5815555270443085   T   T   T
  0.7539266092682624  0.5177837853814893  0.4302017696686917   T   T   T
  0.7667253967825758  0.7573831955757839  0.6531548425737910   T   T   T
  0.2441323032745899  0.2330195635772370  0.3287664772034660   T   T   T
  0.2658430881554992  0.7425614442207262  0.8461053490395187   T   T   T
  0.7282057634583836  0.2548597851389900  0.1509875450958589   T   T   T
  0.2683631778440940  0.9821181103814283  0.5731882123167438   T   T   T
  0.7289743021573898  0.0180707552824302  0.4256524930770169   T   T   T
  0.7703422660617889  0.5178344042881662  0.9201713555999760   T   T   T
  0.2317579797582283  0.4805287622188104  0.0760000391879530   T   T   T
  0.3707766034329296  0.1234169111188024  0.9741215361982754   T   T   T
  0.6317383196044588  0.8816064828436652  0.0281962326655147   T   T   T
  0.8789085613606602  0.3818021841557524  0.5251750932351840   T   T   T
  0.1344159627491237  0.6161021464150522  0.4737927719849466   T   T   T
  0.4813726728645165  0.1702245932690616  0.8293792693890509   T   T   T
  0.5218600852407604  0.8280263235603087  0.1699656849182460   T   T   T
  0.9702669343596781  0.3322653190591112  0.6853047282952787   T   T   T
  0.0153336254972203  0.6690274820798763  0.3334262255864004   T   T   T
  0.2108286460616426  0.6429101971435927  0.9775142675225652   T   T   T
  0.7861824649111000  0.3605089433733113  0.0221993742148427   T   T   T
  0.7100749946832963  0.8459054144801001  0.5173419898746232   T   T   T
  0.2925001949367285  0.1457966879842303  0.4764114670849153   T   T   T
  0.9925062833195781  0.3582382475178747  0.8998844578630028   T   T   T
  0.0083507397551088  0.6374271157939759  0.1000842254390477   T   T   T
  0.4926414315458771  0.1397969271884563  0.5989757442125097   T   T   T
  0.5062498739071941  0.8590933831013459  0.4004226471064456   T   T   T
  0.2760735872364108  0.9839931341099089  0.8006482611618893   T   T   T
  0.7269490027971273  0.0159201284151465  0.2024626992817247   T   T   T
  0.7793225400936379  0.5217417274426950  0.6970292155234290   T   T   T
  0.2195795099596225  0.4819474698145640  0.2984037775496233   T   T   T
  0.2574714092891881  0.7560891863131332  0.6368880310297058   T   T   T
  0.7396486922085614  0.2528626794000601  0.3659429628873667   T   T   T
  0.7578848536475817  0.7513547170141592  0.8644807472516121   T   T   T
  0.2357753261258608  0.2496470643394915  0.1337037893381989   T   T   T
  0.5167291618596082  0.8696061657695182  0.8676592250571460   T   T   T
  0.4773254062853596  0.1335059163246015  0.1379932829455228   T   T   T
  0.0197385179195351  0.6382861156264710  0.6356939218070181   T   T   T
  0.9691426343083975  0.3722495664000647  0.3477059318604176   T   T   T
  0.2564792554594106  0.2410595744583475  0.6713655132201524   T   T   T
  0.7464083729406852  0.7560079256766983  0.3315724887215765   T   T   T
  0.7490136925524453  0.2528361983383505  0.8382314040305587   T   T   T
  0.2524880875084037  0.7442608177625232  0.1603598242660738   T   T   T
  0.0184834627064916  0.1130429879733796  0.9655414927360866   T   T   T
  0.9790263598812459  0.8845506272495385  0.0307236237937261   T   T   T
  0.5167736739794577  0.3846485342070949  0.5311047247218923   T   T   T
  0.4769524514292272  0.6120072812906940  0.4652715357157646   T   T   T
  0.9997081506719780  0.8920205490753119  0.5414101219575755   T   T   T
  0.9929641918275891  0.0974498173755123  0.4527846726117986   T   T   T
  0.5000079134123254  0.6095078004336685  0.9642113410985260   T   T   T
  0.4999419231180511  0.3911453504181353  0.0383588252006604   T   T   T
 
  0.00000000E+00  0.00000000E+00  0.00000000E+00
  0.00000000E+00  0.00000000E+00  0.00000000E+00
  0.00000000E+00  0.00000000E+00  0.00000000E+00
  0.00000000E+00  0.00000000E+00  0.00000000E+00
  0.00000000E+00  0.00000000E+00  0.00000000E+00
  0.00000000E+00  0.00000000E+00  0.00000000E+00
  0.00000000E+00  0.00000000E+00  0.00000000E+00
  0.00000000E+00  0.00000000E+00  0.00000000E+00
  0.00000000E+00  0.00000000E+00  0.00000000E+00
  0.00000000E+00  0.00000000E+00  0.00000000E+00
  0.00000000E+00  0.00000000E+00  0.00000000E+00
  0.00000000E+00  0.00000000E+00  0.00000000E+00
  0.00000000E+00  0.00000000E+00  0.00000000E+00
  0.00000000E+00  0.00000000E+00  0.00000000E+00
  0.00000000E+00  0.00000000E+00  0.00000000E+00
  0.00000000E+00  0.00000000E+00  0.00000000E+00
  0.00000000E+00  0.00000000E+00  0.00000000E+00
  0.00000000E+00  0.00000000E+00  0.00000000E+00
  0.00000000E+00  0.00000000E+00  0.00000000E+00
  0.00000000E+00  0.00000000E+00  0.00000000E+00
  0.00000000E+00  0.00000000E+00  0.00000000E+00
  0.00000000E+00  0.00000000E+00  0.00000000E+00
  0.00000000E+00  0.00000000E+00  0.00000000E+00
  0.00000000E+00  0.00000000E+00  0.00000000E+00
  0.00000000E+00  0.00000000E+00  0.00000000E+00
  0.00000000E+00  0.00000000E+00  0.00000000E+00
  0.00000000E+00  0.00000000E+00  0.00000000E+00
  0.00000000E+00  0.00000000E+00  0.00000000E+00
  0.00000000E+00  0.00000000E+00  0.00000000E+00
  0.00000000E+00  0.00000000E+00  0.00000000E+00
  0.00000000E+00  0.00000000E+00  0.00000000E+00
  0.00000000E+00  0.00000000E+00  0.00000000E+00
  0.00000000E+00  0.00000000E+00  0.00000000E+00
  0.00000000E+00  0.00000000E+00  0.00000000E+00
  0.00000000E+00  0.00000000E+00  0.00000000E+00
  0.00000000E+00  0.00000000E+00  0.00000000E+00
  0.00000000E+00  0.00000000E+00  0.00000000E+00
  0.00000000E+00  0.00000000E+00  0.00000000E+00
  0.00000000E+00  0.00000000E+00  0.00000000E+00
  0.00000000E+00  0.00000000E+00  0.00000000E+00
  0.00000000E+00  0.00000000E+00  0.00000000E+00
  0.00000000E+00  0.00000000E+00  0.00000000E+00
  0.00000000E+00  0.00000000E+00  0.00000000E+00
  0.00000000E+00  0.00000000E+00  0.00000000E+00
  0.00000000E+00  0.00000000E+00  0.00000000E+00
  0.00000000E+00  0.00000000E+00  0.00000000E+00
  0.00000000E+00  0.00000000E+00  0.00000000E+00
  0.00000000E+00  0.00000000E+00  0.00000000E+00
  0.00000000E+00  0.00000000E+00  0.00000000E+00
  0.00000000E+00  0.00000000E+00  0.00000000E+00
  0.00000000E+00  0.00000000E+00  0.00000000E+00
  0.00000000E+00  0.00000000E+00  0.00000000E+00
  0.00000000E+00  0.00000000E+00  0.00000000E+00
  0.00000000E+00  0.00000000E+00  0.00000000E+00
  0.00000000E+00  0.00000000E+00  0.00000000E+00
  0.00000000E+00  0.00000000E+00  0.00000000E+00
  0.00000000E+00  0.00000000E+00  0.00000000E+00
  0.00000000E+00  0.00000000E+00  0.00000000E+00
  0.00000000E+00  0.00000000E+00  0.00000000E+00
  0.00000000E+00  0.00000000E+00  0.00000000E+00
  0.00000000E+00  0.00000000E+00  0.00000000E+00
  0.00000000E+00  0.00000000E+00  0.00000000E+00
  0.00000000E+00  0.00000000E+00  0.00000000E+00
  0.00000000E+00  0.00000000E+00  0.00000000E+00
  0.00000000E+00  0.00000000E+00  0.00000000E+00
  0.00000000E+00  0.00000000E+00  0.00000000E+00
  0.00000000E+00  0.00000000E+00  0.00000000E+00
  0.00000000E+00  0.00000000E+00  0.00000000E+00
  0.00000000E+00  0.00000000E+00  0.00000000E+00
  0.00000000E+00  0.00000000E+00  0.00000000E+00
  0.00000000E+00  0.00000000E+00  0.00000000E+00
  0.00000000E+00  0.00000000E+00  0.00000000E+00
  0.00000000E+00  0.00000000E+00  0.00000000E+00
  0.00000000E+00  0.00000000E+00  0.00000000E+00
  0.00000000E+00  0.00000000E+00  0.00000000E+00
  0.00000000E+00  0.00000000E+00  0.00000000E+00
  0.00000000E+00  0.00000000E+00  0.00000000E+00
  0.00000000E+00  0.00000000E+00  0.00000000E+00
  0.00000000E+00  0.00000000E+00  0.00000000E+00
  0.00000000E+00  0.00000000E+00  0.00000000E+00
  0.00000000E+00  0.00000000E+00  0.00000000E+00
  0.00000000E+00  0.00000000E+00  0.00000000E+00
  0.00000000E+00  0.00000000E+00  0.00000000E+00
  0.00000000E+00  0.00000000E+00  0.00000000E+00
  0.00000000E+00  0.00000000E+00  0.00000000E+00
  0.00000000E+00  0.00000000E+00  0.00000000E+00
  0.00000000E+00  0.00000000E+00  0.00000000E+00
  0.00000000E+00  0.00000000E+00  0.00000000E+00
  0.00000000E+00  0.00000000E+00  0.00000000E+00
  0.00000000E+00  0.00000000E+00  0.00000000E+00
  0.00000000E+00  0.00000000E+00  0.00000000E+00
  0.00000000E+00  0.00000000E+00  0.00000000E+00
  0.00000000E+00  0.00000000E+00  0.00000000E+00
  0.00000000E+00  0.00000000E+00  0.00000000E+00
  0.00000000E+00  0.00000000E+00  0.00000000E+00
  0.00000000E+00  0.00000000E+00  0.00000000E+00
  0.00000000E+00  0.00000000E+00  0.00000000E+00
  0.00000000E+00  0.00000000E+00  0.00000000E+00
  0.00000000E+00  0.00000000E+00  0.00000000E+00
  0.00000000E+00  0.00000000E+00  0.00000000E+00
  0.00000000E+00  0.00000000E+00  0.00000000E+00
  0.00000000E+00  0.00000000E+00  0.00000000E+00
  0.00000000E+00  0.00000000E+00  0.00000000E+00
  0.00000000E+00  0.00000000E+00  0.00000000E+00
  0.00000000E+00  0.00000000E+00  0.00000000E+00
  0.00000000E+00  0.00000000E+00  0.00000000E+00
  0.00000000E+00  0.00000000E+00  0.00000000E+00
  0.00000000E+00  0.00000000E+00  0.00000000E+00
  0.00000000E+00  0.00000000E+00  0.00000000E+00
  0.00000000E+00  0.00000000E+00  0.00000000E+00
  0.00000000E+00  0.00000000E+00  0.00000000E+00
  0.00000000E+00  0.00000000E+00  0.00000000E+00
  0.00000000E+00  0.00000000E+00  0.00000000E+00
  0.00000000E+00  0.00000000E+00  0.00000000E+00
  0.00000000E+00  0.00000000E+00  0.00000000E+00
  0.00000000E+00  0.00000000E+00  0.00000000E+00
  0.00000000E+00  0.00000000E+00  0.00000000E+00
  0.00000000E+00  0.00000000E+00  0.00000000E+00
  0.00000000E+00  0.00000000E+00  0.00000000E+00
