Ca V  Cr P  O 
1.0
        8.4705743790         0.0000000000         0.0000000000
        0.0000000000         7.3242030144         0.0000000000
        0.0000000000         3.2704798539         9.4656202235
   Ca    V   Cr    P    O
    3    2    2    8   28
Direct
     0.407083571         0.256562591         0.367043257
     0.907083273         0.743437588         0.632956624
     0.909154236         0.742707610         0.125602096
     0.493313432         0.727935612         0.638509691
     0.993313134         0.272064120         0.361490130
     0.487756521         0.734959006         0.142483041
     0.987756908         0.265040964         0.857516885
     0.192233577         0.490595758         0.561429858
     0.764392614         0.113100857         0.641748250
     0.264393598         0.886897087         0.358250350
     0.692232549         0.509404182         0.438570678
     0.187760144         0.485946566         0.056070812
     0.775358498         0.115826860         0.140448108
     0.275357097         0.884180665         0.859557927
     0.687757313         0.514053285         0.943928123
     0.295188278         0.818945765         0.732272148
     0.668253362         0.929122448         0.668202579
     0.047292683         0.454709083         0.658504903
     0.350161493         0.472144157         0.638947487
     0.693106771         0.621062517         0.543569803
     0.420522094         0.912888050         0.429742277
     0.158443853         0.720065773         0.474958390
     0.658444047         0.279934287         0.525041759
     0.920522094         0.087112062         0.570257843
     0.193106607         0.378937274         0.456429929
     0.850162268         0.527855992         0.361052096
     0.547292888         0.545290947         0.341495126
     0.284876764         0.821564317         0.229794875
     0.687985182         0.925024092         0.170972422
     0.168252543         0.070878997         0.331797332
     0.795187473         0.181051418         0.267723024
     0.043236684         0.458482027         0.151266828
     0.344379604         0.447392076         0.135811418
     0.681360006         0.618304014         0.054151196
     0.428212315         0.905597508         0.939678252
     0.165507197         0.721017063         0.974063694
     0.665507138         0.278983057         0.025936019
     0.928213656         0.094402134         0.060320728
     0.181359768         0.381696284         0.945849121
     0.844380558         0.552608132         0.864188194
     0.543238342         0.541517556         0.848734260
     0.187987015         0.074971929         0.829027951
     0.784876943         0.178436339         0.770206213
