Ca V  Fe P  O 
 1.0000000000000000
    14.8499546051000006    0.0000000000000000    0.0000000000000000
    -0.0125117168000000    8.2040796242000003    0.0000000000000000
     3.6964733550000002   -0.0852234029000000    9.1101353430999996
 Ca  V   Fe  P   O  
   3   4   4  16  56
Selective dynamics
Cartesian
 11.6959738589276299  7.6385636113636401  4.1533308782373526   T   T   T
  4.5464375142416760  7.5781475723306624  2.3466934288113745   T   T   T
 17.4468309353016053  7.5650079624452315  7.1142579706308702   T   T   T
 10.0093676395770999  4.1189112453126109  6.9644192430711556   T   T   T
 17.4365886263925596  4.0346805955760647  6.9525000708793092   T   T   T
  4.4569844827752192  4.0648022055056758  2.4099501720531920   T   T   T
 11.8805799468469750  4.1202853006041202  2.3071395563710588   T   T   T
  1.0428640268802389  0.0986816845718926  2.2142116218748433   T   T   T
  8.4812136448124793  0.1067109193089645  2.2259482121850973   T   T   T
  6.6812458396144825  0.0329970913071744  6.8305648068727560   T   T   T
 14.0146072830356445  0.0397796545822201  6.8536168801581567   T   T   T
  3.4638325714197120  1.6960739376719551  0.5241192133340813   T   T   T
 10.9532221728510137  1.5376169545540821  0.6327557868404327   T   T   T
  9.0036749067176345  1.6151214639679023  5.1148503110287447   T   T   T
 16.4440324248522884  1.6093831413196238  5.0973812715000806   T   T   T
  4.7728027887357189  6.2210523138847114  8.6237617792308203   T   T   T
 12.1412110726220099  6.2645020798348341  8.5514104614175928   T   T   T
  6.6182729642463984  6.2857224261597837  4.0910911865444417   T   T   T
 14.1084783206126207  6.2794605832121748  3.9957294252009561   T   T   T
  6.3664481745444306  2.2613230343424737  0.6033970559070847   T   T   T
 13.7923038289961006  2.1923537989564732  0.5732800913609560   T   T   T
  4.4929285892744071  2.1320499687005539  5.1625953421897854   T   T   T
 11.9293173640108172  2.2641750595766381  5.1557218661783226   T   T   T
  7.5823844454488016  5.6541379226388013  8.6443838671284183   T   T   T
 15.0350131489403918  5.6021297499843721  8.6509306494440228   T   T   T
  2.1186087059660275  5.6941330356884157  4.1019757438080484   T   T   T
  9.4231366461103594  5.5758646085009884  4.0662778875576322   T   T   T
  4.6210209672423943  2.4320847802250918  3.6674271249178272   T   T   T
 12.1387247028694620  2.6905482562868630  3.7055784233061964   T   T   T
 10.1828185083207021  2.6008561889504107  8.2574981232902491   T   T   T
 17.6261777658409677  2.4296884577489020  8.1938021603153910   T   T   T
  5.3767495539000514  5.5558950314869033  3.5560442672974113   T   T   T
 12.8651603612005374  5.4927210644734537  3.5391548188154722   T   T   T
  3.5218714388677426  5.4724023826558827  8.1319935402303170   T   T   T
 11.0290153304956888  5.3204122383605821  8.0745469958645977   T   T   T
  2.8430138658998438  0.6156266315258454  1.4425038339320464   T   T   T
 10.3397926065102066  0.5223425182196959  1.6021301800647942   T   T   T
  8.3996671533863481  0.5555307411933369  6.0100192445075455   T   T   T
 15.7859319030365359  0.5426662359309196  6.0145764445458010   T   T   T
  3.3347884632492928  3.0971975037793684  1.0921080636178706   T   T   T
 10.8485605113597963  2.9850356520925341  1.1429801456648738   T   T   T
  8.9739553467896886  3.0355204562669265  5.7036342426576141   T   T   T
 16.3213173482077956  3.0205012301009804  5.6305226812281921   T   T   T
  4.2321824900140959  5.6850168483132331  1.0481872488746966   T   T   T
 11.7016762538093104  5.6327574705279781  1.0405497971068176   T   T   T
  9.8942040421872139  5.5568866682255171  5.5326885224446984   T   T   T
  2.4021474744960245  5.7360074701954531  5.6203410155328477   T   T   T
  6.0752526930192436  3.4557394127467136  1.5351276831241443   T   T   T
 13.4969978679948319  3.4186813121532418  1.4545166886464140   T   T   T
  4.2065020755367097  3.3740204240683926  6.0177111062215625   T   T   T
 11.6665973765899391  3.3904420082237432  6.1342878123434526   T   T   T
  5.0563946079922486  1.2579095829547362  0.7114544947864847   T   T   T
 12.5357330277896217  1.1579520454502570  0.6812380546271544   T   T   T
  3.1657513594378970  1.1360600508981233  5.3063549550805051   T   T   T
 10.6235104591799239  1.2473540066450715  5.1285285361627180   T   T   T
  6.0211300562394037  5.2225332234514052  8.4605115176257115   T   T   T
 13.4643461199125323  5.3127167214116700  8.5186550939093593   T   T   T
  7.8556396839605016  5.2525169736255064  3.9246773480226551   T   T   T
 15.3832364229226730  5.3447359291436367  3.9278937781272423   T   T   T
  4.9245548097199450  7.4464529011086640  7.6798564827054987   T   T   T
 12.3676073304263365  7.4034917319931361  7.5496509693859419   T   T   T
  6.8146711159040505  7.5031681049359769  3.1388930952149141   T   T   T
 14.2613230734542871  7.5136643154296872  3.0862990604258842   T   T   T
  6.7594854690943764  1.5099810757506342  8.1867971950066298   T   T   T
 14.1742436603590480  1.3606452690497490  8.3012655407226354   T   T   T
  8.5890336935570826  1.5351249591483909  3.6573219577432310   T   T   T
 16.0725830824443889  1.4737457563287288  3.6409766382329725   T   T   T
  7.6939518247386349  7.0918460535237502  8.1704148746600200   T   T   T
 15.2955603415110950  7.0042284284810590  8.0415970935146035   T   T   T
  2.3635439513403922  7.0738614083250075  3.4641916903537702   T   T   T
  9.5961336905671306  7.0274865792369328  3.5464616079546030   T   T   T
  8.3483096306182532  4.6237077990043263  7.8300125144158086   T   T   T
 15.7434510547161821  4.5246350394848376  7.8484680215449538   T   T   T
  2.8077454901433216  4.5607628715606934  3.3804732116479439   T   T   T
 10.1631866197769263  4.5692608520032900  3.2065492413261065   T   T   T
  5.5986648336903242  1.2270818674669279  5.6536269833360215   T   T   T
 12.9889759180892881  1.2199138637625617  5.5393090002918184   T   T   T
  7.4938552262617213  1.3748803152074718  1.0812437851864884   T   T   T
 14.9617951115620560  1.3466072016694435  1.0362109993194817   T   T   T
  6.5007645459785683  6.6743755805516765  5.5423747035625812   T   T   T
 13.8179381279835400  6.7548341344127287  5.4236638737040632   T   T   T
  0.9654222583766000  6.7165284918500801  0.9694189637427746   T   T   T
  8.2220510656834964  6.8196164618988613  0.8668093543941613   T   T   T
