Ca Mn P  O 
 1.0000000000000000
    -9.0933349999999997    0.0000000000000000    0.0000000000000000
    -0.6977059999999990   -9.1051350000000006    0.0000000000000000
     4.0827689999999999    3.7863850000000001   10.8403589999999994
 Ca  Mn  P   O  
   6  12  12  48
Cartesian
 -4.8955205000000079 -4.5525674999999959  0.0000000000000311
 -1.9103727773940422 -2.1470419788070272  3.8605271607809164
 -6.3339973067457107 -5.8450558106345349  2.7730152075641810
  2.0413844999999893  1.8931924999999992  5.4201794999999988
  0.6257253067457105  0.5263058106345372  8.0673437924358442
 -3.7978992226059600 -3.1717080211929773  6.9798318392191012
 -3.8998069467091612 -0.9775962572048157  1.0826246305143403
  1.2704285262799064 -1.5335712383794367  4.3619242415714341
 -0.7938825564205093 -6.5115144264478557  1.6231145758401668
 -7.6228321940945296 -2.9398560630006543  1.3522882263138125
 -4.3782508131207836  0.4534010621473566  4.0709543522528682
 -2.8986561807262570 -5.3394046481652495  3.7547002714252335
 -2.8096158192737497  0.0206546481652441  7.0856587285747636
 -1.3300211868792287 -5.7721510621473602  6.7694046477471383
  1.9145601940945112 -2.3788939369993480  9.4880707736862000
 -6.9787005262799129 -3.7851787616205641  6.4784347584285662
 -4.9143894435794868  1.1927644264478563  9.2172444241598264
 -1.8084650532908384 -4.3411537427951936  9.7577343694856626
 -1.8073380495948461 -3.5909168853743023  0.8366861805304145
 -6.9041823244586391  0.2971507453104332  1.9158084436869731
 -1.0549959857084446  0.8641903237453268  4.5392142311378807
 -3.8243456956434794 -7.0822801779229030  1.2510565833504579
  0.2562711976073092 -4.6031467288198469  3.9479357398278760
 -5.0234411758138613 -2.8181960759179323  3.6843830858944031
 -0.6848308241861391 -2.5005539240820673  7.1559759141055883
 -5.9645431976073153 -0.7156032711801552  6.8924232601721265
 -1.8839263043565213  1.7635301779228980  9.5893024166495344
 -4.6532760142915652 -6.1829403237453269  6.3011447688621205
  1.1959103244586324 -5.6159007453104364  8.9245505563130241
 -3.9009339504051592 -1.7278331146257004 10.0036728194695854
 -0.3958642423999772 -3.2124497071912623  0.3789900563144082
 -5.8022926297019328  0.2864581013168061  0.8572458000533651
 -3.3787342558955307  0.7973024326328451  2.1302296779708252
 -2.4388731726992847 -2.4233281277616925  1.6079528165313328
 -0.4371998379603597 -0.4084566566363002  3.9447872691351593
 -2.3940142757226299 -7.1236475095105467  0.6475458430144611
  0.3082395616023684 -3.2073866419375090  3.2859703306661081
 -1.7340325939775110 -4.7551939110661632  1.8830002003438437
 -4.7342955443452910 -6.8218843585736995  0.0368670742704199
 -8.6095714380892563 -5.6878675917479926  2.8440232978351569
 -7.1220820924560559 -5.0602274548590964  0.3965717020527331
 -7.0561372392882848 -8.0699102174151935  3.2280895762401096
 -0.2433308812750914  1.3542954762033186  5.7991946379378598
 -4.4517538386208919 -1.4640677475305486  3.1913340975936531
 -7.2463868079516107 -1.1418685168912410  2.3454459989201495
 -2.4817761287400142  0.4831154652769272  4.9968021177438580
 -5.6449056900016563 -3.6300988116997415  2.5170756595964661
 -4.1515774048559635 -5.8310826428971820  2.1259895030667910
  1.4744981504704844 -4.9693781808193576  4.8378829006500279
  0.3565136676194814 -2.6663380253461724  6.0390278966280757
 -1.7842086514179918 -7.1384048129323272  3.4815324412331816
 -1.0462474122611045 -4.7107844821928246  4.7468719696356327
 -3.7881838813254465 -3.5069763104224942  4.3700089326761749
  3.1431161281674460  2.7797393825851109  9.4562505796630614
 -8.8513881281674536 -8.0984893825851216  1.3841084203369269
 -1.9200881186745564 -1.8117736895775047  6.4703500673238175
 -4.6620245877389044 -0.6079655178071788  6.0934870303643640
 -6.0647856676194918 -2.6524119746538419  4.8013311033719086
 -3.9240633485820178  1.8196548129323236  7.3588265587668165
 -7.1827701504704926 -0.3493718191806456  6.0024760993499777
 -1.5566945951440354  0.5123326428971863  8.7143694969331964
 -0.0633663099983312 -1.6886511883002593  8.3232833404035169
 -3.2264958712599960 -5.8018654652769257  5.8435568822561414
  1.5381148079515998 -4.1768814831087626  8.4949130010798513
 -1.2565181613791183 -3.8546822524694440  7.6490249024063495
 -5.4649411187249193 -6.6730454762033116  5.0411643620621396
  1.3478652392882806  2.7511602174151872  7.6122694237598889
  1.4138100924560419 -0.2585225451409080 10.4437872979472708
  2.9012994380892585  0.3691175917479912  7.9963357021648456
 -0.9739764556546903  1.5031343585736996 10.8034919257295581
 -3.9742394060224857 -0.5635560889338400  8.9573587996561539
 -6.0165115616023792 -2.1113633580624942  7.5543886693338926
 -3.3142577242773661  1.8048975095105295 10.1928131569855420
 -5.2710721620396495 -4.9102933433637022  6.8955717308648454
 -3.2693988273007268 -2.8954218722383214  9.2324061834686777
 -2.3295377441044907 -6.1160524326328387  8.7101293220291751
  0.0940206297019314 -5.6052081013168049  9.9831131999466365
 -5.3124077576000301 -2.1063002928087351 10.4613689436855921
