V  P  O  Ca
1.0
       21.8181991577         0.0000000000         0.0000000000
      -20.4875102808         7.5030651515         0.0000000000
       -0.3326650542        -1.8757684884        10.7415522511
    Ca   V     P   O   
    15   36    4  100   
Direct
     0.159394816         0.277468115         0.869512558
     0.159394816         0.777468085         0.869512558
     0.659394801         0.277468115         0.869512558
     0.275396466         0.340624422         0.236159250
     0.275396466         0.840624452         0.236159250
     0.775396466         0.340624422         0.236159250
     0.775396466         0.840624452         0.236159250
     0.222535670         0.157291219         0.763859332
     0.222535670         0.657291234         0.763859332
     0.722535670         0.157291219         0.763859332
     0.722535670         0.657291234         0.763859332
     0.342691988         0.224619910         0.130474016
     0.342691988         0.724619925         0.130474016
     0.842692018         0.224619910         0.130474016
     0.842692018         0.724619925         0.130474016
     0.000008047         0.999972403         0.999961615
     0.000008047         0.499972403         0.999961615
     0.500008047         0.999972403         0.999961615
     0.500008047         0.499972403         0.999961615
     0.057535350         0.387189597         0.887082040
     0.057535350         0.887189627         0.887082040
     0.557535350         0.387189597         0.887082040
     0.557535350         0.887189627         0.887082040
     0.436503887         0.325099796         0.537507296
     0.436503887         0.825099826         0.537507296
     0.936503887         0.325099796         0.537507296
     0.936503887         0.825099826         0.537507296
     0.332280099         0.063458160         0.777129352
     0.332280099         0.563458145         0.777129352
     0.832280099         0.063458160         0.777129352
     0.832280099         0.563458145         0.777129352
     0.112817571         0.056379784         0.340775400
     0.112817571         0.556379795         0.340775400
     0.612817585         0.056379784         0.340775400
     0.612817585         0.556379795         0.340775400
     0.385984540         0.442419320         0.659225941
     0.385984540         0.942419291         0.659225941
     0.885984540         0.442419320         0.659225941
     0.885984540         0.942419291         0.659225941
     0.174891412         0.443690866         0.222874776
     0.174891412         0.943690896         0.222874776
     0.674891412         0.443690866         0.222874776
     0.674891412         0.943690896         0.222874776
     0.056315258         0.167740449         0.462402463
     0.056315258         0.667740464         0.462402463
     0.556315243         0.167740449         0.462402463
     0.556315243         0.667740464         0.462402463
     0.443621337         0.114021085         0.112903252
     0.443621337         0.614021063         0.112903252
     0.943621337         0.114021085         0.112903252
     0.943621337         0.614021063         0.112903252
     0.374948561         0.124957159         0.500013053
     0.374948561         0.624957144         0.500013053
     0.874948561         0.124957159         0.500013053
     0.874948561         0.624957144         0.500013053
     0.249997094         0.250002682         0.000002391
     0.249997094         0.750002682         0.000002391
     0.749997079         0.250002682         0.000002391
     0.749997079         0.750002682         0.000002391
     0.015099705         0.435449809         0.904394627
     0.015099705         0.935449839         0.904394627
     0.515099704         0.435449809         0.904394627
     0.515099704         0.935449839         0.904394627
     0.416374534         0.393884212         0.626323223
     0.416374534         0.893884182         0.626323223
     0.916374564         0.393884212         0.626323223
     0.916374564         0.893884182         0.626323223
     0.302999049         0.127420411         0.858447015
     0.302999049         0.627420425         0.858447015
     0.802999020         0.127420411         0.858447015
     0.802999020         0.627420425         0.858447015
     0.492661268         0.357411653         0.690457463
     0.492661268         0.857411623         0.690457463
     0.992661238         0.357411653         0.690457463
     0.992661238         0.857411623         0.690457463
     0.396789402         0.083626084         0.955019534
     0.396789402         0.583626091         0.955019534
     0.896789432         0.083626084         0.955019534
     0.896789432         0.583626091         0.955019534
     0.081123300         0.326355040         0.810067832
     0.081123300         0.826355040         0.810067832
     0.581123292         0.326355040         0.810067832
     0.581123292         0.826355040         0.810067832
     0.173661351         0.078685537         0.509562016
     0.173661351         0.578685522         0.509562016
     0.673661351         0.078685537         0.509562016
     0.673661351         0.578685522         0.509562016
     0.372564614         0.301793486         0.351138413
     0.372564614         0.801793456         0.351138413
     0.872564614         0.301793486         0.351138413
     0.872564614         0.801793456         0.351138413
     0.282121480         0.050237723         0.614512324
     0.282121480         0.550237715         0.614512324
     0.782121480         0.050237723         0.614512324
     0.782121480         0.550237715         0.614512324
     0.064539835         0.016735680         0.159301460
     0.064539835         0.516735673         0.159301460
     0.564539850         0.016735680         0.159301460
     0.564539850         0.516735673         0.159301460
     0.449834853         0.257098109         0.463809997
     0.449834853         0.757098079         0.463809997
     0.949834824         0.257098109         0.463809997
     0.949834824         0.757098079         0.463809997
     0.352568239         0.007377438         0.729543746
     0.352568239         0.507377446         0.729543746
     0.852568269         0.007377438         0.729543746
     0.852568269         0.507377446         0.729543746
     0.142592862         0.487796932         0.270418018
     0.142592862         0.987796903         0.270418018
     0.642592847         0.487796932         0.270418018
     0.642592847         0.987796903         0.270418018
     0.025156679         0.217895761         0.536171854
     0.025156679         0.717895746         0.536171854
     0.525156677         0.217895761         0.536171854
     0.525156677         0.717895746         0.536171854
     0.437094241         0.484911352         0.840718508
     0.437094241         0.984911323         0.840718508
     0.937094212         0.484911352         0.840718508
     0.937094212         0.984911323         0.840718508
     0.242932305         0.474836528         0.385478854
     0.242932305         0.974836528         0.385478854
     0.742932320         0.474836528         0.385478854
     0.742932320         0.974836528         0.385478854
     0.126223028         0.197003290         0.648836970
     0.126223028         0.697003305         0.648836970
     0.626223028         0.197003290         0.648836970
     0.626223028         0.697003305         0.648836970
     0.323900640         0.418867379         0.490463763
     0.323900640         0.918867350         0.490463763
     0.823900640         0.418867379         0.490463763
     0.823900640         0.918867350         0.490463763
     0.421317726         0.176081493         0.189924002
     0.421317726         0.676081479         0.189924002
     0.921317697         0.176081493         0.189924002
     0.921317697         0.676081479         0.189924002
     0.106133297         0.419277132         0.045091517
     0.106133297         0.919277132         0.045091517
     0.606133282         0.419277132         0.045091517
     0.606133282         0.919277132         0.045091517
     0.012179917         0.147405237         0.309606761
     0.012179917         0.647405267         0.309606761
     0.512179911         0.147405237         0.309606761
     0.512179911         0.647405267         0.309606761
     0.198208302         0.373773098         0.141538292
     0.198208302         0.873773098         0.141538292
     0.698208332         0.373773098         0.141538292
     0.698208332         0.873773098         0.141538292
     0.080738708         0.103230596         0.373680562
     0.080738708         0.603230596         0.373680562
     0.580738723         0.103230596         0.373680562
     0.580738723         0.603230596         0.373680562
     0.483263165         0.062910430         0.095610596
     0.483263165         0.562910438         0.095610596
     0.983263135         0.062910430         0.095610596
     0.983263135         0.562910438         0.095610596
