Ca1 V5 O10
1.0
       11.2260618210         0.0000000000         0.0000000000
       -4.9195815965        10.3093404770         0.0000000000
       -5.1211089379        -0.6100627998        13.3007974065
   Ca    V    O
    7   40   80
Direct
     0.278659493         0.490935504         0.634384513
     0.278659493         0.490935504         0.134384498
     0.278659493         0.990935504         0.134384498
     0.278659493         0.990935504         0.634384513
     0.778659463         0.490935504         0.134384498
     0.778659463         0.990935504         0.134384498
     0.778659463         0.990935504         0.634384513
     0.490458488         0.002370000         0.002941500
     0.490458488         0.002370000         0.502941489
     0.490458488         0.502370000         0.002941500
     0.490458488         0.502370000         0.502941489
     0.990458488         0.002370000         0.002941500
     0.990458488         0.002370000         0.502941489
     0.990458488         0.502370000         0.002941500
     0.990458488         0.502370000         0.502941489
     0.099446997         0.243175998         0.200470507
     0.099446997         0.243175998         0.700470507
     0.099446997         0.743175983         0.200470507
     0.099446997         0.743175983         0.700470507
     0.599447012         0.243175998         0.200470507
     0.599447012         0.243175998         0.700470507
     0.599447012         0.743175983         0.200470507
     0.599447012         0.743175983         0.700470507
     0.322143495         0.256803513         0.080672003
     0.322143495         0.256803513         0.580672026
     0.322143495         0.756803513         0.080672003
     0.322143495         0.756803513         0.580672026
     0.822143495         0.256803513         0.080672003
     0.822143495         0.256803513         0.580672026
     0.822143495         0.756803513         0.080672003
     0.822143495         0.756803513         0.580672026
     0.208427995         0.001395000         0.385883987
     0.208427995         0.001395000         0.885883987
     0.208427995         0.501394987         0.385883987
     0.208427995         0.501394987         0.885883987
     0.708428025         0.001395000         0.385883987
     0.708428025         0.001395000         0.885883987
     0.708428025         0.501394987         0.385883987
     0.708428025         0.501394987         0.885883987
     0.387194514         0.251233995         0.314810991
     0.387194514         0.251233995         0.814810991
     0.387194514         0.751233995         0.314810991
     0.387194514         0.751233995         0.814810991
     0.887194514         0.251233995         0.314810991
     0.887194514         0.251233995         0.814810991
     0.887194514         0.751233995         0.314810991
     0.887194514         0.751233995         0.814810991
     0.206489995         0.106298000         0.005629000
     0.206489995         0.106298000         0.505629003
     0.206489995         0.606297970         0.005629000
     0.206489995         0.606297970         0.505629003
     0.706489980         0.106298000         0.005629000
     0.706489980         0.106298000         0.505629003
     0.706489980         0.606297970         0.005629000
     0.706489980         0.606297970         0.505629003
     0.412274987         0.180539504         0.210503995
     0.412274987         0.180539504         0.710503995
     0.412274987         0.680539489         0.210503995
     0.412274987         0.680539489         0.710503995
     0.912274957         0.180539504         0.210503995
     0.912274957         0.180539504         0.710503995
     0.912274957         0.680539489         0.210503995
     0.912274957         0.680539489         0.710503995
     0.007364500         0.343079507         0.083379500
     0.007364500         0.343079507         0.583379507
     0.007364500         0.843079507         0.083379500
     0.007364500         0.843079507         0.583379507
     0.507364511         0.343079507         0.083379500
     0.507364511         0.343079507         0.583379507
     0.507364511         0.843079507         0.083379500
     0.507364511         0.843079507         0.583379507
     0.295421004         0.397520512         0.493613005
     0.295421004         0.397520512         0.993613005
     0.295421004         0.897520542         0.493613005
     0.295421004         0.897520542         0.993613005
     0.795421004         0.397520512         0.493613005
     0.795421004         0.397520512         0.993613005
     0.795421004         0.897520542         0.493613005
     0.795421004         0.897520542         0.993613005
     0.038407501         0.098047502         0.107045002
     0.038407501         0.098047502         0.607044995
     0.038407501         0.598047495         0.107045002
     0.038407501         0.598047495         0.607044995
     0.538407505         0.098047502         0.107045002
     0.538407505         0.098047502         0.607044995
     0.538407505         0.598047495         0.107045002
     0.538407505         0.598047495         0.607044995
     0.201032504         0.159480497         0.312862009
     0.201032504         0.159480497         0.812862039
     0.201032504         0.659480512         0.312862009
     0.201032504         0.659480512         0.812862039
     0.701032519         0.159480497         0.312862009
     0.701032519         0.159480497         0.812862039
     0.701032519         0.659480512         0.312862009
     0.701032519         0.659480512         0.812862039
     0.289745003         0.315158486         0.185994998
     0.289745003         0.315158486         0.685994983
     0.289745003         0.815158486         0.185994998
     0.289745003         0.815158486         0.685994983
     0.789744973         0.315158486         0.185994998
     0.789744973         0.315158486         0.685994983
     0.789744973         0.815158486         0.185994998
     0.789744973         0.815158486         0.685994983
     0.498266488         0.401159495         0.389999986
     0.498266488         0.401159495         0.889999986
     0.498266488         0.901159525         0.389999986
     0.498266488         0.901159525         0.889999986
     0.998266459         0.401159495         0.389999986
     0.998266459         0.401159495         0.889999986
     0.998266459         0.901159525         0.389999986
     0.998266459         0.901159525         0.889999986
     0.405254990         0.106569499         0.403347999
     0.405254990         0.106569499         0.903347969
     0.405254990         0.606569529         0.403347999
     0.405254990         0.606569529         0.903347969
     0.905254960         0.106569499         0.403347999
     0.905254960         0.106569499         0.903347969
     0.905254960         0.606569529         0.403347999
     0.905254960         0.606569529         0.903347969
     0.159412503         0.396232486         0.288462996
     0.159412503         0.396232486         0.788462996
     0.159412503         0.896232486         0.288462996
     0.159412503         0.896232486         0.788462996
     0.659412503         0.396232486         0.288462996
     0.659412503         0.396232486         0.788462996
     0.659412503         0.896232486         0.288462996
     0.659412503         0.896232486         0.788462996
