Ca V  Cr P  O 
1.0
        7.3536190987         0.0000000000         0.0000000000
        0.0108857769         8.4962326885         0.0000000000
       -2.4307414781        -0.0814952963        14.2485481623
   Ca    V   Cr    P    O
    5    3    3   12   42
Direct
     0.319163531         0.408082277         0.583432853
     0.341078967         0.900032222         0.080276199
     0.999320447         0.402169496         0.256610513
     0.675152838         0.909097970         0.415233433
     0.005188324         0.912021935         0.744157434
     0.346851140         0.486843824         0.073425852
     0.988174319         0.990755141         0.258367419
     0.006623562         0.499143630         0.739191592
     0.667288184         0.487310082         0.404145688
     0.329204202         0.992524743         0.595805705
     0.673309982         0.986166656         0.931018651
     0.633726954         0.188660726         0.126209944
     0.966359735         0.751582086         0.075258531
     0.372828543         0.261275500         0.260444880
     0.705570817         0.685948968         0.208822697
     0.294189781         0.775655985         0.408290803
     0.024981441         0.690947831         0.536689997
     0.973273098         0.188527703         0.462751150
     0.703531146         0.278144270         0.591552854
     0.294413567         0.200745761         0.790967822
     0.629292548         0.771982014         0.741188288
     0.035051849         0.270556271         0.925728023
     0.364179820         0.695015311         0.872228622
     0.183741316         0.289336383         0.011115538
     0.141861543         0.664387465         0.061992534
     0.030869992         0.912850201         0.119331852
     0.607436299         0.044701587         0.061057322
     0.598374188         0.345632285         0.074917294
     0.527037621         0.685107708         0.137292325
     0.300268382         0.415618867         0.211685002
     0.462904096         0.153516844         0.183685586
     0.883267522         0.648512781         0.156508654
     0.206176147         0.166604206         0.277916908
     0.146907449         0.797910452         0.323337644
     0.814986646         0.191038579         0.195745811
     0.736395657         0.844792426         0.259662718
     0.729186356         0.543261111         0.274516195
     0.522803843         0.282715201         0.345833153
     0.464195162         0.687777936         0.388289273
     0.205873415         0.665376961         0.483145654
     0.369506836         0.927153170         0.462775469
     0.150547802         0.180796996         0.535766959
     0.938396275         0.046062771         0.397806108
     0.959094048         0.345847636         0.411481649
     0.043749366         0.847710013         0.589884341
     0.056371372         0.547494054         0.600219190
     0.848546028         0.685546935         0.463494062
     0.626953483         0.428267270         0.537115216
     0.793869913         0.166136265         0.517340362
     0.534617662         0.189439744         0.611564457
     0.482132047         0.802335620         0.656058192
     0.269778520         0.054186258         0.726697266
     0.252402514         0.354611039         0.736173809
     0.183030471         0.697507083         0.802369297
     0.850050688         0.303036779         0.676676452
     0.792963028         0.677083433         0.719806790
     0.122331791         0.162682220         0.847978830
     0.535287023         0.662944973         0.813446760
     0.708782613         0.921713412         0.795219243
     0.474014491         0.208931744         0.859356105
     0.399041086         0.851705909         0.925107956
     0.393046975         0.551254630         0.935443699
     0.962593257         0.424861580         0.876284182
     0.865129709         0.178894699         0.943160594
     0.815196931         0.754081905         0.990594566
