Ca Sc V  O                              
   1.00000000000000     
     9.9044488794448000   -0.0302812543111880   -0.0133194886228906
     2.1478921273319802    9.5500744329927034   -0.0104338961586158
    -5.9827735015337264   -4.7510045718186049   15.5385134058460341
   Ca   Sc   V    O 
     7    16    16    64
Direct
     0.4909926665308858    0.1152509578998603    0.4821465497341205
     0.4908743448963782    0.1180197465862900    0.9829174063147974
     0.4947415906396326    0.6138838995464746    0.9834237940717052
     0.9913719832071297    0.1155501620126581    0.4827645882188057
     0.9886141656608215    0.1184346429664550    0.9834476628287632
     0.9917954182249382    0.6162145411813041    0.4838114504486667
     0.9918653991202513    0.6136900860403136    0.9829136442327123
     0.3360289249849287    0.4609349293695679    0.1721937273847421
     0.3357067197929942    0.4608065995330952    0.6695657196460331
     0.3350077723753206    0.9598435131174345    0.1700872279520323
     0.3326654346512652    0.9660616448144418    0.6736720785286792
     0.8363165908613958    0.4612299889873615    0.1728326556688270
     0.8412553343072966    0.4572545372519783    0.6736130540316461
     0.8350244208277795    0.9598843642777166    0.1701568268942784
     0.8341242883429840    0.9585824564250703    0.6696206716373636
     0.1550747229936663    0.0299473864337571    0.3101744142027507
     0.1544487905932712    0.0300462578257759    0.8124403886990118
     0.1565977052571083    0.5387464301837063    0.3148338522061533
     0.1574842630196047    0.5324032419945565    0.8123970538359259
     0.6544222082691354    0.0300120731563321    0.3101740394348540
     0.6545364418546296    0.0293514699327049    0.8108539882795462
     0.6574848672583860    0.5259158634083171    0.3149262738983681
     0.6558557026277426    0.5314805770823786    0.8107751839651477
     0.0912735369192457    0.2157725650039732    0.1809716740356756
     0.0907362214632904    0.2154333776159682    0.6811434386395357
     0.0910968160666033    0.7158914616776993    0.1806436846403877
     0.0905689928958097    0.7153678161113276    0.6809203348294502
     0.5893880626522974    0.2143965086423287    0.1806185118295663
     0.5899495238314098    0.2146922950126436    0.6796764254491929
     0.5896090449399741    0.7148566071786643    0.1809896676105766
     0.5852150023853105    0.7097174915935358    0.6698485952675957
     0.4005735695392960    0.2881200663408174    0.3161735133304346
     0.4066449280715156    0.2825172031885998    0.8121993694365867
     0.4147619330520911    0.7777511358557364    0.3161074345035339
     0.4073146327474513    0.7829624781651034    0.8126740958758975
     0.9074956598008111    0.2805384785991996    0.3122345198156357
     0.9051005499517665    0.2795955840352362    0.8121877523280957
     0.9039920360126650    0.7813735994417097    0.3122406597999364
     0.9047811575999456    0.7796586696599795    0.8126292641631265
     0.2281793745595216    0.3536094315555754    0.2160562022316375
     0.2255506926951230    0.3513823493446480    0.7130650062659569
     0.2181922572826664    0.8525240636114881    0.2083295451589370
     0.2247558474030756    0.8519649459642920    0.7132608662779042
     0.7250925368550850    0.3534587353825565    0.2152077815894339
     0.7249852949792461    0.3504387911662522    0.7124886133529792
     0.7248560672040285    0.8486663895364743    0.2118782431501550
     0.7201012990439207    0.8490885645523825    0.7104240477688006
     0.4898817119427812    0.1054738076015819    0.2083347905699999
     0.4875303335853975    0.1119141109632833    0.7125685979785815
     0.4874388138955763    0.6122394011740482    0.2160733763926000
     0.4903274401577006    0.6111180092980298    0.7102428131637147
     0.9867974827557979    0.1128164911199626    0.2118494784208926
     0.9875590570459036    0.1115073377275120    0.7130992760181518
     0.9896343647535309    0.6114826137460833    0.2151989027199526
     0.9884666940247587    0.6110925504941800    0.7131998436765982
     0.0492819220055510    0.1925145428022136    0.3890203825858296
     0.0477332133828694    0.1943214780706449    0.8901111840785915
     0.0452759352354203    0.6975658885705061    0.3905687525601560
     0.0490481085056386    0.6949425312295018    0.8903551911679173
     0.5444591772229757    0.1917976577308147    0.3858308956779857
     0.5485068208578939    0.1951711090381764    0.8891597060750528
     0.5547530782558928    0.7105530978501710    0.3881281498673994
     0.5477547596133790    0.6941905760951917    0.8888665574310203
     0.3321413533162096    0.4274704349322717    0.3881318000947618
     0.3414276289420263    0.4457895572492798    0.8900491339240224
     0.3401288172775125    0.9437610255030169    0.3858480713724058
     0.3401954899788968    0.9451838397317968    0.8904256052301295
     0.8441252010495315    0.4427408535447399    0.3905426366731872
     0.8396938500337267    0.4440278119326912    0.8890883532922971
     0.8385734779752853    0.9462368231267829    0.3890137861577255
     0.8402471092250380    0.9446076948515999    0.8889193850350082
     0.2706674541059861    0.1424016430580002    0.2752274232975356
     0.2699890709388724    0.1451699273044613    0.7776992142286320
     0.2707737534236354    0.6487252814948229    0.2787677430678990
     0.2711987564432419    0.6452572916467771    0.7764149843083505
     0.7709227518771431    0.1435324532391150    0.2763568516398673
     0.7699005566996734    0.1436334888268960    0.7766794681590571
     0.7685387876552726    0.6459331629301701    0.2788631941240769
     0.7734044072858380    0.6435917541399092    0.7786144785870577
     0.0096151980720411    0.3827047967133700    0.2788730950785809
     0.0074297442756535    0.3824290577290707    0.7776920037371111
     0.0048799299814862    0.8825672064374940    0.2764175233575824
     0.0049614577836425    0.8811320723586250    0.7765007257201216
     0.5072793145786518    0.3798344883569562    0.2788213795313666
     0.5064473646455568    0.3830412992159622    0.7767036146910703
     0.5039895632567427    0.8826483066529558    0.2752717468031909
     0.5048388046451300    0.8852271008231475    0.7789220910450971
     0.4398649973605900    0.2872504910953293    0.0998757907644230
     0.4369796288261272    0.2823141297061819    0.5984887780700187
     0.4375143963576898    0.7803254393416962    0.0988117946582256
     0.4432333870059427    0.7882887322043234    0.6040737027040811
     0.9394695842531752    0.2877392763024126    0.1002081990258630
     0.9383561092869180    0.2838458022588981    0.5989981167544435
     0.9361032671251059    0.7812001973107918    0.0987203229035896
     0.9398064511551198    0.7855523933000306    0.5992473771022039
     0.1615171012884025    0.0680578756876758    0.0988004852894569
     0.1612283237131765    0.0646728066946127    0.5990037801572450
     0.1601583985983399    0.5622358579470421    0.0998871188530520
     0.1598639926245673    0.5634616370841624    0.5992159776481785
     0.6627794577143863    0.0670521912320104    0.0986777702152278
     0.6619377673247234    0.0656382614574594    0.5984716777270980
     0.6608821487003159    0.5620809323416855    0.1002010312785313
     0.6616729647078552    0.5656181244601611    0.6039141068418405
 
  0.00000000E+00  0.00000000E+00  0.00000000E+00
  0.00000000E+00  0.00000000E+00  0.00000000E+00
  0.00000000E+00  0.00000000E+00  0.00000000E+00
  0.00000000E+00  0.00000000E+00  0.00000000E+00
  0.00000000E+00  0.00000000E+00  0.00000000E+00
  0.00000000E+00  0.00000000E+00  0.00000000E+00
  0.00000000E+00  0.00000000E+00  0.00000000E+00
  0.00000000E+00  0.00000000E+00  0.00000000E+00
  0.00000000E+00  0.00000000E+00  0.00000000E+00
  0.00000000E+00  0.00000000E+00  0.00000000E+00
  0.00000000E+00  0.00000000E+00  0.00000000E+00
  0.00000000E+00  0.00000000E+00  0.00000000E+00
  0.00000000E+00  0.00000000E+00  0.00000000E+00
  0.00000000E+00  0.00000000E+00  0.00000000E+00
  0.00000000E+00  0.00000000E+00  0.00000000E+00
  0.00000000E+00  0.00000000E+00  0.00000000E+00
  0.00000000E+00  0.00000000E+00  0.00000000E+00
  0.00000000E+00  0.00000000E+00  0.00000000E+00
  0.00000000E+00  0.00000000E+00  0.00000000E+00
  0.00000000E+00  0.00000000E+00  0.00000000E+00
  0.00000000E+00  0.00000000E+00  0.00000000E+00
  0.00000000E+00  0.00000000E+00  0.00000000E+00
  0.00000000E+00  0.00000000E+00  0.00000000E+00
  0.00000000E+00  0.00000000E+00  0.00000000E+00
  0.00000000E+00  0.00000000E+00  0.00000000E+00
  0.00000000E+00  0.00000000E+00  0.00000000E+00
  0.00000000E+00  0.00000000E+00  0.00000000E+00
  0.00000000E+00  0.00000000E+00  0.00000000E+00
  0.00000000E+00  0.00000000E+00  0.00000000E+00
  0.00000000E+00  0.00000000E+00  0.00000000E+00
  0.00000000E+00  0.00000000E+00  0.00000000E+00
  0.00000000E+00  0.00000000E+00  0.00000000E+00
  0.00000000E+00  0.00000000E+00  0.00000000E+00
  0.00000000E+00  0.00000000E+00  0.00000000E+00
  0.00000000E+00  0.00000000E+00  0.00000000E+00
  0.00000000E+00  0.00000000E+00  0.00000000E+00
  0.00000000E+00  0.00000000E+00  0.00000000E+00
  0.00000000E+00  0.00000000E+00  0.00000000E+00
  0.00000000E+00  0.00000000E+00  0.00000000E+00
  0.00000000E+00  0.00000000E+00  0.00000000E+00
  0.00000000E+00  0.00000000E+00  0.00000000E+00
  0.00000000E+00  0.00000000E+00  0.00000000E+00
  0.00000000E+00  0.00000000E+00  0.00000000E+00
  0.00000000E+00  0.00000000E+00  0.00000000E+00
  0.00000000E+00  0.00000000E+00  0.00000000E+00
  0.00000000E+00  0.00000000E+00  0.00000000E+00
  0.00000000E+00  0.00000000E+00  0.00000000E+00
  0.00000000E+00  0.00000000E+00  0.00000000E+00
  0.00000000E+00  0.00000000E+00  0.00000000E+00
  0.00000000E+00  0.00000000E+00  0.00000000E+00
  0.00000000E+00  0.00000000E+00  0.00000000E+00
  0.00000000E+00  0.00000000E+00  0.00000000E+00
  0.00000000E+00  0.00000000E+00  0.00000000E+00
  0.00000000E+00  0.00000000E+00  0.00000000E+00
  0.00000000E+00  0.00000000E+00  0.00000000E+00
  0.00000000E+00  0.00000000E+00  0.00000000E+00
  0.00000000E+00  0.00000000E+00  0.00000000E+00
  0.00000000E+00  0.00000000E+00  0.00000000E+00
  0.00000000E+00  0.00000000E+00  0.00000000E+00
  0.00000000E+00  0.00000000E+00  0.00000000E+00
  0.00000000E+00  0.00000000E+00  0.00000000E+00
  0.00000000E+00  0.00000000E+00  0.00000000E+00
  0.00000000E+00  0.00000000E+00  0.00000000E+00
  0.00000000E+00  0.00000000E+00  0.00000000E+00
  0.00000000E+00  0.00000000E+00  0.00000000E+00
  0.00000000E+00  0.00000000E+00  0.00000000E+00
  0.00000000E+00  0.00000000E+00  0.00000000E+00
  0.00000000E+00  0.00000000E+00  0.00000000E+00
  0.00000000E+00  0.00000000E+00  0.00000000E+00
  0.00000000E+00  0.00000000E+00  0.00000000E+00
  0.00000000E+00  0.00000000E+00  0.00000000E+00
  0.00000000E+00  0.00000000E+00  0.00000000E+00
  0.00000000E+00  0.00000000E+00  0.00000000E+00
  0.00000000E+00  0.00000000E+00  0.00000000E+00
  0.00000000E+00  0.00000000E+00  0.00000000E+00
  0.00000000E+00  0.00000000E+00  0.00000000E+00
  0.00000000E+00  0.00000000E+00  0.00000000E+00
  0.00000000E+00  0.00000000E+00  0.00000000E+00
  0.00000000E+00  0.00000000E+00  0.00000000E+00
  0.00000000E+00  0.00000000E+00  0.00000000E+00
  0.00000000E+00  0.00000000E+00  0.00000000E+00
  0.00000000E+00  0.00000000E+00  0.00000000E+00
  0.00000000E+00  0.00000000E+00  0.00000000E+00
  0.00000000E+00  0.00000000E+00  0.00000000E+00
  0.00000000E+00  0.00000000E+00  0.00000000E+00
  0.00000000E+00  0.00000000E+00  0.00000000E+00
  0.00000000E+00  0.00000000E+00  0.00000000E+00
  0.00000000E+00  0.00000000E+00  0.00000000E+00
  0.00000000E+00  0.00000000E+00  0.00000000E+00
  0.00000000E+00  0.00000000E+00  0.00000000E+00
  0.00000000E+00  0.00000000E+00  0.00000000E+00
  0.00000000E+00  0.00000000E+00  0.00000000E+00
  0.00000000E+00  0.00000000E+00  0.00000000E+00
  0.00000000E+00  0.00000000E+00  0.00000000E+00
  0.00000000E+00  0.00000000E+00  0.00000000E+00
  0.00000000E+00  0.00000000E+00  0.00000000E+00
  0.00000000E+00  0.00000000E+00  0.00000000E+00
  0.00000000E+00  0.00000000E+00  0.00000000E+00
  0.00000000E+00  0.00000000E+00  0.00000000E+00
  0.00000000E+00  0.00000000E+00  0.00000000E+00
  0.00000000E+00  0.00000000E+00  0.00000000E+00
  0.00000000E+00  0.00000000E+00  0.00000000E+00
  0.00000000E+00  0.00000000E+00  0.00000000E+00
