Ca V  P  O 
1.0
       13.4620246887         0.0000000000         0.0000000000
       -6.4373571009        18.2374625486         0.0000000000
        1.2173927642        -4.6872558740         9.9460271009
   Ca    V    P    O
   15   16   32  112
Direct
     0.502336204         0.393721789         0.504649639
     0.068949535         0.060164776         0.091373302
     0.068949535         0.560164750         0.091373302
     0.568949521         0.060164776         0.091373302
     0.568949521         0.560164750         0.091373302
     0.273511648         0.254621387         0.973664105
     0.273511648         0.754621387         0.973664105
     0.773511648         0.254621387         0.973664105
     0.773511648         0.754621387         0.973664105
     0.502336204         0.893721819         0.504649639
     0.002336204         0.393721789         0.504649639
     0.002336204         0.893721819         0.504649639
     0.353301644         0.039293643         0.591745317
     0.353301644         0.539293647         0.591745317
     0.853301644         0.039293643         0.591745317
     0.348071963         0.049681120         0.229365692
     0.348071963         0.549681127         0.229365692
     0.848071933         0.049681120         0.229365692
     0.848071933         0.549681127         0.229365692
     0.320103139         0.243886232         0.249832556
     0.320103139         0.743886232         0.249832556
     0.820103168         0.243886232         0.249832556
     0.820103168         0.743886232         0.249832556
     0.163509652         0.247501835         0.731612325
     0.163509652         0.747501850         0.731612325
     0.663509667         0.247501835         0.731612325
     0.663509667         0.747501850         0.731612325
     0.149004996         0.443032354         0.782315254
     0.149004996         0.943032384         0.782315254
     0.649004996         0.443032354         0.782315254
     0.649004996         0.943032384         0.782315254
     0.060953859         0.225187734         0.297404289
     0.060953859         0.725187719         0.297404289
     0.560953856         0.225187734         0.297404289
     0.560953856         0.725187719         0.297404289
     0.451287240         0.409620732         0.214659110
     0.451287240         0.909620762         0.214659110
     0.951287270         0.409620732         0.214659110
     0.951287270         0.909620762         0.214659110
     0.141008735         0.399622530         0.051514767
     0.141008735         0.899622560         0.051514767
     0.641008735         0.399622530         0.051514767
     0.641008735         0.899622560         0.051514767
     0.215950951         0.347648770         0.534342110
     0.215950951         0.847648740         0.534342110
     0.715950966         0.347648770         0.534342110
     0.715950966         0.847648740         0.534342110
     0.054910757         0.086370558         0.802632153
     0.054910757         0.586370587         0.802632153
     0.554910779         0.086370558         0.802632153
     0.554910779         0.586370587         0.802632153
     0.430176318         0.273192048         0.688480496
     0.430176318         0.773192048         0.688480496
     0.930176318         0.273192048         0.688480496
     0.930176318         0.773192048         0.688480496
     0.278752089         0.151113167         0.459994912
     0.278752089         0.651113153         0.459994912
     0.778752089         0.151113167         0.459994912
     0.778752089         0.651113153         0.459994912
     0.363303542         0.092963569         0.950996518
     0.363303542         0.592963576         0.950996518
     0.863303542         0.092963569         0.950996518
     0.863303542         0.592963576         0.950996518
     0.192475006         0.427450418         0.562000453
     0.192475006         0.927450418         0.562000453
     0.692475021         0.427450418         0.562000453
     0.692475021         0.927450418         0.562000453
     0.477453202         0.134418204         0.902022779
     0.477453202         0.634418190         0.902022779
     0.977453232         0.134418204         0.902022779
     0.977453232         0.634418190         0.902022779
     0.319466263         0.163207173         0.033133455
     0.319466263         0.663207173         0.033133455
     0.819466233         0.163207173         0.033133455
     0.819466233         0.663207173         0.033133455
     0.170401365         0.324658304         0.954807281
     0.170401365         0.824658275         0.954807281
     0.670401335         0.324658304         0.954807281
     0.670401335         0.824658275         0.954807281
     0.491852611         0.273874491         0.297490269
     0.491852611         0.773874521         0.297490269
     0.991852641         0.273874491         0.297490269
     0.991852641         0.773874521         0.297490269
     0.275990695         0.144685224         0.314706177
     0.275990695         0.644685209         0.314706177
     0.775990725         0.144685224         0.314706177
     0.775990725         0.644685209         0.314706177
     0.347929776         0.338355392         0.182299286
     0.347929776         0.838355422         0.182299286
     0.847929776         0.338355392         0.182299286
     0.847929776         0.838355422         0.182299286
     0.181494281         0.160872445         0.536135375
     0.181494281         0.660872459         0.536135375
     0.681494296         0.160872445         0.536135375
     0.681494296         0.660872459         0.536135375
     0.379363954         0.230458647         0.534784436
     0.379363954         0.730458617         0.534784436
     0.879363954         0.230458647         0.534784436
     0.879363954         0.730458617         0.534784436
     0.384173632         0.053265098         0.034449000
     0.384173632         0.553265095         0.034449000
     0.884173632         0.053265098         0.034449000
     0.884173632         0.553265095         0.034449000
     0.300380737         0.034947809         0.816976786
     0.300380737         0.534947813         0.816976786
     0.800380707         0.034947809         0.816976786
     0.800380707         0.534947813         0.816976786
     0.150394842         0.154865429         0.798963368
     0.150394842         0.654865444         0.798963368
     0.650394857         0.154865429         0.798963368
     0.650394857         0.654865444         0.798963368
     0.989923000         0.446415514         0.359820127
     0.989923000         0.946415544         0.359820127
     0.489923000         0.446415514         0.359820127
     0.489923000         0.946415544         0.359820127
     0.082237482         0.041125014         0.871539235
     0.082237482         0.541125000         0.871539235
     0.582237482         0.041125014         0.871539235
     0.582237482         0.541125000         0.871539235
     0.123282187         0.447049141         0.978751123
     0.123282187         0.947049141         0.978751123
     0.623282194         0.447049141         0.978751123
     0.623282194         0.947049141         0.978751123
     0.998969555         0.140526399         0.286777735
     0.998969555         0.640526414         0.286777735
     0.498969555         0.140526399         0.286777735
     0.498969555         0.640526414         0.286777735
     0.994241714         0.223700285         0.698666215
     0.994241714         0.723700285         0.698666215
     0.494241714         0.223700285         0.698666215
     0.494241714         0.723700285         0.698666215
     0.116748728         0.274325103         0.447936952
     0.116748728         0.774325132         0.447936952
     0.616748750         0.274325103         0.447936952
     0.616748750         0.774325132         0.447936952
     0.316020101         0.341207534         0.457665861
     0.316020101         0.841207504         0.457665861
     0.816020131         0.341207534         0.457665861
     0.816020131         0.841207504         0.457665861
     0.444307148         0.472739786         0.169091552
     0.444307148         0.972739816         0.169091552
     0.944307148         0.472739786         0.169091552
     0.944307148         0.972739816         0.169091552
     0.149641290         0.216994867         0.196297675
     0.149641290         0.716994882         0.196297675
     0.649641275         0.216994867         0.196297675
     0.649641275         0.716994882         0.196297675
     0.497499406         0.028279549         0.665371358
     0.497499406         0.528279543         0.665371358
     0.997499406         0.028279549         0.665371358
     0.997499406         0.528279543         0.665371358
     0.213443711         0.455418140         0.175519451
     0.213443711         0.955418110         0.175519451
     0.713443696         0.455418140         0.175519451
     0.713443696         0.955418110         0.175519451
     0.214344218         0.344855398         0.670664489
     0.214344218         0.844855428         0.670664489
     0.714344203         0.344855398         0.670664489
     0.714344203         0.844855428         0.670664489
     0.335647494         0.272618860         0.780520201
     0.335647494         0.772618890         0.780520201
     0.835647464         0.272618860         0.780520201
     0.835647464         0.772618890         0.780520201
     0.028575428         0.364063025         0.108157754
     0.028575428         0.864063025         0.108157754
     0.528575420         0.364063025         0.108157754
     0.528575420         0.864063025         0.108157754
     0.495454818         0.357336074         0.695815086
     0.495454818         0.857336044         0.695815086
     0.995454788         0.357336074         0.695815086
     0.995454788         0.857336044         0.695815086
     0.311271757         0.077498496         0.443479955
     0.311271757         0.577498496         0.443479955
     0.811271787         0.077498496         0.443479955
     0.811271787         0.577498496         0.443479955
