Ca Mn V  P  O 
1.0
       10.0585584641         0.0000000000         0.0000000000
        2.3890594604         6.9392870055         0.0000000000
       -0.0123488186         0.0102192228        16.9912090990
   Ca   Mn    V    P    O
    7    2    6   16   56
Direct
     0.887061477         0.741308987         0.707794487
     0.115045696         0.261519223         0.950881541
     0.615045667         0.261519223         0.950881541
     0.117099725         0.265414715         0.455291718
     0.617099702         0.265414715         0.455291718
     0.380360246         0.732655048         0.200125471
     0.880360246         0.732655048         0.200125471
     0.389181465         0.741391480         0.993019342
     0.889181495         0.741391480         0.993019342
     0.109563656         0.268954813         0.248707086
     0.609563649         0.268954813         0.248707086
     0.111199200         0.268246591         0.743415177
     0.611199200         0.268246591         0.743415177
     0.390979737         0.733809233         0.498380244
     0.890979767         0.733809233         0.498380244
     0.191195220         0.496972442         0.095800377
     0.691195250         0.496972442         0.095800377
     0.195360914         0.504984558         0.596431315
     0.695360899         0.504984558         0.596431315
     0.107766367         0.896494031         0.386915386
     0.607766390         0.896494031         0.386915386
     0.107255384         0.890679002         0.878641725
     0.607255399         0.890679002         0.878641725
     0.391170025         0.104307584         0.136372447
     0.891170025         0.104307584         0.136372447
     0.394371092         0.108852483         0.632923722
     0.894371092         0.108852483         0.632923722
     0.307823360         0.491864622         0.843712449
     0.807823360         0.491864622         0.843712449
     0.306228846         0.503097236         0.348250061
     0.806228876         0.503097236         0.348250061
     0.017789168         0.167824969         0.149871603
     0.517789185         0.167824969         0.149871603
     0.023035986         0.170756027         0.642418265
     0.523036003         0.170756027         0.642418265
     0.078477971         0.084203847         0.340778768
     0.578477979         0.084203847         0.340778768
     0.083602272         0.074032545         0.830644131
     0.583602250         0.074032545         0.830644131
     0.092554547         0.532072604         0.024816040
     0.592554569         0.532072604         0.024816040
     0.097325176         0.543961823         0.525267482
     0.597325206         0.543961823         0.525267482
     0.117046036         0.520644665         0.674835980
     0.617046058         0.520644665         0.674835980
     0.114249200         0.514257014         0.175032333
     0.614249229         0.514257014         0.175032333
     0.203713953         0.388293266         0.348469526
     0.703713953         0.388293266         0.348469526
     0.201190084         0.383425087         0.843108296
     0.701190114         0.383425087         0.843108296
     0.312672973         0.078322157         0.211608708
     0.812672973         0.078322157         0.211608708
     0.318966329         0.086942330         0.709821701
     0.818966329         0.086942330         0.709821701
     0.279811829         0.267774940         0.080286771
     0.779811859         0.267774940         0.080286771
     0.281146228         0.275395423         0.578684509
     0.781146228         0.275395423         0.578684509
     0.218767613         0.731640160         0.331460059
     0.718767643         0.731640160         0.331460059
     0.224914074         0.723036826         0.827090561
     0.724914074         0.723036826         0.827090561
     0.186553672         0.919759035         0.462708652
     0.686553657         0.919759035         0.462708652
     0.177394405         0.917827368         0.956819177
     0.677394390         0.917827368         0.956819177
     0.299030572         0.618106127         0.597943783
     0.799030542         0.618106127         0.597943783
     0.292215168         0.613444567         0.095131353
     0.792215168         0.613444567         0.095131353
     0.383316338         0.486801058         0.427319556
     0.883316338         0.486801058         0.427319556
     0.384290993         0.470641226         0.922754765
     0.884290993         0.470641226         0.922754765
     0.404973298         0.455493838         0.772285402
     0.904973269         0.455493838         0.772285402
     0.404553294         0.465599209         0.277546376
     0.904553294         0.465599209         0.277546376
     0.420320749         0.918173134         0.088544957
     0.920320749         0.918173134         0.088544957
     0.420597970         0.921477854         0.587252736
     0.920597970         0.921477854         0.587252736
     0.480121642         0.834337533         0.399777919
     0.980121613         0.834337533         0.399777919
     0.479706973         0.825201273         0.886637986
     0.979707003         0.825201273         0.886637986
