Ca V  Fe P  O 
1.0
        8.1774415970         0.0000000000         0.0000000000
        0.0240348065         9.8059416905         0.0000000000
        0.0266696204        -0.5543152614        13.7788020454
   Ca    V   Fe    P    O
    3    4    4   16   56
Direct
     0.922873318         0.586325884         0.368655145
     0.922581375         0.826969445         0.868491590
     0.422532290         0.173814639         0.131987572
     0.490184993         0.825268865         0.862203956
     0.493300170         0.579046369         0.366212010
     0.507271647         0.319843858         0.869502366
     0.505257010         0.066943973         0.365800530
     0.010434698         0.932362139         0.631156802
     0.010267043         0.678320706         0.128945544
     0.991196275         0.418929696         0.633867145
     0.987861931         0.172895715         0.136761144
     0.184637174         0.931783915         0.247261465
     0.759241939         0.914696455         0.056967285
     0.263252944         0.837466419         0.443485439
     0.684734464         0.815529943         0.248261482
     0.199821353         0.673809648         0.746560633
     0.768843055         0.669187546         0.556937695
     0.271742433         0.584814906         0.945330501
     0.699767709         0.572519064         0.749365330
     0.198239356         0.427542537         0.249089643
     0.772786200         0.414978564         0.054108687
     0.265398681         0.332332820         0.443272591
     0.700132787         0.325873137         0.252459615
     0.184493199         0.183630794         0.752008080
     0.764485419         0.163594097         0.556552231
     0.257707417         0.084927954         0.944030285
     0.686445713         0.067656077         0.752415061
     0.855634451         0.996668160         0.754640222
     0.547860503         0.970557868         0.775710702
     0.683330476         0.950345397         0.306996346
     0.417658985         0.924560785         0.447823346
     0.286185175         0.936750770         0.910539925
     0.146697044         0.891131997         0.357716411
     0.669823647         0.903300762         0.959724426
     0.644576132         0.846366882         0.135365605
     0.156483769         0.849831581         0.533579588
     0.919311166         0.829666793         0.044276062
     0.815385938         0.810886443         0.592205942
     0.180744976         0.800657988         0.184013352
     0.065961204         0.778651655         0.726295590
     0.854803264         0.745597184         0.248476848
     0.371829897         0.729894161         0.750302017
     0.548346162         0.718941748         0.274303734
     0.693519115         0.704172254         0.812765181
     0.297566175         0.685719907         0.417601377
     0.418168932         0.681615591         0.948312283
     0.674838185         0.661251366         0.461208075
     0.147751734         0.637100041         0.858051002
     0.161972597         0.597577572         0.033789579
     0.645473659         0.603855312         0.636474967
     0.822074711         0.561272919         0.080798253
     0.918224335         0.570921421         0.543089211
     0.193749562         0.544127584         0.680106997
     0.064286768         0.531476617         0.227352649
     0.369789541         0.482906759         0.254584283
     0.872154176         0.517025709         0.742988408
     0.567356527         0.468399078         0.771444380
     0.693399727         0.455726177         0.319004953
     0.415977806         0.428375483         0.457410008
     0.320489377         0.438049197         0.919349909
     0.143495619         0.396621406         0.362804949
     0.661549628         0.403353095         0.966901898
     0.648069203         0.362599134         0.142117709
     0.169961587         0.342350841         0.539280474
     0.917781234         0.316359907         0.051044110
     0.798666120         0.315835088         0.582796156
     0.192169398         0.295956224         0.185832039
     0.050235923         0.281788081         0.724901617
     0.871700108         0.267969459         0.249155775
     0.354880065         0.253735185         0.752406180
     0.566040516         0.221740454         0.273667842
     0.682089984         0.198652446         0.816457748
     0.311790586         0.189928442         0.409267992
     0.417651147         0.169017151         0.957681775
     0.657755911         0.151598305         0.467739642
     0.143891156         0.153847113         0.865196407
     0.166465208         0.097424306         0.041401833
     0.647969604         0.110525414         0.643327296
     0.787791133         0.063105069         0.090408005
     0.920085967         0.077774279         0.554571629
     0.183622479         0.049322736         0.693378508
     0.048035286         0.030419676         0.224229097
     0.354612708         0.002131518         0.245502278
