Ca Mn V  Co O 
1.0
       14.0871763229         0.0000000000         0.0000000000
        1.7379508926        13.9795587716         0.0000000000
        3.0190153871         2.6669297795        11.0354332109
   Ca   Mn    V   Co    O
   15    8   32    8   96
Direct
     0.356184632         0.643815398         0.750000000
     0.356184632         0.143815398         0.249999985
     0.356184632         0.143815398         0.750000000
     0.356184632         0.643815398         0.249999985
     0.856184602         0.143815398         0.249999985
     0.856184602         0.143815398         0.750000000
     0.856184602         0.643815398         0.249999985
     0.856184602         0.643815398         0.750000000
     0.144039810         0.355960190         0.000000000
     0.144039810         0.355960190         0.500000000
     0.144039810         0.855960190         0.000000000
     0.644039810         0.355960190         0.000000000
     0.644039810         0.355960190         0.500000000
     0.644039810         0.855960190         0.000000000
     0.644039810         0.855960190         0.500000000
     0.041402280         0.458597749         0.249999985
     0.041402280         0.458597749         0.750000000
     0.041402280         0.958597779         0.249999985
     0.041402280         0.958597779         0.750000000
     0.541402280         0.458597749         0.249999985
     0.541402280         0.458597749         0.750000000
     0.541402280         0.958597779         0.249999985
     0.541402280         0.958597779         0.750000000
     0.403341502         0.305030078         0.993210137
     0.403341502         0.305030078         0.493210137
     0.403341502         0.805030107         0.993210137
     0.403341502         0.805030107         0.493210137
     0.903341532         0.305030078         0.993210137
     0.903341532         0.305030078         0.493210137
     0.903341532         0.805030107         0.993210137
     0.903341532         0.805030107         0.493210137
     0.306955397         0.402754992         0.241780192
     0.306955397         0.402754992         0.741780162
     0.306955397         0.902755022         0.241780192
     0.306955397         0.902755022         0.741780162
     0.806955397         0.402754992         0.241780192
     0.806955397         0.402754992         0.741780162
     0.806955397         0.902755022         0.241780192
     0.806955397         0.902755022         0.741780162
     0.194969922         0.096658513         0.506789863
     0.194969922         0.096658513         0.006789863
     0.194969922         0.596658528         0.506789863
     0.194969922         0.596658528         0.006789863
     0.694969893         0.096658513         0.506789863
     0.694969893         0.096658513         0.006789863
     0.694969893         0.596658528         0.506789863
     0.694969893         0.596658528         0.006789863
     0.097245038         0.193044618         0.258219808
     0.097245038         0.193044618         0.758219838
     0.097245038         0.693044603         0.258219808
     0.097245038         0.693044603         0.758219838
     0.597245038         0.193044618         0.258219808
     0.597245038         0.193044618         0.758219838
     0.597245038         0.693044603         0.258219808
     0.597245038         0.693044603         0.758219838
     0.454189360         0.045810614         0.000000000
     0.454189360         0.045810614         0.500000000
     0.454189360         0.545810640         0.000000000
     0.454189360         0.545810640         0.500000000
     0.954189360         0.045810614         0.000000000
     0.954189360         0.045810614         0.500000000
     0.954189360         0.545810640         0.000000000
     0.954189360         0.545810640         0.500000000
     0.492172867         0.398162514         0.447603911
     0.492172867         0.398162514         0.947603941
     0.492172867         0.898162484         0.447603911
     0.492172867         0.898162484         0.947603941
     0.992172837         0.398162514         0.447603911
     0.992172837         0.398162514         0.947603941
     0.992172837         0.898162484         0.447603911
     0.992172837         0.898162484         0.947603941
     0.449751228         0.181917757         0.031737175
     0.449751228         0.181917757         0.531737149
     0.449751228         0.681917787         0.031737175
     0.449751228         0.681917787         0.531737149
     0.949751258         0.181917757         0.031737175
     0.949751258         0.181917757         0.531737149
     0.949751258         0.681917787         0.031737175
     0.949751258         0.681917787         0.531737149
     0.398808151         0.494034857         0.193189695
     0.398808151         0.494034857         0.693189681
     0.398808151         0.994034886         0.193189695
     0.398808151         0.994034886         0.693189681
     0.898808122         0.494034857         0.193189695
     0.898808122         0.494034857         0.693189681
     0.898808122         0.994034886         0.193189695
     0.898808122         0.994034886         0.693189681
     0.315298170         0.323531359         0.394518644
     0.315298170         0.323531359         0.894518614
     0.315298170         0.823531389         0.394518644
     0.315298170         0.823531389         0.894518614
     0.815298200         0.323531359         0.394518644
     0.815298200         0.323531359         0.894518614
     0.815298200         0.823531389         0.394518644
     0.815298200         0.823531389         0.894518614
     0.318082243         0.050248779         0.468262851
     0.318082243         0.050248779         0.968262851
     0.318082243         0.550248802         0.468262851
     0.318082243         0.550248802         0.968262851
     0.818082213         0.050248779         0.468262851
     0.818082213         0.050248779         0.968262851
     0.818082213         0.550248802         0.468262851
     0.818082213         0.550248802         0.968262851
     0.322881997         0.313830614         0.145078987
     0.322881997         0.313830614         0.645079017
     0.322881997         0.813830614         0.145078987
     0.322881997         0.813830614         0.645079017
     0.822881997         0.313830614         0.145078987
     0.822881997         0.313830614         0.645079017
     0.822881997         0.813830614         0.145078987
     0.822881997         0.813830614         0.645079017
     0.176468626         0.184701830         0.105481364
     0.176468626         0.184701830         0.605481386
     0.176468626         0.684701800         0.105481364
     0.176468626         0.684701800         0.605481386
     0.676468611         0.184701830         0.105481364
     0.676468611         0.184701830         0.605481386
     0.676468611         0.684701800         0.105481364
     0.676468611         0.684701800         0.605481386
     0.185192272         0.450954467         0.283276767
     0.185192272         0.450954467         0.783276796
     0.185192272         0.950954437         0.283276767
     0.185192272         0.950954437         0.783276796
     0.685192287         0.450954467         0.283276767
     0.685192287         0.450954467         0.783276796
     0.685192287         0.950954437         0.283276767
     0.685192287         0.950954437         0.783276796
     0.186169371         0.177117988         0.354921013
     0.186169371         0.177117988         0.854920983
     0.186169371         0.677118003         0.354921013
     0.186169371         0.677118003         0.854920983
     0.686169386         0.177117988         0.354921013
     0.686169386         0.177117988         0.854920983
     0.686169386         0.677118003         0.354921013
     0.686169386         0.677118003         0.854920983
     0.101837479         0.007827132         0.052396093
     0.101837479         0.007827132         0.552396119
     0.101837479         0.507827103         0.052396093
     0.101837479         0.507827103         0.552396119
     0.601837456         0.007827132         0.052396093
     0.601837456         0.007827132         0.552396119
     0.601837456         0.507827103         0.052396093
     0.601837456         0.507827103         0.552396119
     0.049045533         0.314807743         0.216723219
     0.049045533         0.314807743         0.716723204
     0.049045533         0.814807773         0.216723219
     0.049045533         0.814807773         0.716723204
     0.549045563         0.314807743         0.216723219
     0.549045563         0.314807743         0.716723204
     0.549045563         0.814807773         0.216723219
     0.549045563         0.814807773         0.716723204
     0.005965117         0.101191834         0.306810319
     0.005965117         0.101191834         0.806810319
     0.005965117         0.601191819         0.306810319
     0.005965117         0.601191819         0.806810319
     0.505965114         0.101191834         0.306810319
     0.505965114         0.101191834         0.806810319
     0.505965114         0.601191819         0.306810319
     0.505965114         0.601191819         0.806810319
