Ca V  Fe P  O 
1.0
        7.3241295815         0.0000000000         0.0000000000
        0.0026814706         8.4292598274         0.0000000000
       -2.4082166856        -0.0014603380        14.2365971510
   Ca    V   Fe    P    O
    5    3    3   12   42
Direct
     0.327100515         0.410111398         0.588258386
     0.338658661         0.908082664         0.076387405
     0.993696809         0.407479107         0.256584793
     0.671994030         0.910766244         0.412026882
     0.007027733         0.909180284         0.743675292
     0.343362570         0.491633117         0.074729331
     0.989679396         0.992045105         0.259571075
     0.010053349         0.492654979         0.739680827
     0.668707132         0.489166558         0.406903952
     0.330669075         0.989853323         0.593529046
     0.664319694         0.987623334         0.925351381
     0.630952358         0.189670667         0.127775922
     0.963185728         0.764623106         0.071808569
     0.369952232         0.263472259         0.261962801
     0.701627731         0.690415502         0.205340892
     0.296379626         0.770386398         0.405336052
     0.032195129         0.694586158         0.537946045
     0.967023730         0.194407463         0.461708575
     0.703481376         0.270098329         0.594764829
     0.299480349         0.192143306         0.795238197
     0.630401790         0.765159369         0.738588631
     0.037389241         0.268765241         0.928614497
     0.367073327         0.691229105         0.871672332
     0.184918314         0.290570825         0.014404466
     0.133074179         0.671548963         0.054419614
     0.035987578         0.920117438         0.121889994
     0.604528606         0.047421698         0.061702926
     0.596089959         0.349728733         0.077397093
     0.519630551         0.692483723         0.135759786
     0.297368765         0.419492483         0.212505832
     0.458050311         0.154189155         0.184979692
     0.874661565         0.654888391         0.148120999
     0.199558645         0.170606583         0.278977782
     0.147937119         0.793176174         0.319911599
     0.813023865         0.190954953         0.197300643
     0.737438798         0.850015640         0.256235361
     0.727450788         0.547255218         0.270685494
     0.519325197         0.281831264         0.347197980
     0.465082049         0.677058101         0.386501551
     0.205422550         0.660640299         0.480337799
     0.370959818         0.924250305         0.456761420
     0.149256125         0.194189221         0.530497670
     0.936797321         0.050924174         0.396112084
     0.932958126         0.352915436         0.409769535
     0.065991990         0.852852762         0.590246975
     0.061899334         0.550534904         0.603096962
     0.850358129         0.694764555         0.468793720
     0.628164172         0.423584610         0.543163836
     0.794385970         0.160219714         0.519606352
     0.535267115         0.176779941         0.614067674
     0.480906457         0.785663962         0.653595984
     0.271183848         0.049161602         0.729590058
     0.262687385         0.351378173         0.743716776
     0.185892716         0.690886319         0.801455319
     0.852389157         0.293287277         0.679879010
     0.799012184         0.670836687         0.720783532
     0.127573594         0.157469794         0.853716731
     0.541166604         0.656912029         0.815237045
     0.705311060         0.920063913         0.788796723
     0.482362986         0.193431258         0.863610387
     0.398793995         0.850603998         0.922624648
     0.395399183         0.548119724         0.937215686
     0.964760661         0.423163772         0.877014816
     0.866945863         0.176888108         0.946630895
     0.814108729         0.784197092         0.986479580
