Ca V  F 
1.0
        7.2090549469         0.0000000000         0.0000000000
        0.0000000000         7.0198106766         0.0000000000
        0.0000000000         1.2208888094        14.5241380514
   Ca    V    F
    7    8   40
Direct     
     0.345539629         0.679472148         0.413947225
     0.175783753         0.998986721         0.637995481
     0.675783753         0.001013231         0.862004519
     0.824216247         0.001013238         0.362004519
     0.324216276         0.998986781         0.137995481
     0.154460341         0.679472089         0.913947225
     0.845539689         0.320527881         0.086052760
     0.183834746         0.188476577         0.878022671
     0.683834791         0.811523378         0.621977329
     0.816165209         0.811523438         0.121977352
     0.316165239         0.188476577         0.378022641
     0.117686443         0.493501723         0.661221266
     0.617686450         0.506498277         0.838778794
     0.882313550         0.506498277         0.338778794
     0.382313579         0.493501723         0.161221206
     0.320438921         0.050411128         0.974222124
     0.820438862         0.949588835         0.525777936
     0.679561079         0.949588895         0.025777912
     0.179561093         0.050411128         0.474222094
     0.066953793         0.351926476         0.963430882
     0.566953778         0.648073494         0.536569059
     0.933046222         0.648073554         0.036569070
     0.433046192         0.351926476         0.463430941
     0.355346233         0.418432444         0.860214114
     0.855346262         0.581567526         0.639785826
     0.644653738         0.581567526         0.139785841
     0.144653738         0.418432474         0.360214144
     0.316221148         0.042293031         0.790169477
     0.816221178         0.957706928         0.709830523
     0.683778822         0.957706988         0.209830508
     0.183778822         0.042293031         0.290169477
     0.498041749         0.274494112         0.102737457
     0.998041749         0.725505888         0.397262543
     0.501958251         0.725505888         0.897262514
     0.001958254         0.274494112         0.602737427
     0.305645645         0.691992402         0.063652791
     0.805645645         0.308007598         0.436347216
     0.694354355         0.308007598         0.936347246
     0.194354340         0.691992402         0.563652813
     0.341745853         0.703753352         0.240584835
     0.841745853         0.296246648         0.259415179
     0.658254147         0.296246648         0.759415150
     0.158254161         0.703753352         0.740584791
     0.452811629         0.323786736         0.276567221
     0.952811658         0.676213324         0.223432794
     0.547188342         0.676213264         0.723432779
     0.047188353         0.323786706         0.776567221
     0.157306165         0.353915542         0.150628895
     0.657306194         0.646084487         0.349371076
     0.842693806         0.646084428         0.849371076
     0.342693806         0.353915542         0.650628865
     0.505961180         0.981156647         0.391836166
     0.005961190         0.018843310         0.108163811
     0.494038820         0.018843312         0.608163774
     0.994038820         0.981156647         0.891836166
