Ca V  P  O 
1.0
       13.3680000305         0.0000000000         0.0000000000
        1.8166639566        12.9881337964         0.0000000000
        5.2049880037         0.5473595356        12.5191291361
   Ca    V    P    O
   15   16   32  112
Direct
     0.635933578         0.449590772         0.110509634
     0.364064664         0.050410148         0.389490128
     0.364064664         0.050410148         0.889490128
     0.364064664         0.550410151         0.889490128
     0.864064693         0.050410148         0.389490128
     0.864064693         0.050410148         0.889490128
     0.864064693         0.550410151         0.389490128
     0.864064693         0.550410151         0.889490128
     0.135933578         0.449590772         0.110509634
     0.135933578         0.449590772         0.610509634
     0.135933578         0.949590802         0.110509634
     0.135933578         0.949590802         0.610509634
     0.635933578         0.449590772         0.610509634
     0.635933578         0.949590802         0.110509634
     0.635933578         0.949590802         0.610509634
     0.451313585         0.176805273         0.112600088
     0.451313585         0.176805273         0.612600088
     0.451313585         0.676805258         0.112600088
     0.451313585         0.676805258         0.612600088
     0.951313615         0.176805273         0.112600088
     0.951313615         0.176805273         0.612600088
     0.951313615         0.676805258         0.112600088
     0.951313615         0.676805258         0.612600088
     0.048688017         0.323196143         0.387399137
     0.048688017         0.323196143         0.887399137
     0.048688017         0.823196173         0.387399137
     0.048688017         0.823196173         0.887399137
     0.548687994         0.323196143         0.387399137
     0.548687994         0.323196143         0.887399137
     0.548687994         0.823196173         0.387399137
     0.548687994         0.823196173         0.887399137
     0.109502912         0.070711918         0.376799792
     0.109502912         0.070711918         0.876799822
     0.109502912         0.570711911         0.376799792
     0.109502912         0.570711911         0.876799822
     0.609502912         0.070711918         0.376799792
     0.609502912         0.070711918         0.876799822
     0.609502912         0.570711911         0.376799792
     0.609502912         0.570711911         0.876799822
     0.179734841         0.191591218         0.168003187
     0.179734841         0.191591218         0.668003201
     0.179734841         0.691591203         0.168003187
     0.179734841         0.691591203         0.668003201
     0.679734826         0.191591218         0.168003187
     0.679734826         0.191591218         0.668003201
     0.679734826         0.691591203         0.168003187
     0.679734826         0.691591203         0.668003201
     0.320261747         0.308368087         0.331984609
     0.320261747         0.308368087         0.831984639
     0.320261747         0.808368087         0.331984609
     0.320261747         0.808368087         0.831984639
     0.820261717         0.308368087         0.331984609
     0.820261717         0.308368087         0.831984639
     0.820261717         0.808368087         0.331984609
     0.820261717         0.808368087         0.831984639
     0.390528530         0.429284275         0.123182364
     0.390528530         0.429284275         0.623182356
     0.390528530         0.929284275         0.123182364
     0.390528530         0.929284275         0.623182356
     0.890528560         0.429284275         0.123182364
     0.890528560         0.429284275         0.623182356
     0.890528560         0.929284275         0.123182364
     0.890528560         0.929284275         0.623182356
     0.181724533         0.023828197         0.436585695
     0.181724533         0.023828197         0.936585665
     0.181724533         0.523828208         0.436585695
     0.181724533         0.523828208         0.936585665
     0.681724548         0.023828197         0.436585695
     0.681724548         0.023828197         0.936585665
     0.681724548         0.523828208         0.436585695
     0.681724548         0.523828208         0.936585665
     0.447714359         0.009289904         0.153021708
     0.447714359         0.009289904         0.653021693
     0.447714359         0.509289920         0.153021708
     0.447714359         0.509289920         0.653021693
     0.947714329         0.009289904         0.153021708
     0.947714329         0.009289904         0.653021693
     0.947714329         0.509289920         0.153021708
     0.947714329         0.509289920         0.653021693
     0.193285882         0.117970645         0.268428475
     0.193285882         0.117970645         0.768428445
     0.193285882         0.617970645         0.268428475
     0.193285882         0.617970645         0.768428445
     0.693285882         0.117970645         0.268428475
     0.693285882         0.117970645         0.768428445
     0.693285882         0.617970645         0.268428475
     0.693285882         0.617970645         0.768428445
     0.109365135         0.135356203         0.129458904
     0.109365135         0.135356203         0.629458904
     0.109365135         0.635356188         0.129458904
     0.109365135         0.635356188         0.629458904
     0.609365106         0.135356203         0.129458904
     0.609365106         0.135356203         0.629458904
     0.609365106         0.635356188         0.129458904
     0.609365106         0.635356188         0.629458904
     0.023445312         0.158912659         0.435931772
     0.023445312         0.158912659         0.935931802
     0.023445312         0.658912659         0.435931772
     0.023445312         0.658912659         0.935931802
     0.523445308         0.158912659         0.435931772
     0.523445308         0.158912659         0.935931802
     0.523445308         0.658912659         0.435931772
     0.523445308         0.658912659         0.935931802
     0.296133429         0.197946787         0.090528391
     0.296133429         0.197946787         0.590528369
     0.296133429         0.697946787         0.090528391
     0.296133429         0.697946787         0.590528369
     0.796133399         0.197946787         0.090528391
     0.796133399         0.197946787         0.590528369
     0.796133399         0.697946787         0.090528391
     0.796133399         0.697946787         0.590528369
     0.379489839         0.204182222         0.284218729
     0.379489839         0.204182222         0.784218729
     0.379489839         0.704182208         0.284218729
     0.379489839         0.704182208         0.784218729
     0.879489839         0.204182222         0.284218729
     0.879489839         0.204182222         0.784218729
     0.879489839         0.704182208         0.284218729
     0.879489839         0.704182208         0.784218729
     0.120501414         0.295841187         0.215787306
     0.120501414         0.295841187         0.715787292
     0.120501414         0.795841217         0.215787306
     0.120501414         0.795841217         0.715787292
     0.620501399         0.295841187         0.215787306
     0.620501399         0.295841187         0.715787292
     0.620501399         0.795841217         0.215787306
     0.620501399         0.795841217         0.715787292
     0.203873724         0.302059114         0.409469992
     0.203873724         0.302059114         0.909469962
     0.203873724         0.802059114         0.409469992
     0.203873724         0.802059114         0.909469962
     0.703873754         0.302059114         0.409469992
     0.703873754         0.302059114         0.909469962
     0.703873754         0.802059114         0.409469992
     0.703873754         0.802059114         0.909469962
     0.476531208         0.341108114         0.064085424
     0.476531208         0.341108114         0.564085424
     0.476531208         0.841108084         0.064085424
     0.476531208         0.841108084         0.564085424
     0.976531208         0.341108114         0.064085424
     0.976531208         0.341108114         0.564085424
     0.976531208         0.841108084         0.064085424
     0.976531208         0.841108084         0.564085424
     0.390638113         0.364655554         0.370550603
     0.390638113         0.364655554         0.870550632
     0.390638113         0.864655554         0.370550603
     0.390638113         0.864655554         0.870550632
     0.890638113         0.364655554         0.370550603
     0.890638113         0.364655554         0.870550632
     0.890638113         0.864655554         0.370550603
     0.890638113         0.864655554         0.870550632
     0.306715637         0.382027268         0.231570587
     0.306715637         0.382027268         0.731570601
     0.306715637         0.882027268         0.231570587
     0.306715637         0.882027268         0.731570601
     0.806715608         0.382027268         0.231570587
     0.806715608         0.382027268         0.731570601
     0.806715608         0.882027268         0.231570587
     0.806715608         0.882027268         0.731570601
     0.052274011         0.490694255         0.346974492
     0.052274011         0.490694255         0.846974492
     0.052274011         0.990694284         0.346974492
     0.052274011         0.990694284         0.846974492
     0.552273989         0.490694255         0.346974492
     0.552273989         0.490694255         0.846974492
     0.552273989         0.990694284         0.346974492
     0.552273989         0.990694284         0.846974492
     0.318279624         0.476170063         0.063418977
     0.318279624         0.476170063         0.563418984
     0.318279624         0.976170063         0.063418977
     0.318279624         0.976170063         0.563418984
     0.818279624         0.476170063         0.063418977
     0.818279624         0.476170063         0.563418984
     0.818279624         0.976170063         0.063418977
     0.818279624         0.976170063         0.563418984
