V  O  Ca
1.0
       11.1191272736         0.0000000000         0.0000000000
        0.0000000000        10.6617488861         0.0000000000
        0.0000000000         3.4485439794        21.2615895677
    Ca   V    O 
    11   54  132   
Direct
     0.916666687         0.376310647         0.795111775
     0.250000000         0.376310647         0.795111775
     0.250000000         0.020378150         0.848631918
     0.583333313         0.020378150         0.848631918
     0.916666687         0.020378150         0.848631918
     0.083333336         0.979627967         0.151370019
     0.416666657         0.979627967         0.151370019
     0.750000000         0.979627967         0.151370019
     0.083333336         0.623702109         0.204890117
     0.416666657         0.623702109         0.204890117
     0.750000000         0.623702109         0.204890117
     0.083333336         0.114646584         0.974881887
     0.416666657         0.114646584         0.974881887
     0.750000000         0.114646584         0.974881887
     0.250000000         0.703473508         0.909602284
     0.583333313         0.703473508         0.909602284
     0.916666687         0.703473508         0.909602284
     0.083333336         0.461071014         0.932001114
     0.416666657         0.461071014         0.932001114
     0.750000000         0.461071014         0.932001114
     0.083333336         0.966172397         0.709971905
     0.416666657         0.966172397         0.709971905
     0.750000000         0.966172397         0.709971905
     0.250000000         0.728878677         0.733978987
     0.583333313         0.728878677         0.733978987
     0.916666687         0.728878677         0.733978987
     0.083333336         0.320147425         0.669555426
     0.416666657         0.320147425         0.669555426
     0.750000000         0.320147425         0.669555426
     0.250000000         0.556561291         0.625848711
     0.583333313         0.556561291         0.625848711
     0.916666687         0.556561291         0.625848711
     0.083333336         0.145665810         0.572156727
     0.416666657         0.145665810         0.572156727
     0.750000000         0.145665810         0.572156727
     0.250000000         0.900890768         0.591471434
     0.583333313         0.900890768         0.591471434
     0.916666687         0.900890768         0.591471434
     0.083333336         0.099127680         0.408532709
     0.416666657         0.099127680         0.408532709
     0.750000000         0.099127680         0.408532709
     0.250000000         0.854301810         0.427864075
     0.583333313         0.854301810         0.427864075
     0.916666687         0.854301810         0.427864075
     0.083333336         0.443442851         0.374149114
     0.416666657         0.443442851         0.374149114
     0.750000000         0.443442851         0.374149114
     0.250000000         0.679879904         0.330397129
     0.583333313         0.679879904         0.330397129
     0.916666687         0.679879904         0.330397129
     0.083333336         0.271101773         0.266037077
     0.416666657         0.271101773         0.266037077
     0.750000000         0.271101773         0.266037077
     0.250000000         0.033870038         0.290011793
     0.583333313         0.033870038         0.290011793
     0.916666687         0.033870038         0.290011793
     0.250000000         0.538983822         0.067996144
     0.583333313         0.538983822         0.067996144
     0.916666687         0.538983822         0.067996144
     0.083333336         0.296430230         0.090391889
     0.416666657         0.296430230         0.090391889
     0.750000000         0.296430230         0.090391889
     0.250000000         0.885371327         0.025048947
     0.583333313         0.885371327         0.025048947
     0.916666687         0.885371327         0.025048947
     0.250000000         0.072857298         0.991866767
     0.583333313         0.072857298         0.991866767
     0.916666687         0.072857298         0.991866767
     0.083333336         0.652546227         0.921884120
     0.416666657         0.652546227         0.921884120
     0.750000000         0.652546227         0.921884120
     0.083333336         0.311712295         0.978055000
     0.416666657         0.311712295         0.978055000
     0.750000000         0.311712295         0.978055000
     0.250000000         0.855860114         0.927545667
     0.583333313         0.855860114         0.927545667
     0.916666687         0.855860114         0.927545667
     0.250000000         0.506700754         0.941525817
     0.583333313         0.506700754         0.941525817
     0.916666687         0.506700754         0.941525817
     0.083333336         0.125503182         0.893287539
     0.416666657         0.125503182         0.893287539
     0.750000000         0.125503182         0.893287539
     0.250000000         0.738966703         0.829928935
     0.583333313         0.738966703         0.829928935
     0.916666687         0.738966703         0.829928935
     0.083333336         0.427855730         0.857853949
     0.416666657         0.427855730         0.857853949
     0.750000000         0.427855730         0.857853949
     0.083333336         0.003550053         0.785119295
     0.416666657         0.003550053         0.785119295
     0.750000000         0.003550053         0.785119295
     0.083333336         0.294363141         0.751960993
     0.416666657         0.294363141         0.751960993
     0.750000000         0.294363141         0.751960993
     0.250000000         0.932551980         0.694917738
     0.583333313         0.932551980         0.694917738
     0.916666687         0.932551980         0.694917738
     0.250000000         0.568801343         0.743716598
     0.583333313         0.568801343         0.743716598
     0.916666687         0.568801343         0.743716598
     0.083333336         0.138459384         0.662545085
     0.416666657         0.138459384         0.662545085
     0.750000000         0.138459384         0.662545085
     0.083333336         0.778544128         0.731828451
     0.416666657         0.778544128         0.731828451
     0.750000000         0.778544128         0.731828451
     0.083333336         0.939514518         0.607064545
     0.416666657         0.939514518         0.607064545
     0.750000000         0.939514518         0.607064545
     0.250000000         0.365613997         0.659106672
     0.583333313         0.365613997         0.659106672
     0.916666687         0.365613997         0.659106672
     0.083333336         0.515017807         0.645345867
     0.416666657         0.515017807         0.645345867
     0.750000000         0.515017807         0.645345867
     0.250000000         0.095647506         0.573047876
     0.583333313         0.095647506         0.573047876
     0.916666687         0.095647506         0.573047876
     0.250000000         0.724582732         0.638522029
     0.583333313         0.724582732         0.638522029
     0.916666687         0.724582732         0.638522029
     0.083333336         0.301409096         0.569584548
     0.416666657         0.301409096         0.569584548
     0.750000000         0.301409096         0.569584548
     0.250000000         0.572924256         0.550877094
     0.583333313         0.572924256         0.550877094
     0.916666687         0.572924256         0.550877094
     0.083333336         0.132864878         0.483793885
     0.416666657         0.132864878         0.483793885
     0.750000000         0.132864878         0.483793885
     0.250000000         0.867111683         0.516192377
     0.583333313         0.867111683         0.516192377
     0.916666687         0.867111683         0.516192377
     0.083333336         0.427056193         0.449138701
     0.416666657         0.427056193         0.449138701
     0.750000000         0.427056193         0.449138701
     0.250000000         0.698589385         0.430410802
     0.583333313         0.698589385         0.430410802
     0.916666687         0.698589385         0.430410802
     0.083333336         0.275335759         0.361486822
     0.416666657         0.275335759         0.361486822
     0.750000000         0.275335759         0.361486822
     0.083333336         0.904349446         0.426955670
     0.416666657         0.904349446         0.426955670
     0.750000000         0.904349446         0.426955670
     0.250000000         0.485016495         0.354665369
     0.583333313         0.485016495         0.354665369
     0.916666687         0.485016495         0.354665369
     0.083333336         0.634414256         0.340871632
     0.416666657         0.634414256         0.340871632
     0.750000000         0.634414256         0.340871632
     0.250000000         0.221464455         0.268176854
     0.583333313         0.221464455         0.268176854
     0.916666687         0.221464455         0.268176854
     0.250000000         0.060482204         0.392942309
     0.583333313         0.060482204         0.392942309
     0.916666687         0.060482204         0.392942309
     0.250000000         0.861482084         0.337456703
     0.583333313         0.861482084         0.337456703
     0.916666687         0.861482084         0.337456703
     0.083333336         0.431207836         0.256280482
     0.416666657         0.431207836         0.256280482
     0.750000000         0.431207836         0.256280482
     0.083333336         0.067462415         0.305095941
     0.416666657         0.067462415         0.305095941
     0.750000000         0.067462415         0.305095941
     0.250000000         0.705645382         0.248058230
     0.583333313         0.705645382         0.248058230
     0.916666687         0.705645382         0.248058230
     0.250000000         0.996471584         0.214877650
     0.583333313         0.996471584         0.214877650
     0.916666687         0.996471584         0.214877650
     0.250000000         0.572152674         0.142135993
     0.583333313         0.572152674         0.142135993
     0.916666687         0.572152674         0.142135993
     0.083333336         0.261035681         0.170103624
     0.416666657         0.261035681         0.170103624
     0.750000000         0.261035681         0.170103624
     0.250000000         0.874486029         0.106757842
     0.583333313         0.874486029         0.106757842
     0.916666687         0.874486029         0.106757842
     0.083333336         0.493292183         0.058475476
     0.416666657         0.493292183         0.058475476
     0.750000000         0.493292183         0.058475476
     0.083333336         0.144190446         0.072447717
     0.416666657         0.144190446         0.072447717
     0.750000000         0.144190446         0.072447717
     0.250000000         0.688297689         0.021930771
     0.583333313         0.688297689         0.021930771
     0.916666687         0.688297689         0.021930771
     0.250000000         0.347440451         0.078122698
     0.583333313         0.347440451         0.078122698
     0.916666687         0.347440451         0.078122698
     0.083333336         0.927132666         0.008136558
     0.416666657         0.927132666         0.008136558
     0.750000000         0.927132666         0.008136558
