Ca V  O                                 
   1.00000000000000     
    11.0808181762999993    0.0000000000000000    0.0000000000000000
    -1.8468029563999999    7.7866447772000003    0.0000000000000000
     0.0000000000000000   -3.0461372258999999    9.8078967616000003
   Ca   V    O 
     5    18    45
Direct
  0.6748070163210929  0.9959940567095956  0.3628857358202414
  0.0207158903166707  0.0048984483844476  0.3709469095859695
  0.1497371173527880  0.8401012497820748  0.6777742070252485
  0.4808167873764311  0.9165282901174263  0.6388254388551112
  0.8081869245045720  0.8568302689141826  0.6691181063193575
  0.0558586766478127  0.2600655677223292  0.1154729596068229
  0.3868991014580616  0.2585825675156071  0.1161026580083688
  0.7203938924645285  0.2542632770756428  0.1117529570837160
  0.3132253291984414  0.7977944153512073  0.9123593544750224
  0.6355084365293705  0.7954284101783732  0.9049396187880789
  0.9736003111517305  0.7981988865237358  0.9172146114843550
  0.1242761718013970  0.6795864427836400  0.0948946943595873
  0.4552181203239454  0.6794974626061544  0.1036116141697943
  0.7889476354964161  0.6769636632417715  0.0955017598536885
  0.2348452508367672  0.3382802156680401  0.8932639105950759
  0.5706358750934803  0.3582692311589503  0.9056513476347479
  0.9026616150668005  0.3442900896021783  0.8981717781525494
  0.1029900731128108  0.5579337018492115  0.3954576383157715
  0.4453162823459720  0.5366840262059089  0.3953564259138652
  0.7730390495953966  0.5390979597275797  0.3913337790400572
  0.2490635230128993  0.4192329580676598  0.5841727274558985
  0.5834677149942609  0.3932668312803863  0.5829344965891936
  0.9144672819848270  0.4018055593242213  0.5804115938005890
  0.0112450673186159  0.0201113335768107  0.0154796981329834
  0.3510408434487531  0.0184417582135590  0.0110093016547123
  0.6766509722561720  0.0184957714537243  0.0073170288933503
  0.2847271724552069  0.6487979794080524  0.0443876620186206
  0.6161501867739786  0.6425336513984367  0.0456331245753879
  0.9502661465966356  0.6413938250563129  0.0376237061089108
  0.0760008732129368  0.3843074020456881  0.9500987261711950
  0.4071732232051868  0.3839795741972394  0.9506163306983978
  0.7450876288166418  0.3946362117997703  0.9561697919678982
  0.2235264987475376  0.2762339774922609  0.0716533680150733
  0.5593512579860083  0.2867613264508105  0.0806561621411964
  0.8921622739888161  0.2818314612998051  0.0762297773982324
  0.1380901768719954  0.7597735498730888  0.9207756599927988
  0.4674683520580976  0.7438402694476159  0.9334184888414849
  0.7956025379265101  0.7525882988477940  0.9271071798070978
  0.1445267166032106  0.8755270958777043  0.2106466929497272
  0.4976224744478644  0.8775189534605573  0.2176890239143390
  0.8255173260119144  0.8743728455889042  0.2214380042253234
  0.2020444777023661  0.1337946710059201  0.7875526666931619
  0.5449026752990365  0.1504859694896540  0.8097158895033940
  0.8631062005950849  0.1367619856618711  0.7983176728389472
  0.1029176143141493  0.5340424264701826  0.2105376643309257
  0.4290596877351452  0.5297643168914414  0.2102146025211256
  0.7667085519977320  0.5276942832938150  0.2117078455474732
  0.2571614218372322  0.4631915394904819  0.7676488469708730
  0.5892146862075875  0.4685033066812471  0.7691644183841829
  0.9230849586883048  0.4533411002678332  0.7640641360563091
  0.0581817430338257  0.2465986297822687  0.2768505993371494
  0.3834976912972067  0.2531392270416058  0.2765126775852105
  0.7220065902535715  0.2321104369461660  0.2704962735311228
  0.3252798822964728  0.7991769028266177  0.7427246636196132
  0.6212987919982517  0.8085140105544896  0.7409394754228589
  0.9665751736927330  0.7959140981417591  0.7468101253172821
  0.0929812433942121  0.5000603381972677  0.5733593789396475
  0.4264271126843739  0.4534475434026307  0.5588979470431910
  0.7632630058197006  0.4802195400850900  0.5722189263791325
  0.2718089771661744  0.5412885583333080  0.4370046451583774
  0.6013396676877419  0.4722496414952575  0.4179280898995770
  0.9268405822230253  0.4852137835026864  0.4153202990120236
  0.1115301220547632  0.7817359797040262  0.4510567795491423
  0.5230967995700696  0.7588842290651977  0.4400074689864971
  0.8137151648414209  0.7688192944873592  0.4460068914698102
  0.1913725004502567  0.2013885621573983  0.5205319713882042
  0.5638340769205328  0.1689054175342808  0.5372522817343653
  0.8788953584255819  0.1755933442312755  0.5152860583707295
 
             NaN             NaN             NaN
             NaN             NaN             NaN
             NaN             NaN             NaN
             NaN             NaN             NaN
             NaN             NaN             NaN
             NaN             NaN             NaN
             NaN             NaN             NaN
             NaN             NaN             NaN
             NaN             NaN             NaN
             NaN             NaN             NaN
             NaN             NaN             NaN
             NaN             NaN             NaN
             NaN             NaN             NaN
             NaN             NaN             NaN
             NaN             NaN             NaN
             NaN             NaN             NaN
             NaN             NaN             NaN
             NaN             NaN             NaN
             NaN             NaN             NaN
             NaN             NaN             NaN
             NaN             NaN             NaN
             NaN             NaN             NaN
             NaN             NaN             NaN
             NaN             NaN             NaN
             NaN             NaN             NaN
             NaN             NaN             NaN
             NaN             NaN             NaN
             NaN             NaN             NaN
             NaN             NaN             NaN
             NaN             NaN             NaN
             NaN             NaN             NaN
             NaN             NaN             NaN
             NaN             NaN             NaN
             NaN             NaN             NaN
             NaN             NaN             NaN
             NaN             NaN             NaN
             NaN             NaN             NaN
             NaN             NaN             NaN
             NaN             NaN             NaN
             NaN             NaN             NaN
             NaN             NaN             NaN
             NaN             NaN             NaN
             NaN             NaN             NaN
             NaN             NaN             NaN
             NaN             NaN             NaN
             NaN             NaN             NaN
             NaN             NaN             NaN
             NaN             NaN             NaN
             NaN             NaN             NaN
             NaN             NaN             NaN
             NaN             NaN             NaN
             NaN             NaN             NaN
             NaN             NaN             NaN
             NaN             NaN             NaN
             NaN             NaN             NaN
             NaN             NaN             NaN
             NaN             NaN             NaN
             NaN             NaN             NaN
             NaN             NaN             NaN
             NaN             NaN             NaN
             NaN             NaN             NaN
             NaN             NaN             NaN
             NaN             NaN             NaN
             NaN             NaN             NaN
             NaN             NaN             NaN
             NaN             NaN             NaN
             NaN             NaN             NaN
             NaN             NaN             NaN
