Ca V  O                                 
   1.00000000000000     
    11.0808181762999993    0.0000000000000000    0.0000000000000000
    -1.8468029563999999    7.7866447772000003    0.0000000000000000
     0.0000000000000000   -3.0461372258999999    9.8078967616000003
   Ca   V    O 
     5    18    45
Direct
  0.6748037166264284  0.9959899997346773  0.3628814734659455
  0.0207278550364836  0.0049021228184793  0.3709565420857471
  0.1497222188253050  0.8400903676797725  0.6778076067873537
  0.4808002789648558  0.9165477678909045  0.6388152798726425
  0.8081787661302740  0.8568921291915788  0.6690927336390032
  0.0558570435150604  0.2600670707112611  0.1154833614815320
  0.3868823031541053  0.2585559952420118  0.1161220586382098
  0.7203789928424077  0.2542663408538395  0.1117654815269136
  0.3132111813834716  0.7978583262231309  0.9123838204253694
  0.6355040946456647  0.7954111392259346  0.9049405740971067
  0.9735985907109048  0.7981920236162050  0.9172233748949034
  0.1242616402859864  0.6795889523086462  0.0948914872056694
  0.4552071116875178  0.6795216634495207  0.1036475654064317
  0.7889366574033133  0.6769853197508017  0.0955079723175623
  0.2348256748382583  0.3382416883019828  0.8932529870469732
  0.5706277251203531  0.3582973041928961  0.9056479700385799
  0.9026437954071900  0.3441982495768534  0.8981182399130015
  0.1029963912354478  0.5579462101349157  0.3954555842007051
  0.4453229342725408  0.5367171711546046  0.3953468074559141
  0.7730405362654431  0.5390820602091185  0.3913364222304401
  0.2490532314716847  0.4192016097738744  0.5841591720479176
  0.5834583763035800  0.3932397724009281  0.5829282264425723
  0.9144504482359526  0.4017748397421899  0.5804115246601400
  0.0112333278293675  0.0201115665874432  0.0154743019988626
  0.3510253714441444  0.0183788357624024  0.0109821769035174
  0.6766484354631592  0.0185399764749726  0.0073259359337216
  0.2847071417928019  0.6487803450437220  0.0443767685472387
  0.6161256761022804  0.6425177344989252  0.0456340659857380
  0.9502670959851253  0.6413950251914980  0.0376232087046431
  0.0760138421961855  0.3843398465190384  0.9501115376750766
  0.4071573578153522  0.3839647415042265  0.9506104853165436
  0.7450905500301955  0.3946431815696996  0.9561729878171602
  0.2235186330205310  0.2762371026042053  0.0716504841923646
  0.5593486538089292  0.2867588822675937  0.0806587326292893
  0.8921655402838105  0.2818378980788529  0.0762286026719949
  0.1380692404499243  0.7597920814432912  0.9207627919786912
  0.4674623967074242  0.7438446709886989  0.9334241122567429
  0.7956049994958780  0.7525821091356201  0.9271167967967896
  0.1445222183520050  0.8755001871188527  0.2106277244300179
  0.4976035108807340  0.8774949211571911  0.2176713410621009
  0.8254890794835968  0.8743663371211137  0.2214369343434142
  0.2020348699044105  0.1338153338404986  0.7875703427996615
  0.5448966796943072  0.1504609208469429  0.8096988160848781
  0.8631259224152374  0.1369056600578633  0.7983802823707606
  0.1029173190739273  0.5340289224978261  0.2105315850558622
  0.4290552367271646  0.5297713279585370  0.2102151199957549
  0.7666976772645498  0.5276856669723469  0.2117105467010535
  0.2571590898674203  0.4632021888868472  0.7676586094127043
  0.5892036820508778  0.4685081111829797  0.7691571239404262
  0.9230789682994063  0.4533682078809599  0.7640752652716001
  0.0581742395365834  0.2465819462769181  0.2768420882515422
  0.3834946386597080  0.2531541375988957  0.2764921628429544
  0.7219957181777813  0.2321148920615919  0.2704843486467680
  0.3252662319048787  0.7991653106149097  0.7427298640163267
  0.6212869360779989  0.8085256592619151  0.7409157251628672
  0.9665438620308368  0.7959247680687642  0.7467973954984077
  0.0929795886076381  0.5000620931021593  0.5733730556989028
  0.4264189993698621  0.4534450334950134  0.5588895131815389
  0.7632620157260076  0.4801941596003952  0.5722129803561574
  0.2718118707916925  0.5412726090198923  0.4370007539090418
  0.6013280543405566  0.4722619160997577  0.4179299419630422
  0.9268445342301329  0.4851995866106563  0.4153171013437573
  0.1115278832283995  0.7817222418253819  0.4510695789838674
  0.5230720622601297  0.7588366895180504  0.4399968837348964
  0.8137321502273684  0.7688012247047753  0.4459975488313546
  0.1913826571373554  0.2014163389029957  0.5205460311047279
  0.5638200494849038  0.1688978594757903  0.5372626847257610
  0.8788792957518895  0.1756016284054318  0.5153117410209836
 
             NaN             NaN             NaN
             NaN             NaN             NaN
             NaN             NaN             NaN
             NaN             NaN             NaN
             NaN             NaN             NaN
             NaN             NaN             NaN
             NaN             NaN             NaN
             NaN             NaN             NaN
             NaN             NaN             NaN
             NaN             NaN             NaN
             NaN             NaN             NaN
             NaN             NaN             NaN
             NaN             NaN             NaN
             NaN             NaN             NaN
             NaN             NaN             NaN
             NaN             NaN             NaN
             NaN             NaN             NaN
             NaN             NaN             NaN
             NaN             NaN             NaN
             NaN             NaN             NaN
             NaN             NaN             NaN
             NaN             NaN             NaN
             NaN             NaN             NaN
             NaN             NaN             NaN
             NaN             NaN             NaN
             NaN             NaN             NaN
             NaN             NaN             NaN
             NaN             NaN             NaN
             NaN             NaN             NaN
             NaN             NaN             NaN
             NaN             NaN             NaN
             NaN             NaN             NaN
             NaN             NaN             NaN
             NaN             NaN             NaN
             NaN             NaN             NaN
             NaN             NaN             NaN
             NaN             NaN             NaN
             NaN             NaN             NaN
             NaN             NaN             NaN
             NaN             NaN             NaN
             NaN             NaN             NaN
             NaN             NaN             NaN
             NaN             NaN             NaN
             NaN             NaN             NaN
             NaN             NaN             NaN
             NaN             NaN             NaN
             NaN             NaN             NaN
             NaN             NaN             NaN
             NaN             NaN             NaN
             NaN             NaN             NaN
             NaN             NaN             NaN
             NaN             NaN             NaN
             NaN             NaN             NaN
             NaN             NaN             NaN
             NaN             NaN             NaN
             NaN             NaN             NaN
             NaN             NaN             NaN
             NaN             NaN             NaN
             NaN             NaN             NaN
             NaN             NaN             NaN
             NaN             NaN             NaN
             NaN             NaN             NaN
             NaN             NaN             NaN
             NaN             NaN             NaN
             NaN             NaN             NaN
             NaN             NaN             NaN
             NaN             NaN             NaN
             NaN             NaN             NaN
