Ca V  Si O 
1.0
       10.7091407776         0.0000000000         0.0000000000
        2.7894835637        13.3443609090         0.0000000000
       -2.5649817395         0.7023707070        13.3258254625
   Ca    V   Si    O
   15   16   32   96
Direct
     0.550824702         0.648419917         0.351584464
     0.050824691         0.148419902         0.351584464
     0.050824691         0.648419917         0.351584464
     0.550824702         0.148419902         0.351584464
     0.300819129         0.148389384         0.851554215
     0.300819129         0.648389399         0.851554215
     0.800819159         0.148389384         0.851554215
     0.800819159         0.648389399         0.851554215
     0.199208692         0.351579428         0.148416728
     0.199208692         0.851579428         0.148416728
     0.699208677         0.851579428         0.148416728
     0.449203819         0.351614445         0.648452580
     0.449203819         0.851614475         0.648452580
     0.949203849         0.351614445         0.648452580
     0.949203849         0.851614475         0.648452580
     0.148091480         0.453815609         0.546238184
     0.148091480         0.953815579         0.546238184
     0.648091495         0.453815609         0.546238184
     0.648091495         0.953815579         0.546238184
     0.101885624         0.046173334         0.953748584
     0.101885624         0.546173334         0.953748584
     0.601885617         0.046173334         0.953748584
     0.601885617         0.546173334         0.953748584
     0.398103446         0.453786194         0.046197306
     0.398103446         0.953786194         0.046197306
     0.898103476         0.453786194         0.046197306
     0.898103476         0.953786194         0.046197306
     0.351857066         0.046188522         0.453773201
     0.351857066         0.546188533         0.453773201
     0.851857066         0.046188522         0.453773201
     0.851857066         0.546188533         0.453773201
     0.224937737         0.098647654         0.189955965
     0.224937737         0.598647654         0.189955965
     0.724937737         0.098647654         0.189955965
     0.724937737         0.598647654         0.189955965
     0.474917918         0.098615520         0.689957917
     0.474917918         0.598615527         0.689957917
     0.974917889         0.098615520         0.689957917
     0.974917889         0.598615527         0.689957917
     0.429296941         0.189926565         0.098633811
     0.429296941         0.689926565         0.098633811
     0.929296970         0.189926565         0.098633811
     0.929296970         0.689926565         0.098633811
     0.179356277         0.189910382         0.598658264
     0.179356277         0.689910412         0.598658264
     0.679356277         0.189910382         0.598658264
     0.679356277         0.689910412         0.598658264
     0.320613176         0.310098499         0.401255190
     0.320613176         0.810098529         0.401255190
     0.820613146         0.310098499         0.401255190
     0.820613146         0.810098529         0.401255190
     0.070666142         0.310078532         0.901274323
     0.070666142         0.810078502         0.901274323
     0.570666134         0.310078532         0.901274323
     0.570666134         0.810078502         0.901274323
     0.025103291         0.401314944         0.310098559
     0.025103291         0.901314974         0.310098559
     0.525103271         0.401314944         0.310098559
     0.525103271         0.901314974         0.310098559
     0.275048077         0.401336819         0.810074627
     0.275048077         0.901336789         0.810074627
     0.775048077         0.401336819         0.810074627
     0.775048077         0.901336789         0.810074627
     0.024158815         0.485013366         0.394257724
     0.024158815         0.985013366         0.394257724
     0.524158835         0.485013366         0.394257724
     0.524158835         0.985013366         0.394257724
     0.274161667         0.485056877         0.894308150
     0.274161667         0.985056877         0.894308150
     0.774161696         0.485056877         0.894308150
     0.774161696         0.985056877         0.894308150
     0.225843623         0.014953962         0.105687521
     0.225843623         0.514953971         0.105687521
     0.725843608         0.014953962         0.105687521
     0.725843608         0.514953971         0.105687521
     0.475842953         0.014933780         0.605663836
     0.475842953         0.514933765         0.605663836
     0.975842953         0.014933780         0.605663836
     0.975842953         0.514933765         0.605663836
     0.319548160         0.394237041         0.485050261
     0.319548160         0.894237041         0.485050261
     0.819548130         0.394237041         0.485050261
     0.819548130         0.894237041         0.485050261
     0.069554113         0.394312263         0.985083818
     0.069554113         0.894312263         0.985083818
     0.569554090         0.394312263         0.985083818
     0.569554090         0.894312263         0.985083818
     0.430478007         0.105731361         0.014948541
     0.430478007         0.605731368         0.014948541
     0.930477977         0.105731361         0.014948541
     0.930477977         0.605731368         0.014948541
     0.180445179         0.105685167         0.514928520
     0.180445179         0.605685174         0.514928520
     0.680445194         0.105685167         0.514928520
     0.680445194         0.605685174         0.514928520
     0.366635680         0.304121017         0.059964519
     0.366635680         0.804121017         0.059964519
     0.866635680         0.304121017         0.059964519
     0.866635680         0.804121017         0.059964519
     0.116597019         0.304096669         0.559968710
     0.116597019         0.804096699         0.559968710
     0.616596997         0.304096669         0.559968710
     0.616596997         0.804096699         0.559968710
     0.383368403         0.195949450         0.440030366
     0.383368403         0.695949435         0.440030366
     0.883368373         0.195949450         0.440030366
     0.883368373         0.695949435         0.440030366
     0.133374959         0.195951968         0.940028787
     0.133374959         0.695951939         0.940028787
     0.633374929         0.195951968         0.940028787
     0.633374929         0.695951939         0.940028787
     0.511325657         0.440006107         0.195932984
     0.511325657         0.940006137         0.195932984
     0.011325657         0.440006107         0.195932984
     0.011325657         0.940006137         0.195932984
     0.261310965         0.439994454         0.695892274
     0.261310965         0.939994454         0.695892274
     0.761310935         0.439994454         0.695892274
     0.761310935         0.939994454         0.695892274
     0.238688454         0.059991151         0.304126918
     0.238688454         0.559991121         0.304126918
     0.738688469         0.059991151         0.304126918
     0.738688469         0.559991121         0.304126918
     0.988705456         0.060008626         0.804143012
     0.988705456         0.560008645         0.804143012
     0.488705456         0.060008626         0.804143012
     0.488705456         0.560008645         0.804143012
     0.080133624         0.182414636         0.166639283
     0.080133624         0.682414651         0.166639283
     0.580133617         0.182414636         0.166639283
     0.580133617         0.682414651         0.166639283
     0.330115944         0.182449430         0.666650832
     0.330115944         0.682449460         0.666650832
     0.830115914         0.182449430         0.666650832
     0.830115914         0.682449460         0.666650832
     0.412071019         0.333354980         0.317663997
     0.412071019         0.833354950         0.317663997
     0.912070990         0.333354980         0.317663997
     0.912070990         0.833354950         0.317663997
     0.162087664         0.333345503         0.817595422
     0.162087664         0.833345532         0.817595422
     0.662087679         0.333345503         0.817595422
     0.662087679         0.833345532         0.817595422
     0.337922931         0.166639373         0.182387948
     0.337922931         0.666639388         0.182387948
     0.837922931         0.166639373         0.182387948
     0.837922931         0.666639388         0.182387948
     0.087912582         0.166662186         0.682439566
     0.087912582         0.666662216         0.682439566
     0.587912560         0.166662186         0.682439566
     0.587912560         0.666662216         0.682439566
     0.169887438         0.317628205         0.333376110
     0.169887438         0.817628205         0.333376110
     0.669887424         0.317628205         0.333376110
     0.669887424         0.817628205         0.333376110
     0.419896185         0.317566127         0.833353043
     0.419896185         0.817566156         0.833353043
     0.919896185         0.317566127         0.833353043
     0.919896185         0.817566156         0.833353043
