Ca Cr P  O 
 1.0000000000000000
     8.1837060000000008    0.0000000000000000    0.0000000000000000
     0.0000000000000000    4.8683280000000000    0.0000000000000000
     0.0000000000000000    2.2159049999999998    6.6423709999999998
 Ca  Cr  P   O  
   2   2   4  14
Cartesian
  6.7000447577919564  4.3207256438307695  1.6880737139480564
  2.6081917577919627  2.7635073561692236  4.9542972860519479
  6.2404252720461750  2.8157643468029496  5.0511326042050593
  2.1485722720461840  4.2684686531970408  1.5912383957949552
  0.4759788647626048  4.1397891860912637  6.8438988999824719
  4.5678318647626099  2.9444438139087241 -0.2015278999824789
  8.0526343261343616  5.2962299829689572  4.1533090855693988
  3.9607813261343794  1.7880030170310344  2.4890619144306014
  0.7460377041221774  4.4810493708068391  5.2523691639282255
  4.8378907041221817  2.6031836291931616  1.3900018360717683
  0.4798762627642612  3.2547516635996949  0.9465741801259057
  4.5717292627642747  3.8294813364002871  5.6957968198740954
  2.6136343564273345  2.5259934559560469  2.6132359316341294
  6.7054873564273239  4.5582395440439250  4.0291350683658846
  4.6718661152917491  1.9368322434864571  3.8053323955544882
  0.5800131152917140  5.1474007565135480  2.8370386044455049
  3.9176418119266376  5.2061361777529704  2.0185496308812030
  8.0094948119266114  1.8780968222470216  4.6238213691188035
  3.2193102282803356  3.6126611810290563 -0.3934391060188089
  7.3111632282803267  3.4715718189709270  7.0358101060187819
  5.7840004479583884  6.0575914719861998  6.2574895482611765
  1.6921474479583840  1.0266415280137910  0.3848814517388181
