Ca2 Cr2 P4 O14
1.0
   8.1837060000000008    0.0000000000000000    0.0000000000000000
   0.0000000000000000    4.8683280000000000    0.0000000000000000
   0.0000000000000000    2.2159049999999998    6.6423709999999998
Ca Cr P O
2 2 4 14
direct
   0.8858940000000000    0.8209379999999999    0.1746120000000000 Ca
   0.3858939999999990    0.1790620000000000    0.8253880000000000 Ca
   0.7486309999999990    0.2149490000000000    0.7711939999999990 Cr
   0.2486310000000000    0.7850509999999991    0.2288059999999990 Cr
   0.0682170000000000    0.3985630000000000    0.9776960000000000 P
   0.5682170000000000    0.6014370000000000    0.0223039999999990 P
   0.9652930000000000    0.7845230000000000    0.5865200000000000 P
   0.4652929999999990    0.2154770000000000    0.4134800000000000 P
   0.0984800000000000    0.5933470000000000    0.7470450000000000 O
   0.5984800000000000    0.4066530000000000    0.2529550000000000 O
   0.0686610000000000    0.5982480000000000    0.1081329999999990 O
   0.5686610000000000    0.4017520000000000    0.8918670000000000 O
   0.3150700000000000    0.4021079999999990    0.4166149999999990 O
   0.8150700000000001    0.5978920000000000    0.5833849999999990 O
   0.5552450000000000    0.1354400000000000    0.6156140000000000 O
   0.0552449999999990    0.8645600000000001    0.3843860000000000 O
   0.4252200000000000    0.9485720000000000    0.3544239999999990 O
   0.9252200000000000    0.0514279999999990    0.6455759999999990 O
   0.4014749999999990    0.7515000000000001    0.0103600000000000 O
   0.9014749999999990    0.2485000000000000    0.9896400000000001 O
   0.7101149999999991    0.8173269999999990    0.9811200000000001 O
   0.2101150000000000    0.1826730000000000    0.0188800000000000 O
