Ca V  P  O 
1.0
       10.5155344009         0.0000000000         0.0000000000
        0.0000067011         7.1892080307         0.0000000000
        0.0000045097         3.2146597663         7.8328516334
   Ca    V    P    O
    3    4    8   28
Direct
     0.779880464         0.377683431         0.106624328
     0.220121413         0.622315228         0.893376350
     0.279885232         0.622316003         0.393373847
     0.605949461         0.738048673         0.747141242
     0.894047678         0.738043547         0.247150570
     0.105952993         0.261958748         0.752852619
     0.394053161         0.261953354         0.252857298
     0.850239992         0.968488634         0.797083080
     0.649795592         0.968551755         0.297066599
     0.911370695         0.639909148         0.691148520
     0.588634849         0.639869750         0.191115469
     0.411341488         0.360116035         0.808921456
     0.088634714         0.360086828         0.308897585
     0.350232780         0.031477481         0.702881992
     0.149759799         0.031539835         0.202897966
     0.709692001         0.006853725         0.739528358
     0.874685764         0.822083712         0.977142572
     0.411794662         0.823714674         0.753191948
     0.916850746         0.870973587         0.669874251
     0.790322721         0.006859735         0.239519283
     0.625296712         0.822013497         0.477241516
     0.611902416         0.622900009         0.020125572
     0.088202246         0.823706686         0.253190964
     0.583130419         0.870939374         0.169828698
     0.792202830         0.543767631         0.803117633
     0.888092458         0.622888327         0.520093679
     0.037278093         0.545295477         0.773423731
     0.537301779         0.454710394         0.726554751
     0.707799792         0.543785393         0.303110689
     0.292202264         0.456216156         0.696887195
     0.462714106         0.545300305         0.273433775
     0.962714255         0.454708248         0.226567790
     0.111904129         0.377108902         0.479876459
     0.207801774         0.456233412         0.196876928
     0.416867375         0.129055783         0.830166578
     0.911791086         0.176263317         0.746818006
     0.388101131         0.377101034         0.979856610
     0.374693722         0.177952319         0.522808671
     0.209668085         0.993137419         0.760486126
     0.083148055         0.129032403         0.330132544
     0.588196635         0.176299021         0.246805876
     0.125307620         0.177921459         0.022845665
     0.290322989         0.993140519         0.260477662
