Ca V  Sn O 
1.0
       19.8980998993         0.0000000000         0.0000000000
      -16.4277395048        11.2278116464         0.0000000000
       -3.2469342734         1.0035852427        12.7814168737
   Ca    V   Sn    O
   17   54   18  144
Direct
     0.659676254         0.673657060         0.462900311
     0.326342940         0.006990419         0.462900311
     0.326342940         0.006990419         0.962900281
     0.326342940         0.340323746         0.962900281
     0.326342940         0.673657060         0.462900311
     0.326342940         0.673657060         0.962900281
     0.659676254         0.006990419         0.462900311
     0.659676254         0.006990419         0.962900281
     0.659676254         0.340323746         0.462900311
     0.659676254         0.340323746         0.962900281
     0.659676254         0.673657060         0.962900281
     0.993009627         0.006990419         0.462900311
     0.993009627         0.006990419         0.962900281
     0.993009627         0.340323746         0.462900311
     0.993009627         0.340323746         0.962900281
     0.993009627         0.673657060         0.462900311
     0.993009627         0.673657060         0.962900281
     0.135623574         0.197709784         0.162843481
     0.135623574         0.197709784         0.662843466
     0.135623574         0.531043112         0.162843481
     0.135623574         0.531043112         0.662843466
     0.135623574         0.864376426         0.162843481
     0.135623574         0.864376426         0.662843466
     0.468956918         0.197709784         0.162843481
     0.468956918         0.197709784         0.662843466
     0.468956918         0.531043112         0.162843481
     0.468956918         0.531043112         0.662843466
     0.468956918         0.864376426         0.162843481
     0.468956918         0.864376426         0.662843466
     0.802290261         0.197709784         0.162843481
     0.802290261         0.197709784         0.662843466
     0.802290261         0.531043112         0.162843481
     0.802290261         0.531043112         0.662843466
     0.802290261         0.864376426         0.162843481
     0.802290261         0.864376426         0.662843466
     0.202907205         0.130426154         0.347638607
     0.202907205         0.130426154         0.847638607
     0.202907205         0.463759482         0.347638607
     0.202907205         0.463759482         0.847638607
     0.202907205         0.797092795         0.347638607
     0.202907205         0.797092795         0.847638607
     0.536240518         0.130426154         0.347638607
     0.536240518         0.130426154         0.847638607
     0.536240518         0.463759482         0.347638607
     0.536240518         0.463759482         0.847638607
     0.536240518         0.797092795         0.347638607
     0.536240518         0.797092795         0.847638607
     0.869573891         0.130426154         0.347638607
     0.869573891         0.130426154         0.847638607
     0.869573891         0.463759482         0.347638607
     0.869573891         0.463759482         0.847638607
     0.869573891         0.797092795         0.347638607
     0.869573891         0.797092795         0.847638607
     0.098271996         0.235061347         0.359925181
     0.098271996         0.235061347         0.859925151
     0.098271996         0.568394661         0.359925181
     0.098271996         0.568394661         0.859925151
     0.098271996         0.901728034         0.359925181
     0.098271996         0.901728034         0.859925151
     0.431605339         0.235061347         0.359925181
     0.431605339         0.235061347         0.859925151
     0.431605339         0.568394661         0.359925181
     0.431605339         0.568394661         0.859925151
     0.431605339         0.901728034         0.359925181
     0.431605339         0.901728034         0.859925151
     0.764938653         0.235061347         0.359925181
     0.764938653         0.235061347         0.859925151
     0.764938653         0.568394661         0.359925181
     0.764938653         0.568394661         0.859925151
     0.764938653         0.901728034         0.359925181
     0.764938653         0.901728034         0.859925151
     0.235218480         0.098114900         0.141164169
     0.235218480         0.098114900         0.641164184
     0.235218480         0.431448221         0.141164169
     0.235218480         0.431448221         0.641164184
     0.235218480         0.764781594         0.141164169
     0.235218480         0.764781594         0.641164184
     0.568551838         0.098114900         0.141164169
     0.568551838         0.098114900         0.641164184
     0.568551838         0.431448221         0.141164169
     0.568551838         0.431448221         0.641164184
     0.568551838         0.764781594         0.141164169
     0.568551838         0.764781594         0.641164184
     0.901885152         0.098114900         0.141164169
     0.901885152         0.098114900         0.641164184
     0.901885152         0.431448221         0.141164169
     0.901885152         0.431448221         0.641164184
     0.901885152         0.764781594         0.141164169
     0.901885152         0.764781594         0.641164184
     0.046134222         0.287199140         0.363033861
     0.046134222         0.287199140         0.863033891
     0.046134222         0.620532453         0.363033861
     0.046134222         0.620532453         0.863033891
     0.046134222         0.953865826         0.363033861
     0.046134222         0.953865826         0.863033891
     0.379467547         0.287199140         0.363033861
     0.379467547         0.287199140         0.863033891
     0.379467547         0.620532453         0.363033861
     0.379467547         0.620532453         0.863033891
     0.379467547         0.953865826         0.363033861
     0.379467547         0.953865826         0.863033891
     0.712800860         0.287199140         0.363033861
     0.712800860         0.287199140         0.863033891
     0.712800860         0.620532453         0.363033861
     0.712800860         0.620532453         0.863033891
     0.712800860         0.953865826         0.363033861
     0.712800860         0.953865826         0.863033891
     0.080494292         0.252839029         0.183742702
     0.080494292         0.252839029         0.683742702
     0.080494292         0.586172342         0.183742702
     0.080494292         0.586172342         0.683742702
     0.080494292         0.919505715         0.183742702
     0.080494292         0.919505715         0.683742702
     0.413827628         0.252839029         0.183742702
     0.413827628         0.252839029         0.683742702
     0.413827628         0.586172342         0.183742702
     0.413827628         0.586172342         0.683742702
     0.413827628         0.919505715         0.183742702
     0.413827628         0.919505715         0.683742702
     0.747160971         0.252839029         0.183742702
     0.747160971         0.252839029         0.683742702
     0.747160971         0.586172342         0.183742702
     0.747160971         0.586172342         0.683742702
     0.747160971         0.919505715         0.183742702
     0.747160971         0.919505715         0.683742702
     0.122874163         0.210459188         0.492324710
     0.122874163         0.210459188         0.992324710
     0.122874163         0.543792546         0.492324710
     0.122874163         0.543792546         0.992324710
     0.122874163         0.877125859         0.492324710
     0.122874163         0.877125859         0.992324710
     0.456207484         0.210459188         0.492324710
     0.456207484         0.210459188         0.992324710
     0.456207484         0.543792546         0.492324710
     0.456207484         0.543792546         0.992324710
     0.456207484         0.877125859         0.492324710
     0.456207484         0.877125859         0.992324710
     0.789540827         0.210459188         0.492324710
     0.789540827         0.210459188         0.992324710
     0.789540827         0.543792546         0.492324710
     0.789540827         0.543792546         0.992324710
     0.789540827         0.877125859         0.492324710
     0.789540827         0.877125859         0.992324710
     0.146857396         0.186475992         0.320949793
     0.146857396         0.186475992         0.820949793
     0.146857396         0.519809306         0.320949793
     0.146857396         0.519809306         0.820949793
     0.146857396         0.853142679         0.320949793
     0.146857396         0.853142679         0.820949793
     0.480190724         0.186475992         0.320949793
     0.480190724         0.186475992         0.820949793
     0.480190724         0.519809306         0.320949793
     0.480190724         0.519809306         0.820949793
     0.480190724         0.853142679         0.320949793
     0.480190724         0.853142679         0.820949793
     0.813524067         0.186475992         0.320949793
     0.813524067         0.186475992         0.820949793
     0.813524067         0.519809306         0.320949793
     0.813524067         0.519809306         0.820949793
     0.813524067         0.853142679         0.320949793
     0.813524067         0.853142679         0.820949793
     0.189515591         0.143817753         0.194970563
     0.189515591         0.143817753         0.694970548
     0.189515591         0.477151096         0.194970563
     0.189515591         0.477151096         0.694970548
     0.189515591         0.810484409         0.194970563
     0.189515591         0.810484409         0.694970548
     0.522848904         0.143817753         0.194970563
     0.522848904         0.143817753         0.694970548
     0.522848904         0.477151096         0.194970563
     0.522848904         0.477151096         0.694970548
     0.522848904         0.810484409         0.194970563
     0.522848904         0.810484409         0.694970548
     0.856182277         0.143817753         0.194970563
     0.856182277         0.143817753         0.694970548
     0.856182277         0.477151096         0.194970563
     0.856182277         0.477151096         0.694970548
     0.856182277         0.810484409         0.194970563
     0.856182277         0.810484409         0.694970548
     0.201124012         0.132209331         0.498583436
     0.201124012         0.132209331         0.998583436
     0.201124012         0.465542674         0.498583436
     0.201124012         0.465542674         0.998583436
     0.201124012         0.798875988         0.498583436
     0.201124012         0.798875988         0.998583436
     0.534457326         0.132209331         0.498583436
     0.534457326         0.132209331         0.998583436
     0.534457326         0.465542674         0.498583436
     0.534457326         0.465542674         0.998583436
     0.534457326         0.798875988         0.498583436
     0.534457326         0.798875988         0.998583436
     0.867790699         0.132209331         0.498583436
     0.867790699         0.132209331         0.998583436
     0.867790699         0.465542674         0.498583436
     0.867790699         0.465542674         0.998583436
     0.867790699         0.798875988         0.498583436
     0.867790699         0.798875988         0.998583436
     0.257814109         0.075519256         0.337235123
     0.257814109         0.075519256         0.837235093
     0.257814109         0.408852577         0.337235123
     0.257814109         0.408852577         0.837235093
     0.257814109         0.742185950         0.337235123
     0.257814109         0.742185950         0.837235093
     0.591147423         0.075519256         0.337235123
     0.591147423         0.075519256         0.837235093
     0.591147423         0.408852577         0.337235123
     0.591147423         0.408852577         0.837235093
     0.591147423         0.742185950         0.337235123
     0.591147423         0.742185950         0.837235093
     0.924480796         0.075519256         0.337235123
     0.924480796         0.075519256         0.837235093
     0.924480796         0.408852577         0.337235123
     0.924480796         0.408852577         0.837235093
     0.924480796         0.742185950         0.337235123
     0.924480796         0.742185950         0.837235093
     0.290154666         0.043178696         0.139689058
     0.290154666         0.043178696         0.639689088
     0.290154666         0.376512021         0.139689058
     0.290154666         0.376512021         0.639689088
     0.290154666         0.709845364         0.139689058
     0.290154666         0.709845364         0.639689088
     0.623488009         0.043178696         0.139689058
     0.623488009         0.043178696         0.639689088
     0.623488009         0.376512021         0.139689058
     0.623488009         0.376512021         0.639689088
     0.623488009         0.709845364         0.139689058
     0.623488009         0.709845364         0.639689088
     0.956821322         0.043178696         0.139689058
     0.956821322         0.043178696         0.639689088
     0.956821322         0.376512021         0.139689058
     0.956821322         0.376512021         0.639689088
     0.956821322         0.709845364         0.139689058
     0.956821322         0.709845364         0.639689088
