Ca Sc Mn O 
 1.0000000000000000
    11.5374555587999996    0.0000000000000000    0.0000000000000000
    -8.6585401879999999    7.6251270536000000    0.0000000000000000
     0.0000000000000000    0.0000000000000000   10.1281061171999998
 Ca  Sc  Mn  O  
   7   8  16  40
Selective dynamics
Cartesian
  0.9291479521120886  1.7935173142675251  5.9491528992958225   T   T   T
 -3.6748734650626349  5.7357765865313670  2.5206701078917733   T   T   T
  6.4160181317364158  1.9376888916040635  2.5224540407489942   T   T   T
  2.0044279373156217  5.7962689151224840  2.5966791594781435   T   T   T
 -3.5079427256643410  5.6784555966737909  7.5872333826745617   T   T   T
  6.5787731650626391  1.8709608146544392  7.5867901630874766   T   T   T
  2.2948758577940929  5.6749953334810259  7.4929885884080418   T   T   T
  3.5396341696361677  0.8486858749395166  2.5252651930110814   T   T   T
 -0.6889672004410078  4.4733281250102994  2.4904891781601770   T   T   T
  9.4919895869676818  0.9209930465868147  2.4937321049574770   T   T   T
  5.0373784591768453  4.6239967177904946  2.4699154793369074   T   T   T
 -2.1162826343338175  2.9799287056071391  7.6236939178196739   T   T   T
 -6.4755353513062852  6.8655090150408506  7.6634666374384253   T   T   T
  3.5567309423222726  2.9370206732036581  7.6671264594580268   T   T   T
 -0.7346382364112908  6.8089854509521661  7.6660508241365450   T   T   T
  4.3923869227163781  0.5216142395366552  5.6222529495073106   T   T   T
 -0.2098880355262343  4.5281294510546282  5.5632367577152850   T   T   T
  9.7708582386880263  0.5926286737761047  5.5742505098807689   T   T   T
  5.7930615389488924  4.3415739547561349  5.7130603258185788   T   T   T
  4.3943116393717307  0.5187114338636565  9.6817408510631360   T   T   T
  0.1384633102463583  4.2818611852719561  9.5119611625710245   T   T   T
 10.2480901335529797  0.5144049761471520  9.5161835094211344   T   T   T
  5.7451974665976078  4.3616440671260044  9.4846188574633263   T   T   T
 -2.9275315614014485  3.2840497972175595  0.4927835423911360   T   T   T
 -7.3616415506396358  7.1785652622952902  0.6039965461027239   T   T   T
  2.7263320620782703  3.2948439163086345  0.6287357951470545   T   T   T
 -1.3857249617661405  7.0578735876578831  0.6772084471490654   T   T   T
 -3.0127835239064091  3.3183513670897522  4.5116984161759701   T   T   T
 -7.0644687173420913  6.9630873898116246  4.4355646892559770   T   T   T
  2.9544363895157666  3.3243471733860632  4.4506431786604992   T   T   T
 -1.5105123579586341  7.1023225421193850  4.4240603031153585   T   T   T
  5.2161644540182071  0.2041078140357150  1.3705525869038906   T   T   T
  0.8875716089094111  4.1624800469575556  1.2589707400924757   T   T   T
 10.8953276105886463  0.1167794901580088  1.2697563789304234   T   T   T
  6.5529267041453458  4.0635415578355536  1.1655754500332276   T   T   T
  5.1708402830162186  0.2273093575233524  3.8307629725208110   T   T   T
  0.7720347676451510  4.1289846488179966  3.9401160075081569   T   T   T
 10.7564289275356764  0.2377086411276077  3.9851558833572147   T   T   T
  6.5664998044587630  4.0535120780312059  3.8499294461356928   T   T   T
  2.5072317049207591  1.1314254558100660  4.4198202902217902   T   T   T
 -1.9168046476090816  5.1697930579283433  4.2118015916499232   T   T   T
  8.0884981666378462  1.2119888940238193  4.2059210789554111   T   T   T
  3.8136524521835460  5.1732429167181486  4.1435826278219405   T   T   T
  2.6348777944058659  1.1802188139389445  0.6789479191943659   T   T   T
 -1.9467447007781764  5.1903947530950809  0.8763628038792494   T   T   T
  8.0753057113647486  1.2087944050744992  0.8771606527242991   T   T   T
  3.7821068390933945  5.1151499457060314  0.9296227530769636   T   T   T
 -2.1553138464332178  2.9960774348717281  2.5253748861330427   T   T   T
 -6.1209493247210185  6.6782279997880361  2.6728209819046871   T   T   T
  3.9579578175711481  2.8504533951634690  2.6230555753694680   T   T   T
 -0.4448756361755749  6.7017056605954579  2.4780912483535831   T   T   T
 -3.7616237966208623  3.5954238469520043  6.3349851104089208   T   T   T
 -7.8913599925915214  7.2105915199308459  6.1627280237992013   T   T   T
  2.1657363959019458  3.6226655675634296  6.2583144383559786   T   T   T
 -2.2793224520976652  7.3946422518119661  6.3034691247263739   T   T   T
 -1.1444953557102171  2.5580145454974041  5.7511312885493089   T   T   T
 -5.2260834256104136  6.2221708432245544  5.9433217228747690   T   T   T
  4.9069092369816207  2.6019579938911890  5.9422088603131211   T   T   T
  0.5086086377211987  6.3892325309596387  5.9465304954139029   T   T   T
  3.4197503128838487  0.8854866113065265  7.4715252789217663   T   T   T
 -1.1149856674715526  4.7721384250641465  7.4359550726908266   T   T   T
  8.9698013152247249  0.9735542955432798  7.4183166673218945   T   T   T
  4.7768629580359585  4.7258220371950310  7.6386556562574839   T   T   T
 -3.7488844242142894  3.5909435905106886  8.8254950914381389   T   T   T
 -8.0858923923691872  7.3183996380630569  8.8256268065678398   T   T   T
  2.0939854335735872  3.6756459627745324  8.8844884050118225   T   T   T
 -2.2164704639819308  7.3715336808068352  9.0032044941210803   T   T   T
 -1.1451557267427293  2.6079361836819626  9.4118973397930308   T   T   T
 -5.2053025549409959  6.2415529785074115  9.2370071764575581   T   T   T
  4.9377327028326761  2.5664964808875101  9.2372044084746481   T   T   T
  0.5770814819455053  6.3232843611649674  9.1550347760034079   T   T   T
