Ca V  P  O 
1.0
       17.7431240082         0.0000000000         0.0000000000
        8.2995509512        15.6983498646         0.0000000000
        0.0684511726         5.3925844435         7.4823675288
   Ca    V    P    O
   15   16   24   96
Direct
     0.362038523         0.375346601         0.558404982
     0.362038523         0.875346601         0.558404982
     0.862038493         0.375346601         0.558404982
     0.862038493         0.875346601         0.558404982
     0.092130773         0.415357471         0.947025776
     0.092130773         0.915357471         0.947025776
     0.592130780         0.415357471         0.947025776
     0.592130780         0.915357471         0.947025776
     0.405647635         0.084513165         0.057264008
     0.405647635         0.584513187         0.057264008
     0.905647635         0.084513165         0.057264008
     0.905647635         0.584513187         0.057264008
     0.137460500         0.126134112         0.439896792
     0.637460470         0.126134112         0.439896792
     0.637460470         0.626134098         0.439896792
     0.317347646         0.358012795         0.932832539
     0.317347646         0.858012795         0.932832539
     0.817347646         0.358012795         0.932832539
     0.817347646         0.858012795         0.932832539
     0.426482052         0.148460016         0.566765368
     0.426482052         0.648460031         0.566765368
     0.926482081         0.148460016         0.566765368
     0.926482081         0.648460031         0.566765368
     0.073858917         0.351270646         0.433755696
     0.073858917         0.851270676         0.433755696
     0.573858917         0.351270646         0.433755696
     0.573858917         0.851270676         0.433755696
     0.182305515         0.142170787         0.066387080
     0.182305515         0.642170787         0.066387080
     0.682305515         0.142170787         0.066387080
     0.682305515         0.642170787         0.066387080
     0.482364744         0.392383844         0.749064147
     0.482364744         0.892383814         0.749064147
     0.982364774         0.392383844         0.749064147
     0.982364774         0.892383814         0.749064147
     0.259847641         0.267389476         0.729296088
     0.259847641         0.767389476         0.729296088
     0.759847641         0.267389476         0.729296088
     0.759847641         0.767389476         0.729296088
     0.118519902         0.104329675         0.770518124
     0.118519902         0.604329705         0.770518124
     0.618519902         0.104329675         0.770518124
     0.618519902         0.604329705         0.770518124
     0.382016182         0.395300359         0.229313433
     0.382016182         0.895300388         0.229313433
     0.882016182         0.395300359         0.229313433
     0.882016182         0.895300388         0.229313433
     0.240508929         0.232371375         0.270658135
     0.240508929         0.732371390         0.270658135
     0.740508914         0.232371375         0.270658135
     0.740508914         0.732371390         0.270658135
     0.017585631         0.107678503         0.251086056
     0.017585631         0.607678533         0.251086056
     0.517585635         0.107678503         0.251086056
     0.517585635         0.607678533         0.251086056
     0.468285590         0.492737561         0.721695900
     0.468285590         0.992737532         0.721695900
     0.968285561         0.492737561         0.721695900
     0.968285561         0.992737532         0.721695900
     0.989084244         0.388730884         0.584798336
     0.989084244         0.888730884         0.584798336
     0.489084244         0.388730884         0.584798336
     0.489084244         0.888730884         0.584798336
     0.396924049         0.390018016         0.778034687
     0.396924049         0.890017986         0.778034687
     0.896924019         0.390018016         0.778034687
     0.896924019         0.890017986         0.778034687
     0.355637103         0.196243852         0.728807211
     0.355637103         0.696243882         0.728807211
     0.855637074         0.196243852         0.728807211
     0.855637074         0.696243882         0.728807211
     0.254809946         0.195660114         0.915638983
     0.254809946         0.695660114         0.915638983
     0.754809976         0.195660114         0.915638983
     0.754809976         0.695660114         0.915638983
     0.263651669         0.355809927         0.721914172
     0.263651669         0.855809927         0.721914172
     0.763651669         0.355809927         0.721914172
     0.763651669         0.855809927         0.721914172
     0.147406191         0.101832047         0.926796496
     0.147406191         0.601832032         0.926796496
     0.647406220         0.101832047         0.926796496
     0.647406220         0.601832032         0.926796496
     0.191660911         0.011646512         0.766504884
     0.191660911         0.511646509         0.766504884
     0.691660881         0.011646512         0.766504884
     0.691660881         0.511646509         0.766504884
     0.405730903         0.295659691         0.415645689
     0.405730903         0.795659661         0.415645689
     0.905730903         0.295659691         0.415645689
     0.905730903         0.795659661         0.415645689
     0.465987325         0.405039847         0.220980868
     0.465987325         0.905039847         0.220980868
     0.965987325         0.405039847         0.220980868
     0.965987325         0.905039847         0.220980868
     0.069109738         0.303679526         0.912101209
     0.069109738         0.803679526         0.912101209
     0.569109738         0.303679526         0.912101209
     0.569109738         0.803679526         0.912101209
     0.315908313         0.185532391         0.424862295
     0.315908313         0.685532391         0.424862295
     0.815908313         0.185532391         0.424862295
     0.815908313         0.685532391         0.424862295
     0.184845433         0.314441711         0.574062645
     0.184845433         0.814441681         0.574062645
     0.684845448         0.314441711         0.574062645
     0.684845448         0.814441681         0.574062645
     0.430584639         0.196168080         0.088546447
     0.430584639         0.696168065         0.088546447
     0.930584669         0.196168080         0.088546447
     0.930584669         0.696168065         0.088546447
     0.035008762         0.093887284         0.778598249
     0.035008762         0.593887269         0.778598249
     0.535008788         0.093887284         0.778598249
     0.535008788         0.593887269         0.778598249
     0.093838170         0.204795107         0.584486902
     0.093838170         0.704795122         0.584486902
     0.593838155         0.204795107         0.584486902
     0.593838155         0.704795122         0.584486902
     0.309385896         0.489355505         0.231219530
     0.309385896         0.989355505         0.231219530
     0.809385896         0.489355505         0.231219530
     0.809385896         0.989355505         0.231219530
     0.352888018         0.397548914         0.073685728
     0.352888018         0.897548914         0.073685728
     0.852887988         0.397548914         0.073685728
     0.852887988         0.897548914         0.073685728
     0.236891940         0.143950403         0.277396053
     0.236891940         0.643950403         0.277396053
     0.736891925         0.143950403         0.277396053
     0.736891925         0.643950403         0.277396053
     0.243898779         0.305501401         0.083432406
     0.243898779         0.805501401         0.083432406
     0.743898749         0.305501401         0.083432406
     0.743898749         0.805501401         0.083432406
     0.144847408         0.302178264         0.273316383
     0.144847408         0.802178264         0.273316383
     0.644847393         0.302178264         0.273316383
     0.644847393         0.802178264         0.273316383
     0.103060350         0.110027686         0.221479714
     0.103060350         0.610027671         0.221479714
     0.603060365         0.110027686         0.221479714
     0.603060365         0.610027671         0.221479714
     0.510941386         0.111473955         0.415337265
     0.510941386         0.611473978         0.415337265
     0.010941386         0.111473955         0.415337265
     0.010941386         0.611473978         0.415337265
     0.031496558         0.007364450         0.278390914
     0.031496558         0.507364452         0.278390914
     0.531496584         0.007364450         0.278390914
     0.531496584         0.507364452         0.278390914
