Ca Ho Mn O 
1.0
       17.2731094360         0.0000000000         0.0000000000
        0.0000000000         7.3843784332         0.0000000000
        0.0000000000         0.0646684494         8.5467342987
   Ca   Ho   Mn    O
    2    9   24   60
Direct
     0.333333343         0.357813686         0.669886351
     0.000000000         0.357813686         0.669886351
     0.000000000         0.635376513         0.331792653
     0.333333343         0.635376513         0.331792653
     0.666666687         0.635376513         0.331792653
     0.000000000         0.862634242         0.828873754
     0.333333343         0.862634242         0.828873754
     0.666666687         0.862634242         0.828873754
     0.000000000         0.139289260         0.170101553
     0.333333343         0.139289260         0.170101553
     0.666666687         0.139289260         0.170101553
     0.166666672         0.087603971         0.848747611
     0.500000000         0.087603971         0.848747611
     0.833333313         0.087603971         0.848747611
     0.166666672         0.910615563         0.151587874
     0.500000000         0.910615563         0.151587874
     0.833333313         0.910615563         0.151587874
     0.166666672         0.592099309         0.650987327
     0.500000000         0.592099309         0.650987327
     0.833333313         0.592099309         0.650987327
     0.166666672         0.414570421         0.348903984
     0.500000000         0.414570421         0.348903984
     0.833333313         0.414570421         0.348903984
     0.249010399         0.501438498         0.999473691
     0.582343757         0.501438498         0.999473691
     0.915677071         0.501438498         0.999473691
     0.084164023         0.997879922         0.498715311
     0.417497367         0.997879922         0.498715311
     0.750830710         0.997879922         0.498715311
     0.084322929         0.501438498         0.999473691
     0.417656273         0.501438498         0.999473691
     0.750989616         0.501438498         0.999473691
     0.249169305         0.997879922         0.498715311
     0.582502663         0.997879922         0.498715311
     0.915835977         0.997879922         0.498715311
     0.000000000         0.340560794         0.945997119
     0.333333343         0.340560794         0.945997119
     0.666666687         0.340560794         0.945997119
     0.000000000         0.663568616         0.059082568
     0.333333343         0.663568616         0.059082568
     0.666666687         0.663568616         0.059082568
     0.000000000         0.834048450         0.555704355
     0.333333343         0.834048450         0.555704355
     0.666666687         0.834048450         0.555704355
     0.000000000         0.158054963         0.439391613
     0.333333343         0.158054963         0.439391613
     0.666666687         0.158054963         0.439391613
     0.252522409         0.092648424         0.707133412
     0.585855722         0.092648424         0.707133412
     0.919189095         0.092648424         0.707133412
     0.253572434         0.892314196         0.291968703
     0.586905777         0.892314196         0.291968703
     0.920239091         0.892314196         0.291968703
     0.082575731         0.618994594         0.797383785
     0.415909052         0.618994594         0.797383785
     0.749242425         0.618994594         0.797383785
     0.079903811         0.390088916         0.207226336
     0.413237154         0.390088916         0.207226336
     0.746570468         0.390088916         0.207226336
     0.079760894         0.892314196         0.291968703
     0.413094223         0.892314196         0.291968703
     0.746427536         0.892314196         0.291968703
     0.080810919         0.092648424         0.707133412
     0.414144248         0.092648424         0.707133412
     0.747477591         0.092648424         0.707133412
     0.253429532         0.390088916         0.207226336
     0.586762846         0.390088916         0.207226336
     0.920096219         0.390088916         0.207226336
     0.250757605         0.618994594         0.797383785
     0.584090948         0.618994594         0.797383785
     0.917424262         0.618994594         0.797383785
     0.166666672         0.352155983         0.925734520
     0.500000000         0.352155983         0.925734520
     0.833333313         0.352155983         0.925734520
     0.166666672         0.648945212         0.078134239
     0.500000000         0.648945212         0.078134239
     0.833333313         0.648945212         0.078134239
     0.166666672         0.844287038         0.563339889
     0.500000000         0.844287038         0.563339889
     0.833333313         0.844287038         0.563339889
     0.166666672         0.150574341         0.430000305
     0.500000000         0.150574341         0.430000305
     0.833333313         0.150574341         0.430000305
     0.241566464         0.507896364         0.496703446
     0.574899793         0.507896364         0.496703446
     0.908233106         0.507896364         0.496703446
     0.090008318         0.002639987         0.002262562
     0.423341662         0.002639987         0.002262562
     0.756675005         0.002639987         0.002262562
     0.091766864         0.507896364         0.496703446
     0.425100207         0.507896364         0.496703446
     0.758433521         0.507896364         0.496703446
     0.243325040         0.002639987         0.002262562
     0.576658368         0.002639987         0.002262562
     0.909991682         0.002639987         0.002262562
