Ba Ca Cr F 
1.0
       11.5289382935         0.0000000000         0.0000000000
        0.0000000000        10.1650962830         0.0000000000
        0.0000000000         0.0000000000        19.5218620300
   Ba   Ca   Cr    F
   15   16   16   96
Direct
     0.125841796         0.224821135         0.312173456
     0.133770928         0.645819128         0.059464831
     0.633770943         0.645819128         0.059464831
     0.366229057         0.145819098         0.940535128
     0.866229057         0.145819098         0.940535128
     0.116229065         0.645819128         0.559464872
     0.616229057         0.645819128         0.559464872
     0.883770943         0.145819098         0.440535188
     0.625841796         0.224821135         0.312173456
     0.374158204         0.724821150         0.687826514
     0.874158204         0.724821150         0.687826514
     0.124158196         0.224821135         0.812173486
     0.624158204         0.224821135         0.812173486
     0.375841796         0.724821150         0.187826559
     0.875841796         0.724821150         0.187826559
     0.373252094         0.359876573         0.109434724
     0.873252094         0.359876573         0.109434724
     0.126747906         0.859876633         0.890565217
     0.626747906         0.859876633         0.890565217
     0.376747906         0.359876573         0.609434724
     0.876747906         0.359876573         0.609434724
     0.123252094         0.859876633         0.390565276
     0.623252094         0.859876633         0.390565276
     0.120416567         0.009998349         0.131903291
     0.620416582         0.009998349         0.131903291
     0.379583418         0.509998381         0.868096709
     0.879583418         0.509998381         0.868096709
     0.129583433         0.009998349         0.631903291
     0.629583418         0.009998349         0.631903291
     0.370416552         0.509998381         0.368096709
     0.870416522         0.509998381         0.368096709
     0.144032612         0.273132771         0.490976542
     0.644032598         0.273132771         0.490976542
     0.355967402         0.773132741         0.509023488
     0.855967402         0.773132741         0.509023488
     0.105967395         0.273132771         0.990976572
     0.605967402         0.273132771         0.990976572
     0.394032598         0.773132741         0.009023443
     0.894032598         0.773132741         0.009023443
     0.117217571         0.603030801         0.241022021
     0.617217541         0.603030801         0.241022021
     0.382782429         0.103030846         0.758977950
     0.882782459         0.103030846         0.758977950
     0.132782429         0.603030801         0.741022050
     0.632782459         0.603030801         0.741022050
     0.367217571         0.103030846         0.258977950
     0.867217541         0.103030846         0.258977950
     0.980091393         0.150462657         0.059763275
     0.480091393         0.150462657         0.059763275
     0.519908667         0.650462627         0.940236747
     0.019908667         0.650462627         0.940236747
     0.269908637         0.150462657         0.559763253
     0.769908667         0.150462657         0.559763253
     0.230091378         0.650462627         0.440236747
     0.730091393         0.650462627         0.440236747
     0.185657471         0.123181805         0.418800116
     0.685657501         0.123181805         0.418800116
     0.314342529         0.623181820         0.581199884
     0.814342499         0.623181820         0.581199884
     0.064342529         0.123181805         0.918800116
     0.564342499         0.123181805         0.918800116
     0.435657501         0.623181820         0.081199907
     0.935657501         0.623181820         0.081199907
     0.243101165         0.165668562         0.032750260
     0.743101180         0.165668562         0.032750260
     0.256898820         0.665668547         0.967249751
     0.756898820         0.665668547         0.967249751
     0.006898838         0.165668562         0.532750249
     0.506898820         0.165668562         0.532750249
     0.493101150         0.665668547         0.467249721
     0.993101120         0.665668547         0.467249721
     0.229602069         0.556754768         0.167083621
     0.729602098         0.556754768         0.167083621
     0.270397931         0.056754768         0.832916439
     0.770397902         0.056754768         0.832916439
     0.020397941         0.556754768         0.667083621
     0.520397961         0.556754768         0.667083621
     0.479602069         0.056754768         0.332916379
     0.979602098         0.056754768         0.332916379
     0.261059582         0.192030787         0.193573594
     0.761059582         0.192030787         0.193573594
     0.238940403         0.692030787         0.806426406
     0.738940418         0.692030787         0.806426406
     0.488940418         0.192030787         0.693573594
     0.988940418         0.192030787         0.693573594
     0.011059590         0.692030787         0.306426406
     0.511059582         0.692030787         0.306426406
     0.156486019         0.451437443         0.298404008
     0.656486034         0.451437443         0.298404008
     0.343513966         0.951437414         0.701596022
     0.843513966         0.951437414         0.701596022
     0.093513981         0.451437443         0.798403978
     0.593513966         0.451437443         0.798403978
     0.406486005         0.951437414         0.201596022
     0.906486034         0.951437414         0.201596022
     0.016276225         0.308636367         0.398675919
     0.516276240         0.308636367         0.398675919
     0.483723789         0.808636427         0.601324081
     0.983723760         0.808636427         0.601324081
     0.233723775         0.308636367         0.898675859
     0.733723760         0.308636367         0.898675859
     0.266276211         0.808636427         0.101324074
     0.766276240         0.808636427         0.101324074
     0.001635287         0.199689120         0.219204679
     0.501635313         0.199689120         0.219204679
     0.498364717         0.699689090         0.780795336
     0.998364687         0.699689090         0.780795336
     0.248364702         0.199689120         0.719204664
     0.748364687         0.199689120         0.719204664
     0.251635283         0.699689090         0.280795306
     0.751635313         0.699689090         0.280795306
     0.308188885         0.354474306         0.470845252
     0.808188915         0.354474306         0.470845252
     0.191811100         0.854474247         0.529154778
     0.691811085         0.854474247         0.529154778
     0.441811085         0.354474306         0.970845222
     0.941811085         0.354474306         0.970845222
     0.058188904         0.854474247         0.029154772
     0.558188915         0.854474247         0.029154772
     0.075432181         0.747370422         0.176252499
     0.575432181         0.747370422         0.176252499
     0.424567819         0.247370437         0.823747456
     0.924567819         0.247370437         0.823747456
     0.174567819         0.747370422         0.676252544
     0.674567819         0.747370422         0.676252544
     0.325432181         0.247370437         0.323747486
     0.825432181         0.247370437         0.323747486
     0.143602058         0.422532856         0.058333360
     0.643602073         0.422532856         0.058333360
     0.356397957         0.922532856         0.941666663
     0.856397986         0.922532856         0.941666663
     0.106397934         0.422532856         0.558333337
     0.606397927         0.422532856         0.558333337
     0.393602073         0.922532856         0.441666633
     0.893602073         0.922532856         0.441666633
     0.219470888         0.016683118         0.287031680
     0.719470859         0.016683118         0.287031680
     0.280529112         0.516683102         0.712968290
     0.780529141         0.516683102         0.712968290
     0.030529117         0.016683118         0.787031710
     0.530529141         0.016683118         0.787031710
     0.469470888         0.516683102         0.212968320
     0.969470859         0.516683102         0.212968320
