Ca V  S  O  F                           
   1.00000000000000     
     7.1725635528999998    0.0000000000000000    0.0000000000000000
     0.3049279942000000    7.8739067344000002    0.0000000000000000
     0.3193050896000000    0.2618833392000000   10.7378266451000002
   Ca   V    S    O    F 
     3     4     4    16    12
Selective dynamics
Direct
  0.8310379780492525  0.8386824164139952  0.7209873966097291   T   T   T
  0.1450202855379032  0.1564078199183285  0.2631845970072035   T   T   T
  0.6906543831397869  0.8202450510741741  0.2704809304595130   T   T   T
  0.0155669899354152  0.5091156258191134  0.4930491257965670   T   T   T
  0.9854734729329238  0.9888731626428608  0.9935307439863266   T   T   T
  0.5098128358486278  0.5236526189646113  0.4980402019225352   T   T   T
  0.4852038639606988  0.9762592735809079  0.9927039643072959   T   T   T
  0.2495951738456768  0.3194895188724161  0.0087442203578121   T   T   T
  0.2277096027619905  0.8511024011539234  0.5067960717116335   T   T   T
  0.7630788679391358  0.1761981669381072  0.4901540305784735   T   T   T
  0.7625157913063205  0.6431817868499223  0.0246176941043572   T   T   T
  0.0792908623721473  0.2019705229476045  0.0431868767365060   T   T   T
  0.1068450744288327  0.7293393795344016  0.4377038430754681   T   T   T
  0.1939728159791585  0.4518388546152039  0.9232900435757543   T   T   T
  0.1210073537026943  0.9142080018279799  0.6144009401958499   T   T   T
  0.3113534787292664  0.3636087808795736  0.1318797835577996   T   T   T
  0.2806104376610463  0.9854547830746938  0.4166814999379440   T   T   T
  0.3988272554352434  0.2011032866351030  0.9479699129459220   T   T   T
  0.4024346755530601  0.7558428026887043  0.5469572733884220   T   T   T
  0.5962469947748019  0.2921787414920587  0.4583051889583487   T   T   T
  0.5888075637157328  0.7579797201990104  0.0625434918312493   T   T   T
  0.7056708881087133  0.0477230213455897  0.5822449722454266   T   T   T
  0.7144745689145537  0.5089240358609004  0.9463795683456837   T   T   T
  0.8309235140716709  0.0945497663581349  0.3728147979137120   T   T   T
  0.8457825973674460  0.6014046849885304  0.1450341935537125   T   T   T
  0.9113141961909648  0.2815254453089793  0.5418697242989552   T   T   T
  0.8921321064761116  0.7643999617974728  0.9481219218391530   T   T   T
  0.9635634577631578  0.0472244976216700  0.8278947855293950   T   T   T
  0.9667951695061845  0.5894345153009439  0.6521572877443376   T   T   T
  0.2699579686699849  0.4279836533520225  0.5274961496743487   T   T   T
  0.2366054908396720  0.8930663835816546  0.9793101906370083   T   T   T
  0.4352027535694774  0.0097712655908353  0.1706120585728357   T   T   T
  0.4777528540063898  0.6072570155537278  0.3356813251910538   T   T   T
  0.5875458792544919  0.5186625652938943  0.6537667207158577   T   T   T
  0.5582753159265366  0.9104157049546799  0.8331482452484593   T   T   T
  0.7289637529839439  0.0722231831985027  0.0228228668939465   T   T   T
  0.7659557537857893  0.6193489881360463  0.4487939653130866   T   T   T
  0.0508013653060857  0.4155454782085428  0.3361909392243589   T   T   T
  0.9747465026491327  0.9327859764251869  0.1723119370140012   T   T   T
 
  0.00000000E+00  0.00000000E+00  0.00000000E+00
  0.00000000E+00  0.00000000E+00  0.00000000E+00
  0.00000000E+00  0.00000000E+00  0.00000000E+00
  0.00000000E+00  0.00000000E+00  0.00000000E+00
  0.00000000E+00  0.00000000E+00  0.00000000E+00
  0.00000000E+00  0.00000000E+00  0.00000000E+00
  0.00000000E+00  0.00000000E+00  0.00000000E+00
  0.00000000E+00  0.00000000E+00  0.00000000E+00
  0.00000000E+00  0.00000000E+00  0.00000000E+00
  0.00000000E+00  0.00000000E+00  0.00000000E+00
  0.00000000E+00  0.00000000E+00  0.00000000E+00
  0.00000000E+00  0.00000000E+00  0.00000000E+00
  0.00000000E+00  0.00000000E+00  0.00000000E+00
  0.00000000E+00  0.00000000E+00  0.00000000E+00
  0.00000000E+00  0.00000000E+00  0.00000000E+00
  0.00000000E+00  0.00000000E+00  0.00000000E+00
  0.00000000E+00  0.00000000E+00  0.00000000E+00
  0.00000000E+00  0.00000000E+00  0.00000000E+00
  0.00000000E+00  0.00000000E+00  0.00000000E+00
  0.00000000E+00  0.00000000E+00  0.00000000E+00
  0.00000000E+00  0.00000000E+00  0.00000000E+00
  0.00000000E+00  0.00000000E+00  0.00000000E+00
  0.00000000E+00  0.00000000E+00  0.00000000E+00
  0.00000000E+00  0.00000000E+00  0.00000000E+00
  0.00000000E+00  0.00000000E+00  0.00000000E+00
  0.00000000E+00  0.00000000E+00  0.00000000E+00
  0.00000000E+00  0.00000000E+00  0.00000000E+00
  0.00000000E+00  0.00000000E+00  0.00000000E+00
  0.00000000E+00  0.00000000E+00  0.00000000E+00
  0.00000000E+00  0.00000000E+00  0.00000000E+00
  0.00000000E+00  0.00000000E+00  0.00000000E+00
  0.00000000E+00  0.00000000E+00  0.00000000E+00
  0.00000000E+00  0.00000000E+00  0.00000000E+00
  0.00000000E+00  0.00000000E+00  0.00000000E+00
  0.00000000E+00  0.00000000E+00  0.00000000E+00
  0.00000000E+00  0.00000000E+00  0.00000000E+00
  0.00000000E+00  0.00000000E+00  0.00000000E+00
  0.00000000E+00  0.00000000E+00  0.00000000E+00
  0.00000000E+00  0.00000000E+00  0.00000000E+00
