Ca Co P  O 
1.0
        8.0040798187         0.0000000000         0.0000000000
        0.0000009889         7.4266791344         0.0000000000
        0.0000000000         3.5801547238         9.1197954978
   Ca   Co    P    O
    3    4    8   28
Direct
     0.491621584         0.268648803         0.734878957
     0.991621017         0.731352091         0.765121043
     0.008369539         0.268641949         0.234885350
     0.990408003         0.745036125         0.247367784
     0.490407765         0.254964530         0.252634227
     0.009582039         0.254966676         0.752618074
     0.509584129         0.745035887         0.747382283
     0.732320368         0.346331149         0.962301135
     0.267746329         0.653791249         0.037644085
     0.248183638         0.070264377         0.042711828
     0.251819819         0.070342436         0.542764306
     0.232330129         0.653653204         0.537700951
     0.751789093         0.929672658         0.957238078
     0.748212337         0.929693997         0.457245618
     0.767706335         0.346229881         0.462368280
     0.091918252         0.597314060         0.104200058
     0.229779467         0.685832381         0.374305725
     0.237579584         0.193343028         0.878948748
     0.262415290         0.193354696         0.378932238
     0.770210624         0.314202130         0.625582635
     0.889339387         0.872891963         0.378376305
     0.314242393         0.856399417         0.056421686
     0.906891644         0.470428228         0.367934823
     0.814252257         0.143585667         0.443577051
     0.406866878         0.529591084         0.132049069
     0.408141881         0.597296000         0.604222000
     0.737579286         0.806653261         0.621063888
     0.685743690         0.143473893         0.943571866
     0.110651977         0.127108321         0.621620595
     0.729781210         0.314168096         0.125691682
     0.419443995         0.039518576         0.624129474
     0.908143640         0.402705342         0.895777643
     0.919469953         0.960479379         0.875860572
     0.270204544         0.685792029         0.874426126
     0.185738519         0.856531084         0.556429684
     0.389378399         0.127133951         0.121649556
     0.591918051         0.402684122         0.395797163
     0.093075164         0.529516160         0.632090032
     0.593076646         0.470483303         0.867910087
     0.580509603         0.960444629         0.375849068
     0.080503501         0.039566271         0.124152906
     0.762419403         0.806635916         0.121079393
     0.610652447         0.872888625         0.878374696
