Ca   V    O                             
   1.00000000000000     
     8.7636278084960093   -0.0073852908964885   -0.0010107319953113
     2.9199891428722502   14.1390717841248001    0.3544623116134290
     2.9384957702948600   -0.3656121604203980   14.0355922253645993
   Ca   V    O 
    11    48    96
Direct
  0.2110190234488002  0.5504821811698444  0.5108627920315302
  0.1772832317490386  0.0127230517760364  0.4488411662476365
  0.2124747678769285  0.9337091126018490  0.9866153595564927
  0.1832132050265028  0.5038084470564168  0.9407796312103995
  0.5096988651840226  0.0146803202050339  0.4480278673064640
  0.4680941617693493  0.0814698925418503  0.0098799128838457
  0.5128712329730176  0.5089167545077659  0.9468950962958833
  0.8445737471221003  0.0115824085703432  0.4474385765258921
  0.8382540566550407  0.9348895610894413  0.9863149458467946
  0.7773887743941877  0.5562675871772123  0.5070657191536198
  0.8442839265717750  0.5139035639446133  0.9490801646179482
  0.2241186960027061  0.0908107330310501  0.2394756862148261
  0.1946777466229360  0.0908011538430919  0.7991106786315173
  0.1994663326713201  0.5968919651690142  0.2833434603100990
  0.2242075797562725  0.5885910237013772  0.7366099361444821
  0.5511558345779098  0.0906933218691001  0.2391389677455900
  0.5321292339675938  0.0950260738785612  0.7878079356874192
  0.5426494689457901  0.5962900753559788  0.2889636582950905
  0.5636469136629547  0.5864830956972873  0.7376032881324587
  0.8884428743024133  0.0879654672044895  0.2385661422304014
  0.8765062583818251  0.0915070673197451  0.7968150367984784
  0.8740453159585057  0.5986408003376847  0.2822367116457984
  0.8850030106419735  0.5858284742534999  0.7372952164704351
  0.0433719355575079  0.2597094036279620  0.0989655474506216
  0.0673577318050820  0.2024134481027239  0.5982102053604799
  0.0670293317970544  0.7157687258663914  0.0904562926963765
  0.0392947599917480  0.7615508668292952  0.5910061953633894
  0.3723554802222566  0.2767387746957835  0.0979678099811466
  0.3909940542775754  0.2038805653367119  0.5977856409904414
  0.3985225552816162  0.7099704617198842  0.0954117480113288
  0.3867494289962680  0.7556785753463749  0.5907297980439672
  0.7129301952748138  0.2605707079565965  0.0999507561361010
  0.7225539443866441  0.2040246030048284  0.6004187461356251
  0.7264610317755025  0.7128085942230054  0.0934276655381456
  0.7175420075552752  0.7653883535445133  0.5902628180256508
  0.2793503282762717  0.2474368681561644  0.4067662512344728
  0.2630029994934939  0.2846795577073211  0.9066010744721594
  0.2702199837128685  0.7867210108341426  0.4058936121161739
  0.2894841714177150  0.7336206485294058  0.9053068169978247
  0.6146897872565509  0.2433483459829128  0.4101169089121305
  0.6078888060166755  0.2857744248718789  0.9092587392733910
  0.5980243804800379  0.7877829991684953  0.4057488657954354
  0.6135150004958291  0.7437754809083797  0.9073772362592920
  0.9456452879935882  0.2401737958644961  0.4122426233099445
  0.9301335515056988  0.2891354139733135  0.9105492767053535
  0.9370335063035230  0.7846931229686422  0.4041577537235340
  0.9469200393567202  0.7344579267463650  0.9053215772100709
  0.0945160332033713  0.4151737021785431  0.2653079105402953
  0.1224801241086750  0.3990093076132643  0.7144051591446733
  0.1297665886192430  0.9057002545839323  0.2164774623835844
  0.1124185319368078  0.9037792981769180  0.7566840082563207
  0.4448517310016164  0.4171385258073800  0.2638927932438418
  0.4643700215997250  0.3995952451461892  0.7135031637365384
  0.4593952873064780  0.9050721463560392  0.2095485938217095
  0.4447413793544649  0.9081117615630845  0.7562848924935495
  0.7761922075104745  0.4121062803684506  0.2651987397273570
  0.7961822430349217  0.3954979538563123  0.7114938858493799
  0.7884874707992067  0.9041098760112977  0.2163356438801919
  0.7716731631546961  0.9120208453659749  0.7610717029874653
  0.2723503667998022  0.3474298917041430  0.3298752831915013
  0.2805286043521276  0.3581958332725121  0.7958956136320945
  0.2810502305715719  0.8589074418681859  0.2946352746278062
  0.2770258428045435  0.8466547137195236  0.8301257365210182
  0.6013639301197081  0.3463873400869768  0.3312438790510127
  0.6136326664112868  0.3546241703113358  0.7958581292574420
  0.6144957817128935  0.8582958176175857  0.2933947905881211
  0.6084181915765462  0.8438311440656123  0.8242641961223848
  0.9403737314918887  0.3451433903600460  0.3327327581561229
  0.9467710619923326  0.3554781666638813  0.7954850652869148
  0.9482176403446216  0.8587808138196104  0.2925646285737019
  0.9362169350991844  0.8463310452542971  0.8301882550626399
  0.1615178064949696  0.1703823002593553  0.3500869739613208
  0.1405970768414468  0.2054181002104248  0.8652067790784957
  0.1439753441238868  0.7072221311803972  0.3587496461730077
  0.1579515294662459  0.6720329096459731  0.8457662632530077
  0.4878295754976969  0.1699478371067014  0.3510422975215664
  0.4737534303326285  0.2038720841272521  0.8686686314954720
  0.4763675900541967  0.7082168935358776  0.3593562435864919
  0.4952541792400522  0.6711903992820246  0.8432071458341879
  0.8241729518461740  0.1699300480433980  0.3488236650459478
  0.8092940557640993  0.2044180534959864  0.8657052864777451
  0.8090466453206061  0.7083808856126839  0.3576503403551786
  0.8257434372719149  0.6713521722182269  0.8431040008325345
  0.1636752108124992  0.3293705328759727  0.1624436659458431
  0.1860248165986916  0.2874712165952836  0.6445830019752407
  0.1902213588788182  0.7962484628960602  0.1377802050059282
  0.1733516143035857  0.8195436261987260  0.6580269739082006
  0.5035836477227750  0.3304378520354256  0.1610895508817742
  0.5195503160269448  0.2864918864950988  0.6443180517354199
  0.5194893468043634  0.7928288192993506  0.1398431889646497
  0.5015522582453605  0.8233117143475273  0.6567493201171137
  0.8353319402692215  0.3256703509177095  0.1648399817617215
  0.8549261849758343  0.2840102484479429  0.6434872422491242
  0.8536116379096449  0.7948059926188398  0.1361044586641823
  0.8383273046773227  0.8256949647777951  0.6594881850884555
  0.0529445741105198  0.1548927437409924  0.1795515524621885
  0.0481382011654692  0.1370343138476730  0.7140012556290729
  0.0532446032472627  0.6435134281224899  0.2008751335591726
  0.0582140476632841  0.6479679366486567  0.6705394017146227
  0.3873769483806166  0.1581560621641780  0.1741295291556311
  0.3785544633424823  0.1381298332316302  0.7143399425325979
  0.3821906701999007  0.6396702580761231  0.2062615160873079
  0.3926251302712133  0.6494374810482295  0.6748318913130462
  0.7190408554241982  0.1554871551079164  0.1801085404965056
  0.7168322138157812  0.1362283942113875  0.7167747320916370
  0.7138005754672971  0.6430415390350301  0.2040732934018990
  0.7248302034857816  0.6512932127675460  0.6688774765277877
  0.0577208800237219  0.0176400364058372  0.3094988649573636
  0.0362648341187886  0.0169499202689584  0.8712373766743123
  0.0303256303584676  0.5319450049217732  0.3605928841732875
  0.0531920903710146  0.5167573051826067  0.8084519302865061
  0.3898941900805584  0.0159889515605201  0.3072077449237978
  0.3669506549277290  0.0246204902171060  0.8693696218560111
  0.3669863552536878  0.5318238728417454  0.3568456124602243
  0.3931754074462180  0.5166410945865646  0.8081312433443094
  0.7199144032872178  0.0171492550274940  0.3089010563429277
  0.7007044934070799  0.0233158486679519  0.8688719673706925
  0.7085323318918518  0.5305952611069161  0.3574853978944826
  0.7242648083807369  0.5142178019223427  0.8102376840432235
  0.2550536818599263  0.2094711049834001  0.0246430337600662
  0.2793627413440181  0.1274804128371198  0.5266298119766190
  0.2815395677158387  0.6379539895037679  0.0170892782668937
  0.2554488905114375  0.7021056200154721  0.5199110557784025
  0.5846478975824045  0.2090262494786198  0.0253564062666381
  0.6102425004252153  0.1301590104446588  0.5251575977417581
  0.6121350507906725  0.6376120941385155  0.0187254720405988
  0.5957950266497855  0.7008179881420776  0.5174457842817358
  0.9185515806697847  0.2124941815752288  0.0242829770897537
  0.9464951063681679  0.1302797267162733  0.5236456784453142
  0.9453432169604518  0.6400135584448468  0.0170898296226488
  0.9256189122145498  0.6961042674688069  0.5166406116679980
  0.2666069461299941  0.4784647281486210  0.2110402845502400
  0.2870282487440078  0.4735713824650835  0.6514781194451721
  0.2944248900694325  0.9782931125424167  0.1389118179114057
  0.2661045131120070  0.9801770470224068  0.7115041782084124
  0.6041597832336345  0.4832156386889593  0.2075386614367326
  0.6312023929823599  0.4727073703284523  0.6491340238440172
  0.6243092236543158  0.9778327266375355  0.1400428516060539
  0.6006826654027628  0.9820272967733996  0.7072532843631498
  0.9340118501948775  0.4845577900521117  0.2037129332000207
  0.9560190514307850  0.4725824638085618  0.6471370011617320
  0.9594884274027088  0.9728861418142100  0.1449469877806890
  0.9381644461387797  0.9797070475633353  0.7117244590060888
  0.0768973338219475  0.2859885703291113  0.4856394268907111
  0.0512386153491616  0.3674714800528810  0.9712059017902864
  0.0521325796879979  0.8626768163834694  0.4730770436463930
  0.0721152042300147  0.8031490371340464  0.9778118339406527
  0.4050762805981726  0.2867361537416929  0.4848836315570892
  0.3853572237376613  0.3664218253842375  0.9744807154045296
  0.3862177226154512  0.8642453710959663  0.4726320239467139
  0.4042405884883892  0.7963597960991495  0.9813733900912939
  0.7401876964454682  0.2860906617791913  0.4868121718650462
  0.7180843105757466  0.3687768174610352  0.9723182460259114
  0.7209208515881588  0.8634669427761428  0.4731459535068101
  0.7378071902966381  0.7985614701868715  0.9804040478175878
 
             NaN             NaN             NaN
             NaN             NaN             NaN
             NaN             NaN             NaN
             NaN             NaN             NaN
             NaN             NaN             NaN
             NaN             NaN             NaN
             NaN             NaN             NaN
             NaN             NaN             NaN
             NaN             NaN             NaN
             NaN             NaN             NaN
             NaN             NaN             NaN
             NaN             NaN             NaN
             NaN             NaN             NaN
             NaN             NaN             NaN
             NaN             NaN             NaN
             NaN             NaN             NaN
             NaN             NaN             NaN
             NaN             NaN             NaN
             NaN             NaN             NaN
             NaN             NaN             NaN
             NaN             NaN             NaN
             NaN             NaN             NaN
             NaN             NaN             NaN
             NaN             NaN             NaN
             NaN             NaN             NaN
             NaN             NaN             NaN
             NaN             NaN             NaN
             NaN             NaN             NaN
             NaN             NaN             NaN
             NaN             NaN             NaN
             NaN             NaN             NaN
             NaN             NaN             NaN
             NaN             NaN             NaN
             NaN             NaN             NaN
             NaN             NaN             NaN
             NaN             NaN             NaN
             NaN             NaN             NaN
             NaN             NaN             NaN
             NaN             NaN             NaN
             NaN             NaN             NaN
             NaN             NaN             NaN
             NaN             NaN             NaN
             NaN             NaN             NaN
             NaN             NaN             NaN
             NaN             NaN             NaN
             NaN             NaN             NaN
             NaN             NaN             NaN
             NaN             NaN             NaN
             NaN             NaN             NaN
             NaN             NaN             NaN
             NaN             NaN             NaN
             NaN             NaN             NaN
             NaN             NaN             NaN
             NaN             NaN             NaN
             NaN             NaN             NaN
             NaN             NaN             NaN
             NaN             NaN             NaN
             NaN             NaN             NaN
             NaN             NaN             NaN
             NaN             NaN             NaN
             NaN             NaN             NaN
             NaN             NaN             NaN
             NaN             NaN             NaN
             NaN             NaN             NaN
             NaN             NaN             NaN
             NaN             NaN             NaN
             NaN             NaN             NaN
             NaN             NaN             NaN
             NaN             NaN             NaN
             NaN             NaN             NaN
             NaN             NaN             NaN
             NaN             NaN             NaN
             NaN             NaN             NaN
             NaN             NaN             NaN
             NaN             NaN             NaN
             NaN             NaN             NaN
             NaN             NaN             NaN
             NaN             NaN             NaN
             NaN             NaN             NaN
             NaN             NaN             NaN
             NaN             NaN             NaN
             NaN             NaN             NaN
             NaN             NaN             NaN
             NaN             NaN             NaN
             NaN             NaN             NaN
             NaN             NaN             NaN
             NaN             NaN             NaN
             NaN             NaN             NaN
             NaN             NaN             NaN
             NaN             NaN             NaN
             NaN             NaN             NaN
             NaN             NaN             NaN
             NaN             NaN             NaN
             NaN             NaN             NaN
             NaN             NaN             NaN
             NaN             NaN             NaN
             NaN             NaN             NaN
             NaN             NaN             NaN
             NaN             NaN             NaN
             NaN             NaN             NaN
             NaN             NaN             NaN
             NaN             NaN             NaN
             NaN             NaN             NaN
             NaN             NaN             NaN
             NaN             NaN             NaN
             NaN             NaN             NaN
             NaN             NaN             NaN
             NaN             NaN             NaN
             NaN             NaN             NaN
             NaN             NaN             NaN
             NaN             NaN             NaN
             NaN             NaN             NaN
             NaN             NaN             NaN
             NaN             NaN             NaN
             NaN             NaN             NaN
             NaN             NaN             NaN
             NaN             NaN             NaN
             NaN             NaN             NaN
             NaN             NaN             NaN
             NaN             NaN             NaN
             NaN             NaN             NaN
             NaN             NaN             NaN
             NaN             NaN             NaN
             NaN             NaN             NaN
             NaN             NaN             NaN
             NaN             NaN             NaN
             NaN             NaN             NaN
             NaN             NaN             NaN
             NaN             NaN             NaN
             NaN             NaN             NaN
             NaN             NaN             NaN
             NaN             NaN             NaN
             NaN             NaN             NaN
             NaN             NaN             NaN
             NaN             NaN             NaN
             NaN             NaN             NaN
             NaN             NaN             NaN
             NaN             NaN             NaN
             NaN             NaN             NaN
             NaN             NaN             NaN
             NaN             NaN             NaN
             NaN             NaN             NaN
             NaN             NaN             NaN
             NaN             NaN             NaN
             NaN             NaN             NaN
             NaN             NaN             NaN
             NaN             NaN             NaN
             NaN             NaN             NaN
             NaN             NaN             NaN
             NaN             NaN             NaN
             NaN             NaN             NaN
             NaN             NaN             NaN
             NaN             NaN             NaN
             NaN             NaN             NaN
             NaN             NaN             NaN
