Ca   V    O                             
   1.00000000000000     
     8.7636278084960093   -0.0073852908964885   -0.0010107319953113
     2.9199891428722502   14.1390717841248001    0.3544623116134290
     2.9384957702948600   -0.3656121604203980   14.0355922253645993
   Ca   V    O 
    11    48    96
Direct
  0.2108079120267163  0.5504803776645559  0.5108649018994527
  0.1772770833319655  0.0127173165055581  0.4488540514824066
  0.2124765507692814  0.9336978065078441  0.9866036715852431
  0.1832306184675119  0.5037739537095334  0.9407760051636203
  0.5096871420649478  0.0146866813782793  0.4480384775020241
  0.4680917219340941  0.0814711870798206  0.0098801666824855
  0.5128516448238614  0.5089348843702126  0.9469160688933798
  0.8445802757515821  0.0115794117565144  0.4474378186348389
  0.8382667491997040  0.9348904981679809  0.9863041915501469
  0.7773371969551306  0.5562929728454620  0.5070497937425316
  0.8442744196795857  0.5139117701430038  0.9490907740195027
  0.2240980824788394  0.0908182198369047  0.2394689223017181
  0.1946562024871596  0.0907943160376306  0.7991112159240217
  0.1994836511284817  0.5969037809388240  0.2833399181956509
  0.2241956273765737  0.5885996324320075  0.7365991938754348
  0.5511382507464404  0.0906993387450399  0.2391271411237383
  0.5321195833364456  0.0950269614032848  0.7878146714983245
  0.5426392975055023  0.5962952167153972  0.2889590067366683
  0.5636706638911733  0.5864921621787644  0.7375951420544027
  0.8884349075352063  0.0879694076970878  0.2385586155676052
  0.8765060587649884  0.0915013421800168  0.7968224579305456
  0.8740638985461118  0.5986299492402694  0.2822249541431106
  0.8849634512092024  0.5858305986616728  0.7372888088908738
  0.0433694923044854  0.2597060804731797  0.0989734075277156
  0.0673447029572927  0.2024094436655233  0.5982138068847505
  0.0670249650497681  0.7157822099977622  0.0904478564952171
  0.0392937940726412  0.7615511610962429  0.5909850950915470
  0.3723655329285407  0.2767347927684085  0.0979669603444222
  0.3909913124752649  0.2038795450169886  0.5977916826658927
  0.3985009522611023  0.7099706783626658  0.0954152600246729
  0.3867285878758011  0.7556823338226621  0.5907273802164354
  0.7129028263718666  0.2605680899758411  0.0999657932668541
  0.7225458400050115  0.2040179624202310  0.6004137725104002
  0.7264673546211569  0.7128075018331756  0.0934200962878293
  0.7175225528209950  0.7653981492584947  0.5902612387558790
  0.2793402973196777  0.2474469864795878  0.4067576343038652
  0.2630163845659794  0.2846724022196483  0.9066052510077469
  0.2702193443802088  0.7867083342645245  0.4059023284323544
  0.2894444692187577  0.7336323476071414  0.9053088537373526
  0.6146831834778226  0.2433457963589234  0.4101136030781873
  0.6078795094122782  0.2857772503712468  0.9092695728866502
  0.5980156617632346  0.7877861792757415  0.4057499383767649
  0.6135226939700615  0.7437980437929852  0.9073708686860940
  0.9456375676465711  0.2401691100329799  0.4122445907777745
  0.9301187697949729  0.2891413071014881  0.9105691350441134
  0.9370443926509324  0.7846895817384549  0.4041526197886967
  0.9469086479781268  0.7344755227861413  0.9053252884295730
  0.0945175316654527  0.4151549478763386  0.2653057026215180
  0.1224686881565091  0.3990051361460445  0.7144140068862583
  0.1297377478223112  0.9057083337753085  0.2164754761948231
  0.1124103313406692  0.9037783722297021  0.7566972638365783
  0.4448550547768448  0.4171309063308115  0.2638955120706470
  0.4643656745636662  0.3995825864803564  0.7135194849431699
  0.4593771533115998  0.9050904657154462  0.2095440500476897
  0.4447268126760378  0.9081198031941398  0.7562893167281857
  0.7761982560250758  0.4121018933728777  0.2651923646447045
  0.7961601896178507  0.3955077070909354  0.7114935612382212
  0.7884849484193666  0.9041238203630968  0.2163215913268530
  0.7716637693976551  0.9120315762142823  0.7610791032940298
  0.2723608322220628  0.3474237984282311  0.3298817232149318
  0.2805249904538272  0.3581925894785698  0.7959215335834386
  0.2810517383613558  0.8589015721712627  0.2946405354405357
  0.2770258620654857  0.8466649112837317  0.8301105873325554
  0.6013701754051013  0.3463897589343645  0.3312408723536038
  0.6136634319035181  0.3546277451638176  0.7958531910651914
  0.6145044109444626  0.8582918743388674  0.2933995778724423
  0.6084361133181488  0.8438353862468233  0.8242528043000164
  0.9403785419342867  0.3451537289326225  0.3327177475085321
  0.9467621489203850  0.3554708063402714  0.7954955247119955
  0.9482440630458484  0.8587838423766385  0.2925658682671326
  0.9362173943607814  0.8463374846078224  0.8301729260051474
  0.1615322472482177  0.1703781584434338  0.3500833745979719
  0.1406101832810833  0.2054202546325499  0.8652139236209919
  0.1439720478208883  0.7072308498143585  0.3587546557347707
  0.1579481985279259  0.6720358563257847  0.8457745528171898
  0.4878391649173963  0.1699427528049569  0.3510401636812688
  0.4737513779970328  0.2038678425984486  0.8686746116219410
  0.4763937064916632  0.7082165750443679  0.3593618708632391
  0.4952818134063932  0.6711821728702674  0.8432034261269905
  0.8241797331888492  0.1699166729774362  0.3488121077207182
  0.8092839898506128  0.2044342096832281  0.8657213263076997
  0.8090672837621184  0.7083900735544901  0.3576400961980326
  0.8257464280522910  0.6713477087969792  0.8430888500553948
  0.1636713294668084  0.3293716217632436  0.1624414386020376
  0.1860118921241494  0.2874708291161951  0.6445831772363846
  0.1902614534133917  0.7962509524639643  0.1377633770632869
  0.1733537693153338  0.8195350735448841  0.6580248155252377
  0.5035734191977355  0.3304361351778979  0.1610911225098874
  0.5195611958011028  0.2864926756188595  0.6443220011370698
  0.5194987042799752  0.7928308375127742  0.1398399267863581
  0.5015641662120771  0.8233200508053002  0.6567522923730778
  0.8353373074622823  0.3256738034562474  0.1648496099262573
  0.8549341428475259  0.2840114200877508  0.6434953891225703
  0.8536264970742025  0.7948096566277485  0.1360893356978821
  0.8383427125837528  0.8257027075139689  0.6594906251576518
  0.0529461900610571  0.1549009741947032  0.1795613898852366
  0.0481350963499594  0.1370267529664773  0.7140109178166512
  0.0532496348464946  0.6435005482947602  0.2008633642403908
  0.0582134736295217  0.6479562314933034  0.6705339745301444
  0.3873887001341174  0.1581669147539841  0.1741423410411613
  0.3785397727019557  0.1381219354641132  0.7143588756668890
  0.3821870093186561  0.6396633927207134  0.2062529777704043
  0.3926860701396535  0.6494331485320473  0.6748357708397066
  0.7190450875508745  0.1554896518501607  0.1801264658849320
  0.7168314776813318  0.1362168236049968  0.7167837585059331
  0.7137985306787868  0.6430328827976552  0.2040746992275402
  0.7248498560160428  0.6512874358324154  0.6688913319999088
  0.0577307626726693  0.0176463137766660  0.3095003559618306
  0.0362625876833391  0.0169528442423967  0.8712320196852588
  0.0303375880067946  0.5319520764730612  0.3605920982371984
  0.0531920831767607  0.5167572309397173  0.8084685030831977
  0.3898888228677393  0.0159975403376507  0.3072202972046796
  0.3669535596271842  0.0246223401433738  0.8693416735197701
  0.3669530590120402  0.5318274162165650  0.3568597752084770
  0.3932163609837787  0.5166275253208283  0.8081462670736386
  0.7199149688907340  0.0171607039550565  0.3089154714238376
  0.7007133478596117  0.0233180036699778  0.8688544861349357
  0.7085316862881825  0.5305873228223632  0.3574788341439330
  0.7242952150199216  0.5142031103916480  0.8102410291224729
  0.2550669975903261  0.2094831988542296  0.0246313004511194
  0.2793535979771136  0.1274908745813192  0.5266257689346787
  0.2815478054874774  0.6379490190380466  0.0170797167219732
  0.2554355854512877  0.7020782567940671  0.5199007810140088
  0.5846351215618597  0.2090337654395142  0.0253739262212349
  0.6102449955104277  0.1301612631001987  0.5251588665511591
  0.6121539535245901  0.6376045593896009  0.0187160675831919
  0.5957657452230123  0.7008377497174720  0.5174502647469552
  0.9185336985738033  0.2124959757121303  0.0242932325787777
  0.9464953729332279  0.1302780063572300  0.5236520487904741
  0.9453461402348324  0.6400166928279916  0.0170757706095941
  0.9256341242699619  0.6961043886473490  0.5166406412750817
  0.2666227044069771  0.4784629264991764  0.2110259833383736
  0.2870328586984954  0.4735622258106673  0.6514666708298051
  0.2944270884373879  0.9782884785808292  0.1389195183520826
  0.2660857445161966  0.9801763484479196  0.7115041322039772
  0.6041592931375774  0.4832176142221769  0.2075418977362560
  0.6312493656066493  0.4726995799837823  0.6491325065009832
  0.6242979756515652  0.9778384370660547  0.1400453514216764
  0.6006922891724500  0.9820362082609719  0.7072440592340854
  0.9340191488415570  0.4845449268413518  0.2036967931961300
  0.9560408598970014  0.4725741008534925  0.6471192672484491
  0.9594987074457606  0.9728907664236672  0.1449678176666183
  0.9381856079569175  0.9796938624917360  0.7117179284056405
  0.0768884032105248  0.2860030876500161  0.4856517873635724
  0.0512279618686335  0.3674478432213704  0.9712025477326165
  0.0521414285010806  0.8626599153524310  0.4730739399200985
  0.0721290108528052  0.8031338770955259  0.9778054863472008
  0.4050763214637314  0.2867505267549291  0.4848797262721902
  0.3853823186133880  0.3663978900722284  0.9744893836670414
  0.3862342492372548  0.8642419021332302  0.4726234309810380
  0.4042443023091451  0.7963416266907046  0.9813816698256019
  0.7401864243160574  0.2860992822916302  0.4868095903743708
  0.7180980427064725  0.3687704040917197  0.9723137264681299
  0.7209331273880508  0.8634725235809810  0.4731425116280050
  0.7378237311117388  0.7985585880777251  0.9804015606172740
 
             NaN             NaN             NaN
             NaN             NaN             NaN
             NaN             NaN             NaN
             NaN             NaN             NaN
             NaN             NaN             NaN
             NaN             NaN             NaN
             NaN             NaN             NaN
             NaN             NaN             NaN
             NaN             NaN             NaN
             NaN             NaN             NaN
             NaN             NaN             NaN
             NaN             NaN             NaN
             NaN             NaN             NaN
             NaN             NaN             NaN
             NaN             NaN             NaN
             NaN             NaN             NaN
             NaN             NaN             NaN
             NaN             NaN             NaN
             NaN             NaN             NaN
             NaN             NaN             NaN
             NaN             NaN             NaN
             NaN             NaN             NaN
             NaN             NaN             NaN
             NaN             NaN             NaN
             NaN             NaN             NaN
             NaN             NaN             NaN
             NaN             NaN             NaN
             NaN             NaN             NaN
             NaN             NaN             NaN
             NaN             NaN             NaN
             NaN             NaN             NaN
             NaN             NaN             NaN
             NaN             NaN             NaN
             NaN             NaN             NaN
             NaN             NaN             NaN
             NaN             NaN             NaN
             NaN             NaN             NaN
             NaN             NaN             NaN
             NaN             NaN             NaN
             NaN             NaN             NaN
             NaN             NaN             NaN
             NaN             NaN             NaN
             NaN             NaN             NaN
             NaN             NaN             NaN
             NaN             NaN             NaN
             NaN             NaN             NaN
             NaN             NaN             NaN
             NaN             NaN             NaN
             NaN             NaN             NaN
             NaN             NaN             NaN
             NaN             NaN             NaN
             NaN             NaN             NaN
             NaN             NaN             NaN
             NaN             NaN             NaN
             NaN             NaN             NaN
             NaN             NaN             NaN
             NaN             NaN             NaN
             NaN             NaN             NaN
             NaN             NaN             NaN
             NaN             NaN             NaN
             NaN             NaN             NaN
             NaN             NaN             NaN
             NaN             NaN             NaN
             NaN             NaN             NaN
             NaN             NaN             NaN
             NaN             NaN             NaN
             NaN             NaN             NaN
             NaN             NaN             NaN
             NaN             NaN             NaN
             NaN             NaN             NaN
             NaN             NaN             NaN
             NaN             NaN             NaN
             NaN             NaN             NaN
             NaN             NaN             NaN
             NaN             NaN             NaN
             NaN             NaN             NaN
             NaN             NaN             NaN
             NaN             NaN             NaN
             NaN             NaN             NaN
             NaN             NaN             NaN
             NaN             NaN             NaN
             NaN             NaN             NaN
             NaN             NaN             NaN
             NaN             NaN             NaN
             NaN             NaN             NaN
             NaN             NaN             NaN
             NaN             NaN             NaN
             NaN             NaN             NaN
             NaN             NaN             NaN
             NaN             NaN             NaN
             NaN             NaN             NaN
             NaN             NaN             NaN
             NaN             NaN             NaN
             NaN             NaN             NaN
             NaN             NaN             NaN
             NaN             NaN             NaN
             NaN             NaN             NaN
             NaN             NaN             NaN
             NaN             NaN             NaN
             NaN             NaN             NaN
             NaN             NaN             NaN
             NaN             NaN             NaN
             NaN             NaN             NaN
             NaN             NaN             NaN
             NaN             NaN             NaN
             NaN             NaN             NaN
             NaN             NaN             NaN
             NaN             NaN             NaN
             NaN             NaN             NaN
             NaN             NaN             NaN
             NaN             NaN             NaN
             NaN             NaN             NaN
             NaN             NaN             NaN
             NaN             NaN             NaN
             NaN             NaN             NaN
             NaN             NaN             NaN
             NaN             NaN             NaN
             NaN             NaN             NaN
             NaN             NaN             NaN
             NaN             NaN             NaN
             NaN             NaN             NaN
             NaN             NaN             NaN
             NaN             NaN             NaN
             NaN             NaN             NaN
             NaN             NaN             NaN
             NaN             NaN             NaN
             NaN             NaN             NaN
             NaN             NaN             NaN
             NaN             NaN             NaN
             NaN             NaN             NaN
             NaN             NaN             NaN
             NaN             NaN             NaN
             NaN             NaN             NaN
             NaN             NaN             NaN
             NaN             NaN             NaN
             NaN             NaN             NaN
             NaN             NaN             NaN
             NaN             NaN             NaN
             NaN             NaN             NaN
             NaN             NaN             NaN
             NaN             NaN             NaN
             NaN             NaN             NaN
             NaN             NaN             NaN
             NaN             NaN             NaN
             NaN             NaN             NaN
             NaN             NaN             NaN
             NaN             NaN             NaN
             NaN             NaN             NaN
             NaN             NaN             NaN
             NaN             NaN             NaN
             NaN             NaN             NaN
             NaN             NaN             NaN
             NaN             NaN             NaN
             NaN             NaN             NaN
             NaN             NaN             NaN
