Ca V  O                                 
   1.00000000000000     
    10.9655885695999995    0.0000000000000000    0.0000000000000000
    -1.8643554801000000   14.2891268287000006    0.0000000000000000
    -1.8525292359000001    0.1709672118000000    8.2915385771000008
   Ca   V    O 
    19    28    56
Direct
  0.5947373895449475  0.3228920667043783  0.6381975397258137
  0.0073925433937918  0.3189711280028910  0.6508052870241651
  0.0392502238888551  0.8272339123399467  0.6507817234381044
  0.5369668225764982  0.8251787215209860  0.6515521628774783
  0.2558545813704909  0.2553285796597322  0.5092209336379612
  0.2522898857775038  0.7490715890438516  0.4971903206918850
  0.7530405806454679  0.7500600416968189  0.4961558456698020
  0.4837927757530640  0.1764324020092981  0.3577277669461614
  0.4662185505060965  0.6728292940090826  0.3431506183936756
  0.9482621727263024  0.1756595731352851  0.3622846608855653
  0.9688885883823759  0.6768342699959956  0.3399731339245527
  0.3946052048227375  0.0351179147333442  0.0761546049932307
  0.3893686844428555  0.5316132016927133  0.0651131615092291
  0.8969249962895188  0.0319568529116820  0.0796129977676642
  0.8891221692878334  0.5329604757282586  0.0607871631253721
  0.1064031417614460  0.4641380421375397  0.9279210888126324
  0.1088305864833499  0.9678620476866089  0.9313543044032943
  0.6008834764999357  0.4640139509618584  0.9196982175858822
  0.6066604636670576  0.9654904272346002  0.9325455259015274
  0.4205987413284623  0.1021726345426315  0.7137249861518615
  0.4250969853252621  0.6005050216325813  0.7056872171995229
  0.9156442901834488  0.1022809641718720  0.7186053608598693
  0.9222826891287250  0.6032928666606051  0.7043473209214869
  0.0730176456857965  0.3991914911225520  0.2917830471275086
  0.0841226316739594  0.8978508065107887  0.2875393615377467
  0.5789480616484204  0.3948259932324058  0.2741257980881254
  0.5823284071771042  0.8964208597672498  0.2905752940844288
  0.2793974674161864  0.3162246122030598  0.1400509642295919
  0.2938165968136948  0.8174531854618805  0.1382773839749167
  0.7781120305037352  0.3170764158836485  0.1439963834256804
  0.7876003842515423  0.8150976491662759  0.1322730582786714
  0.1485427305371956  0.0397585709524532  0.5759618448059749
  0.1465888108845795  0.5319202143615210  0.5635897525575914
  0.6521940339552511  0.0380020191300222  0.5778685764476549
  0.6562809782696208  0.5404372490633962  0.5613506443425490
  0.9896996065036263  0.2501536002578815  0.0080036686728134
  0.0097251179180732  0.7485658915203658  0.9945619637175677
  0.4911611931817965  0.2510473684479419  0.9896330293634843
  0.4945791736688541  0.7496927811355294  0.9984387803043067
  0.3646451156986284  0.4637777936745571  0.4361749600632303
  0.3544402024332277  0.9645247973809140  0.4324799470338479
  0.8612442069234767  0.4619033944585360  0.4203626191232285
  0.8530919294455885  0.9606217979825618  0.4317221737448244
  0.2142153394070419  0.1848661940918719  0.8719595449676938
  0.2098104084569139  0.6797832227946792  0.8530483210864485
  0.7134929082528593  0.1783155589900829  0.8720092717999477
  0.7160397745960458  0.6839367354157772  0.8608822946894304
  0.3763727594655988  0.2301595392221167  0.7678333802610229
  0.3737633401824281  0.7293211355269732  0.7597595531598957
  0.8703622176933064  0.2296080915140471  0.7826744068256667
  0.8801605377248338  0.7337225911666804  0.7607833577245370
  0.0865635267409825  0.1739671126898247  0.6274087088409203
  0.0880315204997321  0.6704793468012952  0.6112803584878883
  0.5868211576805940  0.1624642734218220  0.6347612239359117
  0.5911823287789959  0.6723174118330367  0.6169098113104575
  0.4185572822657593  0.3294645748938377  0.3798671560455522
  0.4151549151837753  0.8281706562392297  0.3823825455897719
  0.9104675915975420  0.3344896857794040  0.3730651750782386
  0.9155024957308908  0.8275321612116177  0.3762164578194278
  0.3101832913214868  0.0971742990125596  0.4869937575097638
  0.3100811524680195  0.5944097536275346  0.4800040354525832
  0.8077445620810736  0.0862264188838807  0.4926538926903047
  0.8159257445836394  0.5982777328569721  0.4741502162361168
  0.1158109589054352  0.2702423417944635  0.2438293539721314
  0.1321987140652702  0.7671445765677981  0.2322386775678263
  0.6134488867529668  0.2674199015856094  0.2144866012197804
  0.6238163944571524  0.7653821922014553  0.2327849417490598
  0.5018391994203204  0.4779611330200604  0.6493112346758632
  0.4884605388064109  0.9771796122334959  0.6598686959020468
  0.9878427384976926  0.4769088496766184  0.6520010918052148
  0.9907539423071769  0.9797626715730927  0.6612537179588481
  0.4463715906736580  0.3821032046835854  0.0529408336056309
  0.4576201761527187  0.8834158102178774  0.0676826711502213
  0.9502396107258650  0.3834948572555354  0.0656629090236170
  0.9618017202131954  0.8810180323624355  0.0648226755627847
  0.1950580217405147  0.4053625103403916  0.5155011435934853
  0.1944978437561896  0.9059489173497849  0.5178177288222985
  0.7035325389819617  0.4169710736148866  0.4898380081255966
  0.6932189649226848  0.9013860876496549  0.5188858782358030
  0.0117257595312657  0.0213802701544119  0.3490885352665026
  0.0161181847474754  0.5258311632145358  0.3328392522558958
  0.5155089382429771  0.0206292919441536  0.3484863856060846
  0.5169145464653621  0.5209368364509929  0.3333332064045462
  0.3451257459850978  0.1912362632297899  0.0929188848095458
  0.3399357792716117  0.6871136115097078  0.0812295536110346
  0.8366657291039815  0.1881214590647835  0.0988443910471555
  0.8506258220750884  0.6906460298537418  0.0776337417279259
  0.1446332283147336  0.3076772777993761  0.9199804135640849
  0.1636990556917511  0.8113378522816539  0.9114376278596721
  0.6523428468415016  0.3073056206057635  0.9126835719258328
  0.6528914909011083  0.8084956038358949  0.9154023686957780
  0.0429610133533548  0.1183183194995079  0.9398946069615840
  0.0446606472178447  0.6153434892520645  0.9272666886879967
  0.5423454004383678  0.1148972428452527  0.9381759323951857
  0.5422478233752737  0.6169869050432274  0.9303413947371854
  0.2372548614323476  0.4441198859477398  0.1966097748342511
  0.2430331860343221  0.9460776286694615  0.1942810181094385
  0.7368250420920193  0.4481194602574007  0.1801155741397373
  0.7399549081164072  0.9427906099317197  0.1930032172701890
  0.2614748934413851  0.0564548600046546  0.8133094353643353
  0.2586156207465668  0.5509361607462643  0.7976804150873468
  0.7627221983717667  0.0508201682580765  0.8173941557367419
  0.7634311903733956  0.5548866233339399  0.8001144164552327
 
             NaN             NaN             NaN
             NaN             NaN             NaN
             NaN             NaN             NaN
             NaN             NaN             NaN
             NaN             NaN             NaN
             NaN             NaN             NaN
             NaN             NaN             NaN
             NaN             NaN             NaN
             NaN             NaN             NaN
             NaN             NaN             NaN
             NaN             NaN             NaN
             NaN             NaN             NaN
             NaN             NaN             NaN
             NaN             NaN             NaN
             NaN             NaN             NaN
             NaN             NaN             NaN
             NaN             NaN             NaN
             NaN             NaN             NaN
             NaN             NaN             NaN
             NaN             NaN             NaN
             NaN             NaN             NaN
             NaN             NaN             NaN
             NaN             NaN             NaN
             NaN             NaN             NaN
             NaN             NaN             NaN
             NaN             NaN             NaN
             NaN             NaN             NaN
             NaN             NaN             NaN
             NaN             NaN             NaN
             NaN             NaN             NaN
             NaN             NaN             NaN
             NaN             NaN             NaN
             NaN             NaN             NaN
             NaN             NaN             NaN
             NaN             NaN             NaN
             NaN             NaN             NaN
             NaN             NaN             NaN
             NaN             NaN             NaN
             NaN             NaN             NaN
             NaN             NaN             NaN
             NaN             NaN             NaN
             NaN             NaN             NaN
             NaN             NaN             NaN
             NaN             NaN             NaN
             NaN             NaN             NaN
             NaN             NaN             NaN
             NaN             NaN             NaN
             NaN             NaN             NaN
             NaN             NaN             NaN
             NaN             NaN             NaN
             NaN             NaN             NaN
             NaN             NaN             NaN
             NaN             NaN             NaN
             NaN             NaN             NaN
             NaN             NaN             NaN
             NaN             NaN             NaN
             NaN             NaN             NaN
             NaN             NaN             NaN
             NaN             NaN             NaN
             NaN             NaN             NaN
             NaN             NaN             NaN
             NaN             NaN             NaN
             NaN             NaN             NaN
             NaN             NaN             NaN
             NaN             NaN             NaN
             NaN             NaN             NaN
             NaN             NaN             NaN
             NaN             NaN             NaN
             NaN             NaN             NaN
             NaN             NaN             NaN
             NaN             NaN             NaN
             NaN             NaN             NaN
             NaN             NaN             NaN
             NaN             NaN             NaN
             NaN             NaN             NaN
             NaN             NaN             NaN
             NaN             NaN             NaN
             NaN             NaN             NaN
             NaN             NaN             NaN
             NaN             NaN             NaN
             NaN             NaN             NaN
             NaN             NaN             NaN
             NaN             NaN             NaN
             NaN             NaN             NaN
             NaN             NaN             NaN
             NaN             NaN             NaN
             NaN             NaN             NaN
             NaN             NaN             NaN
             NaN             NaN             NaN
             NaN             NaN             NaN
             NaN             NaN             NaN
             NaN             NaN             NaN
             NaN             NaN             NaN
             NaN             NaN             NaN
             NaN             NaN             NaN
             NaN             NaN             NaN
             NaN             NaN             NaN
             NaN             NaN             NaN
             NaN             NaN             NaN
             NaN             NaN             NaN
             NaN             NaN             NaN
             NaN             NaN             NaN
             NaN             NaN             NaN
