Ca V  O 
 1.0000000000000000
    10.9655885695999995    0.0000000000000000    0.0000000000000000
    -1.8643554801000000   14.2891268287000006    0.0000000000000000
    -1.8525292359000001    0.1709672118000000    8.2915385771000008
 Ca  V   O  
  19  28  56
Cartesian
  4.8148849381551342  4.6778170483622272  5.3237221043122771
 -1.6667605328330737  4.7119625160516918  5.3712869810506847
 -2.3134860747460642 11.9363341101345721  5.4213199311021247
  3.1507331523090958 11.9206485100806212  5.4227213890508379
  1.4183796354982114  3.7125118929868042  4.2243564642680633
  0.4235669446934102 10.8068179960208770  4.1394487873549437
  5.9096781178998183 10.8121327602848787  4.1328839069712808
  4.3164837210929123  2.5832929621848262  2.9314837508107625
  3.1565760757973429  9.6772388798070956  2.8437745445423896
  9.3757924592410600  2.5771904014407996  2.9837151534647117
  8.6741348699166281  9.6837649416985059  2.8388363701410864
  4.0782071216930111  0.5194653001523524  0.5934201552633437
  3.1753086051997670  7.6417749409071396  0.5157810771065338
  9.5944186891568908  0.4910991491046175  0.6345855559198051
  8.6419591446857034  7.6231236977252212  0.4762823538918880
 -1.3703615461737177  6.7876469159428598  7.6967641809548137
 -2.3367944816169510 13.9629774327023579  7.7493107904568790
  4.0416508772033302  6.7583780344039113  7.6113220784490023
  3.1471264116677005 13.9355859009631402  7.7770653461201960
  3.1754921742451345  1.6244130676260509  5.9404427649174005
  2.2483241982984774  8.7609097848334976  5.8856921092774686
  8.6048945035152027  1.6211196005150914  5.9618523870037317
  7.7365452615827399  8.7683209557527526  5.8860865811857010
 -0.4436551119350870  5.6709234733887879  2.3668702522272000
 -1.3957495943414446 12.8395839057225380  2.3843957230891806
  5.0546072056087494  5.6984284171369586  2.2816221581787954
  4.0763368793110191 12.8283190228053403  2.3790303951409557
  2.2867502658986854  4.5511662670392585  1.1787331096903471
  1.3395964543248651 11.7219687655757330  1.1705835986005015
  7.7379351439419004  4.5803679125359427  1.1791945383246047
  6.8262523615919788 11.7031816486523752  1.1677853773942035
  0.4659054903675661  0.6507197013544280  4.7349170581338980
 -0.4380613401081372  7.7434291053620026  4.7006792308495653
  5.9752027132531076  0.6166431980245080  4.7720045279241221
  5.0397221356159818  7.8014652955158654  4.6503149562719592
 -0.4802519446046746  3.5505461782282204  0.0434075965118514
 -1.3916433362969838 10.7084628301965310 -0.0125342053980308
  5.0106628045351131  3.5770653702199962 -0.0470877944126285
  4.0860126878238470 10.7044844089815889 -0.0119817163418323
  2.2948340677535208  6.6640114358560369  3.5590066972915171
  1.2972995938664396 13.8637795774493924  3.5842096407692532
  7.7575786343581230  6.7107389188668582  3.4748632777608726
  6.7845870077630694 13.8211518006050884  3.6045296978157677
  0.4043151710942477  2.7465129632087892  7.1321588391738402
 -0.5017095680152429  9.8770753790263335  7.0994229233258936
  5.9246853662602001  2.6613546822086374  7.1763193278271107
  4.9818256470308784  9.8718227176249727  7.0994133830562420
  2.3449420283645295  3.4578335703427756  6.3576109068865110
  1.3893123901734861 10.6463622122699419  6.2824383716897332
  7.7637646756849152  3.4458002745674925  6.4379281825227883
  6.8877342008207485 10.6339646906540910  6.2754596878164532
 -0.5280679977017968  2.6123751070457280  5.1202436713234354
 -1.4163837753444160  9.7315123431817039  5.0718980662365007
  5.0047297799643164  2.4531627406352032  5.1663751914479539
  4.0626982257789663  9.7292799991168994  5.0598472787265791
  3.2840547649256826  4.7306111447812018  3.1894494797533390
  2.2646849224278953 11.8719191565565989  3.1973600217306530
  8.7043035713925843  4.8315706968869767  3.1172769370455882
  7.7598635767660928 11.8672267490622012  3.2038272046366831
  2.3589303715711250  1.5253600803223963  4.1244554843689549
  1.4178426389403558  8.6167725424938872  4.0396998777069388
  7.7883388189640712  1.3585100041269502  4.1649372214771176
  6.8938291232834912  8.6594254249983980  4.0143360206671561
  0.3740931246300295  3.8325097402122301  2.0200116042100351
 -0.5407704118697738 10.9528946399512126  1.9884926735177504
  5.8325583653268511  3.8840278588152106  1.8255900046049280
  4.9234587181074172 10.9529748603277746  1.9938823227938889
  3.3383260464641871  6.9104193739387414  5.4070043673875876
  2.3201594480051568 14.0778032260593609  5.5330936870316032
  8.6872697997380666  6.9402286545848879  5.4708612957863849
  7.7821758188876355 14.0777297393033951  5.5477622482629778
  4.1317303685874300  5.5144089300890018  0.4443908498762617
  3.2225171044932224 12.6548079412160490  0.5254870356425833
  9.6594660244600927  5.4942987436980655  0.5094313548743752
  8.7185362528225241 12.6508745947501797  0.5299300001638106
  0.3920162387136427  5.8157355245582139  4.1849682052762320
 -0.5555616502698434 12.9751903396924142  4.2316550615630044
  5.9677919456041550  6.0385248174341895  4.0696598793071308
  4.9232075135915254 12.9577027618152645  4.2455245038103895
 -0.5611122537852996  0.3995159490765837  2.8232989446850754
 -1.4646278714072727  7.5140654641774258  2.7330669414373996
  4.9914654179930107  0.3737337396179428  2.7982984719939430
  4.0301508875839227  7.5396844767433349  2.7177821706777654
  3.3215178689786011  2.7381181931174692  0.7510357977690231
  2.3545485451760242  9.8523196396907693  0.7137920802068599
  8.7625256699900635  2.7106411876793013  0.8030308101442656
  7.8583824718223578  9.8412896440748892  0.7131843263568479
 -0.6430794845784295  4.5664504736306721  7.5601452191656975
 -1.5214288339677982 11.7455567523588957  7.5588412795512436
  4.9340802556224181  4.5767045727294313  7.5489839623392836
  3.9544251343475874 11.7334063541458846  7.5569201738532170
 -1.4678954106425497  1.7934054887669273  7.8041776718299118
 -2.3857468079834314  8.9314294253954607  7.7477224049103288
  4.0026794207419636  1.7721174236045107  7.8005999224019940
  3.0894592109787009  8.9222661431483594  7.7367085507796292
  1.4092479208988882  6.4389621836363444  1.5781422098706752
  0.4414956851989632 13.6242380929109075  1.5919987119249566
  6.9012011328637266  6.4822310542775936  1.4843657992146904
  5.9352805952647758 13.6060771217100118  1.6112976644230368
  1.3080637159832711  0.8579374826330064  6.7306249874313941
  0.4004359633448927  7.9732493732985414  6.6842615411816091
  6.8015325991315141  0.7763558260033666  6.7613546213539895
  5.8696526039320718  7.9528695045482669  6.6285059815005747
