Ca V  S  O  F 
1.0
        7.1725635529         0.0000000000         0.0000000000
        0.3049279942         7.8739067344         0.0000000000
        0.3193050896         0.2618833392        10.7378266451
   Ca    V    S    O    F
    3    4    4   16   12
Direct
     0.831614673         0.846994936         0.717338860
     0.148644507         0.133730859         0.276695639
     0.684422791         0.817108154         0.272966832
     0.020910429         0.510795653         0.487949133
     0.987354219         0.986672103         0.000912309
     0.515326500         0.527895093         0.501801014
     0.485535949         0.982679307         0.993412375
     0.232425973         0.321628422         0.984283388
     0.239920095         0.853281200         0.521605253
     0.759578764         0.175766245         0.491530091
     0.760783792         0.644903183         0.020585978
     0.104074463         0.196899146         0.061495431
     0.124626935         0.738839447         0.444935322
     0.123239294         0.391698092         0.880483568
     0.127964526         0.913785696         0.628897965
     0.298978120         0.440500408         0.069916427
     0.299151242         0.993848145         0.437605172
     0.390183598         0.208165526         0.930513918
     0.411223888         0.755325794         0.565145731
     0.608921885         0.291307628         0.442183852
     0.591481149         0.756727874         0.060375873
     0.690701127         0.059741952         0.590227425
     0.707302332         0.509992540         0.939638913
     0.844275415         0.077853225         0.385937095
     0.845570266         0.589909077         0.136962414
     0.905680478         0.281813651         0.550248921
     0.888139486         0.759747505         0.941457331
     0.939984500         0.073269799         0.828393877
     0.960179329         0.581483126         0.662675440
     0.270954669         0.424215496         0.537253618
     0.234830812         0.886329651         0.972811937
     0.432738364         0.014305467         0.177719712
     0.480416626         0.615508199         0.334183484
     0.605290353         0.474204123         0.667583644
     0.570644855         0.919549942         0.828697503
     0.731261730         0.082485378         0.029122682
     0.771909535         0.633878827         0.454390883
     0.064187847         0.400913149         0.333096057
     0.971099377         0.925224841         0.180824414
