Mn P  O 
 1.0000000000000000
    -9.0933349999999997    0.0000000000000000    0.0000000000000000
    -0.6977059999999990   -9.1051350000000006    0.0000000000000000
     4.0827689999999999    3.7863850000000001   10.8403589999999994
 Mn  P   O  
  12  12  48
Cartesian
 -4.0689178762578715 -1.1364308807923844  1.0393826385002150
  1.2058164033957184 -1.5300569533902335  4.3962193834501804
 -0.6889757033551535 -6.4504949749138421  1.6745121994086087
 -7.5459315564832199 -3.1144350171653157  1.3625587963397674
 -4.3998515193424454  0.4778229781615046  4.0696504591351665
 -2.8444646974748449 -5.2987858518048174  3.7295866649330383
 -2.8638073025251454 -0.0199641481951797  7.1107723350669589
 -1.3084204806575499 -5.7965729781615067  6.7707085408648355
  1.8376595564832223 -2.2043149828346862  9.4778002036602267
 -6.9140884033957146 -3.7886930466097675  6.4441396165498173
 -5.0192962966448444  1.1317449749138424  9.1658468005913871
 -1.6393541237421250 -4.1823191192076168  9.8009763614997869
 -1.8182009653503908 -3.5978712860334072  0.7883498976387820
 -6.8064835640678973  0.2119323126948391  1.9370288755522769
 -1.0580254093109609  0.9315497469295666  4.6320738171314986
 -3.8424264330847206 -7.1248593849662836  1.3586177788222076
  0.3202772468610567 -4.6501636863405755  4.0531811376255105
 -5.1175377172651357 -2.8385097339976602  3.5116105258959096
 -0.5907342827348587 -2.4802402660023408  7.3287484741040902
 -6.0285492468610506 -0.6685863136594241  6.7871778623744863
 -1.8658455669152754  1.8061093849662828  9.4817412211777921
 -4.6502465906890320 -6.2502997469295645  6.2082851828684955
  1.0982115640679027 -5.5306823126948386  8.9033301244477201
 -3.8900710346496044 -1.7208787139665953 10.0520091023612164
 -0.3681318250154553 -3.1123689493784168  0.4415205723210929
 -5.7356018776886684 -0.0193940621430513  0.8012204800138039
 -3.3469404789497346  0.5709586985542313  2.0127033775994509
 -2.6206696027671939 -2.4143314729431706  1.3360253133105249
 -0.2629397610065095 -0.2649507868211075  4.1109549725272752
 -2.4189658556839633 -7.0342939750221385  0.7019153240835790
  0.5199197444206788 -3.2340768457771834  3.4078195867335315
 -1.6685314698176568 -4.6861157084651550  1.9244737035403816
 -4.8877615414920115 -6.8062745700837368  0.2625611069250076
 -8.5344127486996939 -5.7101105273846633  2.9490017029032676
 -7.3254532066365536 -4.8790186852777886  0.4563736480722321
 -6.8226566901389560 -8.2885296983174044  3.1841080907135262
 -0.4256216006082689  1.5512983373048939  5.8967180939894464
 -4.5240625475703515 -1.4191614486975141  3.1862573376782013
 -7.4016972185558059 -1.1922005566470331  2.2961998492036360
 -2.5156617464235933  0.4534289545649615  4.9742842035210275
 -5.7740473345198433 -3.4062685446693379  2.2414426632075259
 -4.0772563213439232 -6.0529074859798770  2.4554634703367655
  1.3642767697936986 -4.9686349323434102  5.1524828613824587
  0.4934917347811569 -2.6863766808273768  6.1994174108277447
 -1.8701314086317360 -7.0839657744237066  3.5023461924614958
 -1.1024289983730340 -4.7501369698881355  4.7078433779819280
 -4.0059845221377213 -3.7425624397351496  4.0434841082291593
  2.9118685089376966  2.6859947014019911  9.4523848319548875
 -8.6201405089376877 -8.0047447014019895  1.3879741680451012
 -1.7022874778622687 -1.5761875602648496  6.7968748917708348
 -4.6058430016269591 -0.5686130301118633  6.1325156220180705
 -6.2017637347811476 -2.6323733191726211  4.6409415891722583
 -3.8381405913682567  1.7652157744237105  7.3380128075384974
 -7.0725487697936904 -0.3501150676565904  5.6878761386175354
 -1.6310156786560672  0.7341574859798781  8.3848955296632308
  0.0657753345198439 -1.9124814553306655  8.5989163367924775
 -3.1926102535764000 -5.7721789545649580  5.8660747964789701
  1.6934252185558083 -4.1265494433529648  8.5441591507963555
 -1.1842094524296438 -3.8995885513024851  7.6541016623218017
 -5.2826503993917235 -6.8700483373048922  4.9436409060105468
  1.1143846901389609  2.9697796983173999  7.6562509092864746
  1.6171812066365612 -0.4397313147222157 10.3839853519277625
  2.8261407486996974  0.3913605273846652  7.8913572970967270
 -0.8205104585079850  1.4875245700837436 10.5777978930749939
 -4.0397405301823417 -0.6326342915348451  8.9158852964596171
 -6.2281917444206716 -2.0846731542228141  7.4325394132664711
 -3.2893061443160327  1.7155439750221386 10.1384436759164185
 -5.4453322389934851 -5.0537992131788902  6.7294040274727154
 -3.0876023972328031 -2.9044185270568308  9.5043336866894670
 -2.3613315210502610 -5.8897086985542328  8.8276556224005454
  0.0273298776886822 -5.2993559378569470 10.0391385199861976
 -5.3401401749845414 -2.2063810506215802 10.3988384276789088
