Mn12 P12 O48
1.0
  -9.0933349999999997    0.0000000000000000    0.0000000000000000
  -0.6977059999999990   -9.1051350000000006    0.0000000000000000
   4.0827689999999999    3.7863850000000001   10.8403589999999994
Mn P O
12 12 48
direct
   0.4746039999999990    0.1596260000000000    0.0959360000000000 Mn
   0.0159910000000000    0.3359379999999990    0.4012929999999990 Mn
   0.0856120000000000    0.7717710000000000    0.1522180000000000 Mn
   0.8586380000000000    0.3864829999999990    0.1240780000000000 Mn
   0.6434080000000000    0.1028019999999990    0.3753710000000000 Mn
   0.4148440000000000    0.7304229999999990    0.3478850000000000 Mn
   0.5851560000000000    0.2695770000000000    0.6521150000000000 Mn
   0.3565919999999990    0.8971979999999991    0.6246290000000000 Mn
   0.1413620000000000    0.6135170000000000    0.8759220000000000 Mn
   0.9840089999999990    0.6640619999999990    0.5987070000000000 Mn
   0.9143880000000000    0.2282290000000000    0.8477819999999990 Mn
   0.5253960000000000    0.8403740000000000    0.9040640000000000 Mn
   0.2071839999999990    0.4278559999999990    0.0780179999999990 P
   0.8278300000000001    0.0386000000000000    0.1741889999999990 P
   0.2894790000000000    0.0822480000000000    0.4202860000000000 P
   0.4152880000000000    0.8345680000000000    0.1222330000000000 P
   0.0830090000000000    0.6646670000000000    0.3750920000000000 P
   0.6731200000000001    0.4516650000000000    0.3295570000000000 P
   0.3268800000000000    0.5483350000000000    0.6704430000000000 P
   0.9169910000000000    0.3353330000000000    0.6249080000000000 P
   0.5847120000000000    0.1654320000000000    0.8777670000000000 P
   0.7105210000000000    0.9177520000000000    0.5797140000000000 P
   0.1721700000000000    0.9614000000000000    0.8258110000000000 P
   0.7928160000000000    0.5721440000000000    0.9219820000000000 P
   0.0355900000000000    0.3661100000000000    0.0346270000000000 O
   0.6661140000000000    0.0210290000000000    0.0683040000000000 O
   0.4506949999999990    0.0138070000000000    0.1818320000000000 O
   0.3186360000000000    0.3251680000000000    0.1455290000000000 O
   0.1955440000000000    0.2163550000000000    0.3765080000000000 O
   0.2370789999999990    0.7966569999999999    0.0636140000000000 O
   0.0501230000000000    0.4845300000000000    0.3163650000000000 O
   0.2198270000000000    0.5947209999999991    0.1796269999999990 O
   0.4875020000000000    0.7493710000000000    0.0180320000000000 O
   0.9965510000000000    0.7348580000000000    0.2715400000000000 O
   0.7478279999999990    0.5554740000000000    0.0284200000000000 O
   0.8066989999999991    0.9968579999999990    0.2807060000000000 O
   0.2476580000000000    0.0615010000000000    0.5267100000000000 O
   0.6144849999999999    0.2793630000000000    0.2866050000000000 O
   0.8856339999999990    0.2112700000000000    0.2166320000000000 O
   0.4633520000000000    0.1375070000000000    0.4599620000000000 O
   0.6915990000000000    0.4987060000000000    0.2248679999999990 O
   0.5046240000000000    0.7640610000000000    0.2240980000000000 O
   0.0088869999999990    0.7507710000000000    0.4771530000000000 O
   0.1586469999999990    0.5315679999999990    0.5689149999999999 O
   0.2627900000000000    0.9254319999999990    0.3132490000000000 O
   0.2613209999999990    0.6982550000000000    0.4345400000000000 O
   0.5601650000000000    0.5512629999999999    0.3926920000000000 O
   0.0560419999999990    0.0685819999999990    0.8798750000000000 O
   0.9439580000000000    0.9314180000000000    0.1201250000000000 O
   0.4398350000000000    0.4487370000000000    0.6073080000000000 O
   0.7386790000000000    0.3017450000000000    0.5654600000000001 O
   0.8413529999999990    0.4684319999999990    0.4310850000000000 O
   0.7372100000000000    0.0745680000000000    0.6867510000000000 O
   0.9911129999999990    0.2492289999999990    0.5228470000000000 O
   0.4953760000000000    0.2359389999999990    0.7759020000000000 O
   0.3084010000000000    0.5012940000000000    0.7751319999999990 O
   0.5366480000000000    0.8624930000000000    0.5400380000000000 O
   0.1143660000000000    0.7887300000000000    0.7833680000000000 O
   0.3855150000000000    0.7206370000000000    0.7133950000000000 O
   0.7523420000000000    0.9384990000000000    0.4732900000000000 O
   0.1933010000000000    0.0031420000000000    0.7192940000000000 O
   0.2521720000000000    0.4445260000000000    0.9715800000000001 O
   0.0034490000000000    0.2651420000000000    0.7284600000000001 O
   0.5124980000000000    0.2506290000000000    0.9819680000000000 O
   0.7801730000000000    0.4052790000000000    0.8203729999999990 O
   0.9498770000000000    0.5154700000000001    0.6836350000000000 O
   0.7629210000000000    0.2033430000000000    0.9363859999999991 O
   0.8044559999999999    0.7836449999999990    0.6234919999999990 O
   0.6813640000000000    0.6748320000000000    0.8544710000000000 O
   0.5493049999999990    0.9861930000000000    0.8181680000000000 O
   0.3338859999999990    0.9789709999999990    0.9316960000000000 O
   0.9644100000000001    0.6338900000000001    0.9653729999999990 O
