Ca Mn P O                               
   1.00000000000000     
     9.5299907432863993   -0.1588119352107020   -0.1132578939502040
     0.5738946987802570    9.4612614575261897    0.1481337844736920
    -8.6829311184239693   -7.3794657420678904   21.2264216287667011
   Ca   Mn   P    O 
    11    24    24    96
Direct
  0.5323101052739231  0.5386849565412766  0.5284852785688416
  0.4975323025813310  0.4907429395190191  0.9954430507697128
  0.3430959093921071  0.3819288194745836  0.1730812205892506
  0.3298481165759664  0.3980546042231364  0.6782386500048209
  0.7532215350977565  0.7470914845687630  0.1248091771190469
  0.0070144702860145  0.0090274407506954  0.2544741203057471
  0.9706980364518722  0.9632315118343807  0.7250557266695060
  0.2646881634700386  0.2794300595687049  0.3911475984319094
  0.2379678699272124  0.2288902918049454  0.8618855495506712
  0.6532775434048556  0.6285090625728207  0.3288018887831163
  0.6657170117820547  0.6084462362731577  0.8254684781325451
  0.4635108081097883  0.1462371660937075  0.0445225460540118
  0.4650882719894984  0.1680169564124772  0.5497719837920980
  0.0229109876944761  0.3450826949076421  0.2028572563829547
  0.0126126498884667  0.3354433817826829  0.7026794275474081
  0.0854316996015948  0.8188739848741400  0.0712784399049499
  0.0784822123892337  0.8105641052051670  0.5752753053738221
  0.8791278772337142  0.3767511412287479  0.0589358547339515
  0.8790338160557724  0.3883205066358945  0.5590602359637569
  0.6383145126593724  0.1102139562578563  0.1880115526604738
  0.6301767009751492  0.0961413595604847  0.6862733086231566
  0.4005827285592510  0.7266189903386954  0.1743467227377036
  0.4066592523315529  0.7330041578861364  0.6733165920292639
  0.5960312114110067  0.2805274469675678  0.3246476776641400
  0.6053927299176193  0.2658694971027307  0.8281631851475091
  0.3691108104705467  0.9019119753651490  0.3132510729637980
  0.3603264734124225  0.8791976288099220  0.8114354298850842
  0.1216932458026894  0.6343633204060924  0.4412831804572123
  0.1255212376444806  0.6133696634699685  0.9412775583005368
  0.9793103655296713  0.6594580310375595  0.2951605278494218
  0.9792991487905585  0.6503972335027418  0.7984472312587192
  0.9164023844067507  0.1870301899858818  0.4266259832955817
  0.9208402383104233  0.1751206287133069  0.9286714977522208
  0.5331688180831075  0.8610628089218427  0.4573570479691876
  0.5400850181964132  0.8430198747050673  0.9551565560218576
  0.2091024111380285  0.4107191365080043  0.0393610891014934
  0.2041511302992525  0.4311802568330176  0.5391619159623398
  0.8211450929008051  0.0584666971334586  0.0886457264093960
  0.8189393518749359  0.0670488107400057  0.5882156440532219
  0.2946403974845510  0.0828583482363194  0.2067944515142025
  0.2957192691876286  0.0814795409094762  0.7109796342736865
  0.4247947991807712  0.8314038453795795  0.0656578801447989
  0.4089402823206230  0.8380293438370597  0.5609355820780242
  0.0788525267926328  0.6675535283475120  0.1799527157175400
  0.0883369737256481  0.6641749333338623  0.6861019320038092
  0.6618785288133064  0.4547007061454974  0.1676851082967750
  0.6595470273552896  0.4476434544419266  0.6725987940185629
  0.3353942329991962  0.5503448737390417  0.3287105006946953
  0.3407775560849016  0.5381555797745688  0.8326165988475600
  0.9235394223057242  0.3389678504120239  0.3178922372905670
  0.9228221620104698  0.3282124555393330  0.8204743716116413
  0.5797356237911764  0.1720338379636982  0.4350253722549626
  0.5800441801577787  0.1602815313097385  0.9358541116169062
  0.7080977878091292  0.9176372584185675  0.2907705278866843
  0.7061241494077545  0.9152184387871400  0.7926995927476772
  0.1832600615398491  0.9494401637778248  0.4110352458098163
  0.1849206966405920  0.9346457515209666  0.9128547987080284
  0.7877384591128004  0.5926588344879045  0.4602880138814955
  0.7961509213819462  0.5808476937863388  0.9618370850869632
  0.0386914809639711  0.3550192011334862  0.0148413744841321
  0.0367847945140248  0.3645700929708948  0.5120205552843563
  0.6578239372374863  0.0342553167104717  0.0388447679947138
  0.6558220539347183  0.0460548427257001  0.5382034552707526
  0.4579983212509330  0.0028797879983628  0.0946581939776107
  0.4515331859797894  0.0062951883810906  0.5946312097099681
  0.3050152920592525  0.2875658795101740  0.0615429795981848
  0.3091008113264483  0.3211413725918999  0.5679198333789656
  0.1983276913640188  0.2039249927629452  0.1833220646334147
  0.2019485448672344  0.2041325846056169  0.6878347036274616
  0.2545041495549048  0.7817554917481667  0.0299553011873685
  0.2345073411521588  0.8031710274881027  0.5282607091994500
  0.0465755908243782  0.4942191001330462  0.1525162021546285
  0.0495660087757053  0.4925671156188455  0.6534632490418739
  0.2502484388010940  0.5484001114623913  0.0993459268754129
  0.2279693464301716  0.5785216461299081  0.5934960668917288
  0.5156240623525498  0.7554509622497705  0.0224810561882679
  0.4805774726615070  0.7661109451189522  0.5100600443689798
  0.0069888945394945  0.7340491474595904  0.1259121678028067
  0.0177457940812766  0.7556118222042597  0.6413418356816559
  0.7580217739464763  0.5524218103284223  0.0160806113992956
  0.7573483698528848  0.5480221167810623  0.5119423268999368
  0.8161119515728998  0.0180409693296111  0.1475304386864101
  0.8105788448591985  0.0475022225650999  0.6493544149027145
  0.2563241654304313  0.0582713634728516  0.2611723809759412
  0.2508285057530441  0.0559660578737882  0.7642935884806926
  0.5953816233449774  0.2891744857634675  0.1468646829350536
  0.5875002851965321  0.2851191457973183  0.6537499950546325
  0.8766167291452936  0.2263447541477381  0.1100807941473974
  0.8808091377139118  0.2330739590116212  0.6066421583147127
  0.4646256938164656  0.1430926960045918  0.2297973791142196
  0.4669741002373079  0.1367629078977880  0.7363548285790540
  0.6565517361101154  0.4992875994578616  0.1098108886679255
  0.6569720736364116  0.4786292424850448  0.6136823804964484
  0.5003178381836655  0.7660670144161962  0.1204537950917490
  0.4816261912271361  0.7499827645306727  0.6077337503663308
  0.9886701925403374  0.7418837548465662  0.2235872931273587
  0.0239736654504832  0.7324437495724736  0.7386737578998392
  0.1712062133882425  0.5316183142068512  0.2802472492861374
  0.1783077408033821  0.5073635334125378  0.7830023396714614
  0.2665301823021857  0.9308898114023090  0.1543886922505158
  0.2686453262235775  0.9301654386924949  0.6582896191797424
  0.2503562626069294  0.7108919430018986  0.2177437162038643
  0.2660367605858808  0.6892120546336780  0.7184097083851884
  0.5580415261044804  0.5491387962909750  0.2015772015048801
  0.5564467514113379  0.5487923288947432  0.7052915490879569
  0.0822720297746806  0.0522939642441889  0.4389030032380244
  0.0824817746296439  0.0357702785777185  0.9407026303938125
  0.9222221676103153  0.9568933008930572  0.0602951297602030
  0.9213938355289325  0.9589683253620284  0.5636534271948124
  0.4382603289697792  0.4552775498431412  0.2938342503379473
  0.4500416233461838  0.4480565795690398  0.8006547196253484
  0.7512452708292786  0.2946318691589861  0.2812625382416552
  0.7499605297267805  0.2903976444148877  0.7850417395061859
  0.8266756353163374  0.4785995330135135  0.2153801836402809
  0.8245489477301231  0.4704615363140819  0.7212914455878066
  0.7395949451899280  0.0702201279841392  0.3425157196239764
  0.7368060655474303  0.0662270168153464  0.8465015928705316
  0.0084567878952284  0.2666423085649017  0.2723876959186297
  0.0073961823025031  0.2525763748988928  0.7750222485787820
  0.4990557894864921  0.2241966203762489  0.3766505020071491
  0.5043530031784443  0.2337581191961314  0.8832874521111521
  0.3373389188245854  0.5023990188214726  0.3845678366299508
  0.3433260873149350  0.4919193622305345  0.8898150091977840
  0.5380282251442983  0.8595274272006704  0.2691283896300079
  0.5357912806861460  0.8569423784211584  0.7701335881725708
  0.1275661892132079  0.7818124257595878  0.3888290710932222
  0.1262967020423039  0.7666650278401976  0.8905596284746056
  0.4069626540515544  0.7149020601481552  0.3506320235371205
  0.4026463127428221  0.7050635652816093  0.8544368201758661
  0.7449155069478247  0.9375711874009124  0.2349234176892303
  0.7402013452256291  0.9416184490615236  0.7380680328109663
  0.1907605196033944  0.9905946270454582  0.3527770391163944
  0.1962867743227189  0.9766031919327467  0.8559606241441519
  0.2482934381222393  0.4581460517203878  0.4858068668488434
  0.2468054495591918  0.4458032526799389  0.9866617762749885
  0.9969285435343795  0.2682037495155871  0.3707492098738521
 -0.0010112057054002  0.2649997118700914  0.8752044019826044
  0.4937736275945352  0.2539933077694801  0.4792109839967100
  0.4928487771163283  0.2335530239901288  0.9806789085556170
  0.7436223673460503  0.4618006723088456  0.3972816607496047
  0.7575550221490263  0.4378796348237300  0.9043978453457825
  0.9561853070773840  0.5118025216049500  0.3462267396776778
  0.9552335701548159  0.5028089489272857  0.8477426736863470
  0.7505788940942937  0.2193762829628499  0.4680690907380166
  0.7508894924343539  0.2093802340232977  0.9710095020863806
  0.8033069252078059  0.7960212304686324  0.3143455622597291
  0.8021066158739828  0.7931823280377078  0.8157077599670722
  0.6903225093339904  0.7193508641887537  0.4414470527373599
  0.6975867316306803  0.6994191877716485  0.9369692752021315
  0.5483142924151142  0.9981732655383493  0.4084729957625752
  0.5457773734312337  0.9900371402412022  0.9054247071308623
  0.3461445351248961  0.9770917943548034  0.4618117504611788
  0.3469354141065676  0.9542830584215348  0.9637840431332220
  0.9578980924978224  0.6477025060668873  0.4836150222850898
  0.9657392480716256  0.6382567934047775  0.9861386139683992
 
             NaN             NaN             NaN
             NaN             NaN             NaN
             NaN             NaN             NaN
             NaN             NaN             NaN
             NaN             NaN             NaN
             NaN             NaN             NaN
             NaN             NaN             NaN
             NaN             NaN             NaN
             NaN             NaN             NaN
             NaN             NaN             NaN
             NaN             NaN             NaN
             NaN             NaN             NaN
             NaN             NaN             NaN
             NaN             NaN             NaN
             NaN             NaN             NaN
             NaN             NaN             NaN
             NaN             NaN             NaN
             NaN             NaN             NaN
             NaN             NaN             NaN
             NaN             NaN             NaN
             NaN             NaN             NaN
             NaN             NaN             NaN
             NaN             NaN             NaN
             NaN             NaN             NaN
             NaN             NaN             NaN
             NaN             NaN             NaN
             NaN             NaN             NaN
             NaN             NaN             NaN
             NaN             NaN             NaN
             NaN             NaN             NaN
             NaN             NaN             NaN
             NaN             NaN             NaN
             NaN             NaN             NaN
             NaN             NaN             NaN
             NaN             NaN             NaN
             NaN             NaN             NaN
             NaN             NaN             NaN
             NaN             NaN             NaN
             NaN             NaN             NaN
             NaN             NaN             NaN
             NaN             NaN             NaN
             NaN             NaN             NaN
             NaN             NaN             NaN
             NaN             NaN             NaN
             NaN             NaN             NaN
             NaN             NaN             NaN
             NaN             NaN             NaN
             NaN             NaN             NaN
             NaN             NaN             NaN
             NaN             NaN             NaN
             NaN             NaN             NaN
             NaN             NaN             NaN
             NaN             NaN             NaN
             NaN             NaN             NaN
             NaN             NaN             NaN
             NaN             NaN             NaN
             NaN             NaN             NaN
             NaN             NaN             NaN
             NaN             NaN             NaN
             NaN             NaN             NaN
             NaN             NaN             NaN
             NaN             NaN             NaN
             NaN             NaN             NaN
             NaN             NaN             NaN
             NaN             NaN             NaN
             NaN             NaN             NaN
             NaN             NaN             NaN
             NaN             NaN             NaN
             NaN             NaN             NaN
             NaN             NaN             NaN
             NaN             NaN             NaN
             NaN             NaN             NaN
             NaN             NaN             NaN
             NaN             NaN             NaN
             NaN             NaN             NaN
             NaN             NaN             NaN
             NaN             NaN             NaN
             NaN             NaN             NaN
             NaN             NaN             NaN
             NaN             NaN             NaN
             NaN             NaN             NaN
             NaN             NaN             NaN
             NaN             NaN             NaN
             NaN             NaN             NaN
             NaN             NaN             NaN
             NaN             NaN             NaN
             NaN             NaN             NaN
             NaN             NaN             NaN
             NaN             NaN             NaN
             NaN             NaN             NaN
             NaN             NaN             NaN
             NaN             NaN             NaN
             NaN             NaN             NaN
             NaN             NaN             NaN
             NaN             NaN             NaN
             NaN             NaN             NaN
             NaN             NaN             NaN
             NaN             NaN             NaN
             NaN             NaN             NaN
             NaN             NaN             NaN
             NaN             NaN             NaN
             NaN             NaN             NaN
             NaN             NaN             NaN
             NaN             NaN             NaN
             NaN             NaN             NaN
             NaN             NaN             NaN
             NaN             NaN             NaN
             NaN             NaN             NaN
             NaN             NaN             NaN
             NaN             NaN             NaN
             NaN             NaN             NaN
             NaN             NaN             NaN
             NaN             NaN             NaN
             NaN             NaN             NaN
             NaN             NaN             NaN
             NaN             NaN             NaN
             NaN             NaN             NaN
             NaN             NaN             NaN
             NaN             NaN             NaN
             NaN             NaN             NaN
             NaN             NaN             NaN
             NaN             NaN             NaN
             NaN             NaN             NaN
             NaN             NaN             NaN
             NaN             NaN             NaN
             NaN             NaN             NaN
             NaN             NaN             NaN
             NaN             NaN             NaN
             NaN             NaN             NaN
             NaN             NaN             NaN
             NaN             NaN             NaN
             NaN             NaN             NaN
             NaN             NaN             NaN
             NaN             NaN             NaN
             NaN             NaN             NaN
             NaN             NaN             NaN
             NaN             NaN             NaN
             NaN             NaN             NaN
             NaN             NaN             NaN
             NaN             NaN             NaN
             NaN             NaN             NaN
             NaN             NaN             NaN
             NaN             NaN             NaN
             NaN             NaN             NaN
             NaN             NaN             NaN
             NaN             NaN             NaN
             NaN             NaN             NaN
             NaN             NaN             NaN
             NaN             NaN             NaN
             NaN             NaN             NaN
             NaN             NaN             NaN
             NaN             NaN             NaN
             NaN             NaN             NaN
             NaN             NaN             NaN
             NaN             NaN             NaN
