Ca Mn P O  
1
   9.5299907432863993  -0.1588119352107020  -0.1132578939502040
   0.5738946987802570   9.4612614575261897   0.1481337844736920
  -8.6829311184239693  -7.3794657420678904  21.2264216287667011
Ca Mn P O  
11  24  24  96  
Direct
  0.5549130777978110  0.5635622634417700  0.5369844206238310  
  0.4979724860110020  0.4897923946802840  0.9960294940932229  
  0.3491797951665600  0.3745700347286520  0.1733267410417060  
  0.3283550113558390  0.3965570893884550  0.6766722303534380  
  0.7523408284271340  0.7458687013715670  0.1239837093021250  
  0.0056681790036472  0.0086654516728596  0.2541005435574790  
  0.9731242990491820  0.9650894382810040  0.7258927480727611  
  0.2614051949900310  0.2792621138753520  0.3898498514572070  
  0.2412475638220070  0.2270381290873470  0.8625945911995080  
  0.6464138567555420  0.6362203286461150  0.3274474035991890  
  0.6609971239901460  0.6123118145011121  0.8250113738783960  
  0.4639981691704920  0.1447250514591240  0.0440135717553423  
  0.4624868656662690  0.1670646850113860  0.5489892060768030  
  0.0223758597510754  0.3452047296843240  0.2032240939592690  
  0.0133555045767657  0.3349423197499610  0.7022731581171910  
  0.0854380327134030  0.8187429708867060  0.0711520597878747  
  0.0790145589820472  0.8117288885124040  0.5751002586780840  
  0.8800016181837920  0.3753544658325890  0.0588007323466100  
  0.8712150678066460  0.3913078796108970  0.5589764831583830  
  0.6376441958140260  0.1097664924626100  0.1884209674692440  
  0.6306615076115710  0.0967069144648771  0.6858332289242830  
  0.4008048431076840  0.7237095460104610  0.1746358170078200  
  0.4076297711741480  0.7304157836774520  0.6725219114806210  
  0.5935909988134720  0.2862788946519550  0.3249806677907310  
  0.6067347312503450  0.2651554764344070  0.8274916007323340  
  0.3665348725213880  0.9027033706684490  0.3127930531034440  
  0.3615129437095060  0.8777150634333220  0.8111667849293960  
  0.1180813173666600  0.6328193277705990  0.4411680018273440  
  0.1254399511361210  0.6122341593308560  0.9412915394084430  
  0.9776881031853470  0.6593097969739919  0.2951982020792860  
  0.9795765726203990  0.6481866941306150  0.7980547691141870  
  0.9152564430724840  0.1874620113401820  0.4280763746549500  
  0.9221968829750889  0.1733749082253860  0.9284016672489700  
  0.5296483845469681  0.8611295871552450  0.4568402701489860  
  0.5405861275737061  0.8415775774386191  0.9551566892789750  
  0.2096372986727540  0.4085135019470510  0.0395766310280211  
  0.1997608780654190  0.4292206455327310  0.5385292899765109  
  0.8211338136671640  0.0585006920977419  0.0885770682406589  
  0.8183710428408300  0.0674004860782189  0.5878146204131000  
  0.2928483639054800  0.0837280045324609  0.2067256695855170  
  0.2970390056497070  0.0800568829148989  0.7106466071547460  
  0.4250201461702070  0.8305577264766190  0.0659950536237315  
  0.4096576610966200  0.8364613062202030  0.5603536718177050  
  0.0767248266252648  0.6681782990282960  0.1797961823016360  
  0.0883575075736816  0.6641136124445760  0.6860574342420230  
  0.6622379503807080  0.4547323379733390  0.1681053786608010  
  0.6592290501598750  0.4470268559625040  0.6707945685219060  
  0.3330594710157460  0.5502709678028200  0.3281540681060920  
  0.3415396043142800  0.5355222414072320  0.8319479483819440  
  0.9223951667271240  0.3387192808225110  0.3186751007271860  
  0.9248314011034140  0.3257248221745860  0.8199145783223600  
  0.5762135808022130  0.1707600824068510  0.4341789666364430  
  0.5813266226050861  0.1584309086411540  0.9352457329403711  
  0.7083011814284920  0.9190816736446070  0.2915747896790980  
  0.7076312279927970  0.9129740039560890  0.7920403052918150  
  0.1814007865505050  0.9491129431162090  0.4109949685820940  
  0.1857789113643450  0.9320938710568050  0.9125935061017650  
  0.7841270105792850  0.5974158823316070  0.4601172903432860  
  0.7963145787954840  0.5801917713535391  0.9613280742095780  
  0.0391530113658404  0.3536187683124360  0.0148807296308441  
  0.0321177647676067  0.3649001790924430  0.5131950577390449  
  0.6580849453137260  0.0329526466657770  0.0384583889256146  
  0.6553117882633890  0.0465900080752084  0.5379974347794910  
  0.4587500081396150  0.0019654427542033  0.0947090252991550  
  0.4519092568997880  0.0048768105358819  0.5939498686009950  
  0.3045177832082630  0.2842459269332130  0.0605100599532227  
  0.3044452419182560  0.3179295362928930  0.5665405851882530  
  0.1953623028558250  0.2040487292478330  0.1831586122794630  
  0.2030309627279270  0.2025302046032650  0.6875224205770460  
  0.2547864861438630  0.7812115621504300  0.0302764041711691  
  0.2357678495818400  0.8008280008834870  0.5277575149318811  
  0.0430408193715236  0.4953273199072470  0.1523011669837480  
  0.0482787570995572  0.4929048180998080  0.6533398246832720  
  0.2515704574376680  0.5440521921371499  0.1000066614595540  
  0.2273107199900440  0.5765172653283960  0.5932943032898230  
  0.5153925944771810  0.7539878963551711  0.0226789789188944  
  0.4831505644271820  0.7658138002879720  0.5101113893290420  
  0.0058852830191890  0.7349076579476080  0.1257691417004250  
  0.0162111539446901  0.7551263358023160  0.6410465659771180  
  0.7574826899782720  0.5507669910796850  0.0151914186993097  
  0.7530065773611681  0.5521895010550620  0.5112036012644170  
  0.8154741643113200  0.0174902474026273  0.1471949356328890  
  0.8104228717504780  0.0454367601187592  0.6487703761903501  
  0.2552780909489690  0.0596072856106258  0.2613241833434570  
  0.2528901917890360  0.0545876127385017  0.7641299982319070  
  0.5941007156659250  0.2896420250722100  0.1473640920583410  
  0.5870072485840460  0.2846332912900520  0.6520968865090180  
  0.8747889686627440  0.2268363239154190  0.1102676034837780  
  0.8800760505933460  0.2332244267270230  0.6065718191110080  
  0.4621433358392500  0.1464248835303880  0.2293460919504450  
  0.4683151622560330  0.1347104810013610  0.7356832249924939  
  0.6562237327663000  0.4986328970493780  0.1100574105499350  
  0.6576518359197290  0.4779476019658340  0.6118910909877090  
  0.5004355524216170  0.7656877934979860  0.1208652495016130  
  0.4825558739915950  0.7501624330635410  0.6074881382847760  
  0.9862786966895500  0.7424531236982650  0.2233119100102010  
  0.0247204162073827  0.7330951539744029  0.7387999101517160  
  0.1688299396745500  0.5316935339343850  0.2801139168102500  
  0.1789693043521890  0.5064077096813731  0.7825663532936390  
  0.2662435843943210  0.9318709000837400  0.1546543267311280  
  0.2692185889831850  0.9287439117324010  0.6579608941008760  
  0.2479427935933970  0.7120731875268420  0.2175799541770210  
  0.2658560943966270  0.6890100788931530  0.7179117741629510  
  0.5595497874491340  0.5499741548419080  0.2023347735042630  
  0.5553939868185510  0.5480319490253270  0.7030472252829510  
  0.0828297125381717  0.0533930778624172  0.4397687327003010  
  0.0824439926495668  0.0321230440283755  0.9401787033376050  
  0.9236487517223290  0.9588056739133690  0.0605379836446939  
  0.9213248904758660  0.9596986912767780  0.5634320617251470  
  0.4354510757608650  0.4567190438366490  0.2927704418491980  
  0.4498545223387060  0.4454558836879290  0.7994910036660590  
  0.7502458690935800  0.2952166255180950  0.2819682125761020  
  0.7521135235563881  0.2871435421247270  0.7842986024731240  
  0.8268303469410070  0.4774065778095920  0.2155736632899300  
  0.8234715511121860  0.4695942642357980  0.7198237869044660  
  0.7398950499264740  0.0705067205158696  0.3436739741356400  
  0.7385175640193300  0.0640324030520051  0.8456165485667090  
  0.0081389099802844  0.2657035420761820  0.2736170743068650  
  0.0088398302403170  0.2504266859368900  0.7742049171122550  
  0.4972699226462740  0.2221326716680490  0.3755370588002560  
  0.5062788679535770  0.2307813542664180  0.8823365843067510  
  0.3368634254695480  0.5012147146868170  0.3837998294555280  
  0.3445651146238290  0.4888708632829450  0.8890511896756370  
  0.5387094629106201  0.8589344569505870  0.2703087303833250  
  0.5377445095678440  0.8536710905896510  0.7701021029803250  
  0.1251425850216100  0.7820608676780040  0.3888786139803510  
  0.1282216668489690  0.7638871034824790  0.8902965411360720  
  0.4037232494137940  0.7152333997540660  0.3503095014226380  
  0.4050552627577770  0.7022234599885960  0.8539489833495970  
  0.7436245145475400  0.9401505989475710  0.2356550682870490  
  0.7407097813366310  0.9382340199914539  0.7369553599624060  
  0.1890456351209970  0.9907570505645750  0.3529332499792820  
  0.1975286330478370  0.9744375231223320  0.8558258872661511  
  0.2395846662247840  0.4552133219621780  0.4842948043116720  
  0.2477128910648430  0.4454098537015550  0.9873985689915150  
  0.9941783676321980  0.2692359708590820  0.3717890840205270  
  0.0008250558329568  0.2619028648255640  0.8744659611772890  
  0.4870550587004580  0.2496940087367700  0.4772173269137580  
  0.4928783963258030  0.2319304967746820  0.9795819871856680  
  0.7394282974924810  0.4683179428143930  0.3971203400700710  
  0.7570181020001070  0.4387151377210050  0.9033398529181440  
  0.9561643581717720  0.5113474929682210  0.3465265138458880  
  0.9575636289272800  0.4998917441921910  0.8471932623393180  
  0.7463563686518629  0.2203119496617060  0.4681823373067810  
  0.7520061919097860  0.2074769948021270  0.9706815436513000  
  0.8043390578611520  0.7972873873303670  0.3145204691435880  
  0.8039007046227500  0.7911845335623831  0.8151650064784550  
  0.6888793281300680  0.7250949666586640  0.4419321732001060  
  0.6991005771691340  0.6999985937546370  0.9372615493252280  
  0.5465068638263390  0.9964627038307250  0.4078767730116340  
  0.5469601741029680  0.9880626723023450  0.9051061726614280  
  0.3449368306478440  0.9747609780511770  0.4616423085046620  
  0.3476752003136440  0.9526102559018040  0.9636826873701230  
  0.9543336105080740  0.6510783311721020  0.4834577650807170  
  0.9660621322919650  0.6367468972981960  0.9858097229716259  
