Ca Ti O                                 
   1.00000000000000     
    14.6439819335999992    0.0000000000000000    0.0000000000000000
    13.3873346942999998    5.9351054458999997    0.0000000000000000
     6.3008069636000004    1.3340776753000001    7.1998947533999997
   Ca   Ti   O 
     3    16    32
Selective dynamics
Direct
  0.8055931960201974  0.3055926105278459  0.8429125438440721   T   T   T
  0.3065333389173830  0.3074286956685910  0.8897127949411328   T   T   T
  0.8074304563207235  0.8065367231989100  0.8897031592082101   T   T   T
  0.1859120959845555  0.1899990674444183  0.4201230351087943   T   T   T
  0.1809250500535029  0.6809240146815299  0.4516140278193035   T   T   T
  0.6798484657491102  0.1798482463258395  0.4549714124440882   T   T   T
  0.6899992563139890  0.6859128777420267  0.4201207698923213   T   T   T
  0.4366214217808917  0.4315466217765120  0.7894629278761798   T   T   T
  0.4162944719184338  0.9162937138249632  0.7887891413560695   T   T   T
  0.9275160373641285  0.4275166919156348  0.7834402623933769   T   T   T
  0.9315445152734441  0.9366238792462127  0.7894639652580935   T   T   T
  0.0820853254283946  0.0809648575644175  0.1504117876084052   T   T   T
  0.0887466489555919  0.5887473170837794  0.1599567719323574   T   T   T
  0.5864756432842313  0.0864796675480832  0.1646817857237650   T   T   T
  0.5809642742673873  0.5820856703872579  0.1504126210169758   T   T   T
  0.3199355341825552  0.3198397293815987  0.5285307048736385   T   T   T
  0.3332578307914460  0.8332579888788985  0.4897805597647178   T   T   T
  0.8371764826130033  0.3371765080072464  0.4566343756048923   T   T   T
  0.8198401479261079  0.8199353465988750  0.5285270322290145   T   T   T
  0.0823088215928820  0.0706286671261722  0.3618305378558020   T   T   T
  0.0724312183627518  0.5724288839940925  0.3867274409554540   T   T   T
  0.5733443149126671  0.0733445728708091  0.3855342463445837   T   T   T
  0.5706293690302218  0.5823068500482265  0.3618315543548150   T   T   T
  0.2768595345229983  0.2810176492062482  0.2226026413729727   T   T   T
  0.2675523804477180  0.7675535517621270  0.2583204774237799   T   T   T
  0.7679194878207340  0.2679184386588744  0.2517081013117846   T   T   T
  0.7810175065234830  0.7768605588668436  0.2226037762722726   T   T   T
  0.2369922449932673  0.2206238761940398  0.7150916937168645   T   T   T
  0.2404676296498280  0.7404667042284601  0.6960304490642670   T   T   T
  0.7425595329707733  0.2425598259743325  0.6999704923520369   T   T   T
  0.7206251074087575  0.7369906853894435  0.7150919058308176   T   T   T
  0.4269813506526532  0.4250430857771335  0.6002208153542625   T   T   T
  0.4355111417456854  0.9355107783969885  0.5590862199468845   T   T   T
  0.9301146101216844  0.4301160046842512  0.5742406378055804   T   T   T
  0.9250417681383780  0.9269814367946765  0.6002226778598612   T   T   T
  0.4122516092367903  0.4120072440141627  0.3647368996627094   T   T   T
  0.4271129948158361  0.9271138744101464  0.3057350783824475   T   T   T
  0.9291388064804735  0.4291402602970251  0.2947459296563792   T   T   T
  0.9120087099391014  0.9122508727266165  0.3647363754042203   T   T   T
  0.0987181903880696  0.1139795693667622  0.8993873419087919   T   T   T
  0.1144942556941118  0.6144909629467534  0.9040096801732602   T   T   T
  0.6140169087994849  0.1140172162387714  0.9045302885477895   T   T   T
  0.6139790214463687  0.5987181879096823  0.8993876965721483   T   T   T
  0.0840566366336688  0.1013558731697941  0.5979738416787086   T   T   T
  0.0739589396766149  0.5739559415235931  0.6726600050985851   T   T   T
  0.5753514993091144  0.0753509777884318  0.6707443160726640   T   T   T
  0.6013552085838327  0.5840575717830845  0.5979735979461438   T   T   T
  0.4025621435754090  0.3978983685321467  0.0414071274281085   T   T   T
  0.3883905475787017  0.8883909225654207  0.0430264101169158   T   T   T
  0.8903363892537612  0.3903364457861187  0.0455850854168318   T   T   T
  0.8978990335490806  0.9025609901661227  0.0414074532168627   T   T   T
 
  0.00000000E+00  0.00000000E+00  0.00000000E+00
  0.00000000E+00  0.00000000E+00  0.00000000E+00
  0.00000000E+00  0.00000000E+00  0.00000000E+00
  0.00000000E+00  0.00000000E+00  0.00000000E+00
  0.00000000E+00  0.00000000E+00  0.00000000E+00
  0.00000000E+00  0.00000000E+00  0.00000000E+00
  0.00000000E+00  0.00000000E+00  0.00000000E+00
  0.00000000E+00  0.00000000E+00  0.00000000E+00
  0.00000000E+00  0.00000000E+00  0.00000000E+00
  0.00000000E+00  0.00000000E+00  0.00000000E+00
  0.00000000E+00  0.00000000E+00  0.00000000E+00
  0.00000000E+00  0.00000000E+00  0.00000000E+00
  0.00000000E+00  0.00000000E+00  0.00000000E+00
  0.00000000E+00  0.00000000E+00  0.00000000E+00
  0.00000000E+00  0.00000000E+00  0.00000000E+00
  0.00000000E+00  0.00000000E+00  0.00000000E+00
  0.00000000E+00  0.00000000E+00  0.00000000E+00
  0.00000000E+00  0.00000000E+00  0.00000000E+00
  0.00000000E+00  0.00000000E+00  0.00000000E+00
  0.00000000E+00  0.00000000E+00  0.00000000E+00
  0.00000000E+00  0.00000000E+00  0.00000000E+00
  0.00000000E+00  0.00000000E+00  0.00000000E+00
  0.00000000E+00  0.00000000E+00  0.00000000E+00
  0.00000000E+00  0.00000000E+00  0.00000000E+00
  0.00000000E+00  0.00000000E+00  0.00000000E+00
  0.00000000E+00  0.00000000E+00  0.00000000E+00
  0.00000000E+00  0.00000000E+00  0.00000000E+00
  0.00000000E+00  0.00000000E+00  0.00000000E+00
  0.00000000E+00  0.00000000E+00  0.00000000E+00
  0.00000000E+00  0.00000000E+00  0.00000000E+00
  0.00000000E+00  0.00000000E+00  0.00000000E+00
  0.00000000E+00  0.00000000E+00  0.00000000E+00
  0.00000000E+00  0.00000000E+00  0.00000000E+00
  0.00000000E+00  0.00000000E+00  0.00000000E+00
  0.00000000E+00  0.00000000E+00  0.00000000E+00
  0.00000000E+00  0.00000000E+00  0.00000000E+00
  0.00000000E+00  0.00000000E+00  0.00000000E+00
  0.00000000E+00  0.00000000E+00  0.00000000E+00
  0.00000000E+00  0.00000000E+00  0.00000000E+00
  0.00000000E+00  0.00000000E+00  0.00000000E+00
  0.00000000E+00  0.00000000E+00  0.00000000E+00
  0.00000000E+00  0.00000000E+00  0.00000000E+00
  0.00000000E+00  0.00000000E+00  0.00000000E+00
  0.00000000E+00  0.00000000E+00  0.00000000E+00
  0.00000000E+00  0.00000000E+00  0.00000000E+00
  0.00000000E+00  0.00000000E+00  0.00000000E+00
  0.00000000E+00  0.00000000E+00  0.00000000E+00
  0.00000000E+00  0.00000000E+00  0.00000000E+00
  0.00000000E+00  0.00000000E+00  0.00000000E+00
  0.00000000E+00  0.00000000E+00  0.00000000E+00
  0.00000000E+00  0.00000000E+00  0.00000000E+00
