Ca V  Fe P  O 
1.0
        9.8243007660         0.0000000000         0.0000000000
       -0.1070691620         8.1941867290         0.0000000000
       -4.0546569542         0.2224421232        13.7706143544
   Ca    V   Fe    P    O
    3    4    4   16   56
Direct
     0.381390989         0.425842434         0.627889097
     0.381390989         0.425842434         0.127889112
     0.881390989         0.425842434         0.127889112
     0.098697178         0.504905760         0.364400804
     0.098697178         0.504905760         0.864400804
     0.598697186         0.504905760         0.364400804
     0.598697186         0.504905760         0.864400804
     0.380732834         0.992261767         0.130647644
     0.380732834         0.992261767         0.630647659
     0.880732834         0.992261767         0.130647644
     0.880732834         0.992261767         0.630647659
     0.177533984         0.191877663         0.245092839
     0.177533984         0.191877663         0.745092869
     0.677533984         0.191877663         0.245092839
     0.677533984         0.191877663         0.745092869
     0.103173666         0.764622808         0.054152001
     0.103173666         0.764622808         0.554152012
     0.603173673         0.764622808         0.054152001
     0.603173673         0.764622808         0.554152012
     0.368988067         0.263720274         0.437667042
     0.368988067         0.263720274         0.937667012
     0.868988037         0.263720274         0.437667042
     0.868988037         0.263720274         0.937667012
     0.294373602         0.701389909         0.251115412
     0.294373602         0.701389909         0.751115441
     0.794373631         0.701389909         0.251115412
     0.794373631         0.701389909         0.751115441
     0.498028576         0.313037992         0.405377924
     0.498028576         0.313037992         0.905377924
     0.998028576         0.313037992         0.405377924
     0.998028576         0.313037992         0.905377924
     0.067541458         0.650850654         0.469068408
     0.067541458         0.650850654         0.969068408
     0.567541480         0.650850654         0.469068408
     0.567541480         0.650850654         0.969068408
     0.067382231         0.058760867         0.218208537
     0.067382231         0.058760867         0.718208551
     0.567382216         0.058760867         0.218208537
     0.567382216         0.058760867         0.718208551
     0.111183234         0.363140702         0.244277418
     0.111183234         0.363140702         0.744277418
     0.611183226         0.363140702         0.244277418
     0.611183226         0.363140702         0.744277418
     0.199928805         0.683884501         0.317776561
     0.199928805         0.683884501         0.817776561
     0.699928820         0.683884501         0.317776561
     0.699928820         0.683884501         0.817776561
     0.283317566         0.414155662         0.454284668
     0.283317566         0.414155662         0.954284668
     0.783317566         0.414155662         0.454284668
     0.783317566         0.414155662         0.954284668
     0.266621530         0.151505426         0.356880516
     0.266621530         0.151505426         0.856880546
     0.766621530         0.151505426         0.356880516
     0.766621530         0.151505426         0.856880546
     0.205028698         0.644201577         0.140772685
     0.205028698         0.644201577         0.640772700
     0.705028713         0.644201577         0.140772685
     0.705028713         0.644201577         0.640772700
     0.192643479         0.915464163         0.047741588
     0.192643479         0.915464163         0.547741592
     0.692643464         0.915464163         0.047741588
     0.692643464         0.915464163         0.547741592
     0.282191336         0.198989943         0.182558239
     0.282191336         0.198989943         0.682558239
     0.782191336         0.198989943         0.182558239
     0.782191336         0.198989943         0.682558239
     0.347708136         0.873528600         0.244266152
     0.347708136         0.873528600         0.744266152
     0.847708106         0.873528600         0.244266152
     0.847708106         0.873528600         0.744266152
     0.411044031         0.570331275         0.269056946
     0.411044031         0.570331275         0.769056916
     0.911044002         0.570331275         0.269056946
     0.911044002         0.570331275         0.769056916
     0.409352899         0.168869004         0.034457818
     0.409352899         0.168869004         0.534457803
     0.909352899         0.168869004         0.034457818
     0.909352899         0.168869004         0.534457803
     0.471219122         0.798559070         0.087568171
     0.471219122         0.798559070         0.587568164
     0.971219122         0.798559070         0.087568171
     0.971219122         0.798559070         0.587568164
