Ca V  F 
1.0
        8.0216436386         0.0000000000         0.0000000000
       -0.0000013897        10.4367713928         0.0000000000
        0.0000068409         4.3269617375         9.3193137761
   Ca    V    F
    7    8   40
Direct
     0.501725912         0.445481718         0.347555459
     0.498257577         0.054526065         0.652419508
     0.998288870         0.445459962         0.847570658
     0.998288870         0.945459962         0.847570658
     0.001737833         0.054534502         0.152432382
     0.001737833         0.554534495         0.152432382
     0.501725912         0.945481718         0.347555459
     0.164207473         0.229044169         0.418452799
     0.164207473         0.729044199         0.418452799
     0.664178312         0.270939529         0.081691206
     0.664178312         0.770939529         0.081691206
     0.335789442         0.228883579         0.918529987
     0.335789442         0.728883564         0.918529987
     0.835971177         0.271187544         0.581573606
     0.835971177         0.771187544         0.581573606
     0.846045315         0.417538255         0.060221881
     0.846045315         0.917538285         0.060221881
     0.665881753         0.224305928         0.470819890
     0.665881753         0.724305928         0.470819890
     0.763773739         0.094622359         0.738331378
     0.763773739         0.594622374         0.738331378
     0.037690759         0.131375954         0.599786818
     0.037690759         0.631375968         0.599786818
     0.542113066         0.339280754         0.196665496
     0.542113066         0.839280725         0.196665496
     0.042090654         0.160708070         0.303298891
     0.042090654         0.660708070         0.303298891
     0.537695110         0.368678719         0.900148034
     0.537695110         0.868678689         0.900148034
     0.346050978         0.082478590         0.439772040
     0.346050978         0.582478583         0.439772040
     0.834069431         0.224304512         0.970872521
     0.834069431         0.724304497         0.970872521
     0.263796747         0.405353159         0.761708617
     0.263796747         0.905353189         0.761708617
     0.736194193         0.094744645         0.238194615
     0.736194193         0.594744623         0.238194615
     0.165921584         0.275692284         0.029126525
     0.165921584         0.775692284         0.029126525
     0.653962433         0.417517573         0.560238838
     0.653962433         0.917517543         0.560238838
     0.462298512         0.131397069         0.099758178
     0.462298512         0.631397069         0.099758178
     0.957822025         0.339252204         0.696572304
     0.957822025         0.839252234         0.696572304
     0.457914978         0.160695657         0.803345919
     0.457914978         0.660695672         0.803345919
     0.962310016         0.368592352         0.400244892
     0.962310016         0.868592381         0.400244892
     0.236187845         0.405254811         0.261806756
     0.236187845         0.905254841         0.261806756
     0.334052205         0.275673538         0.529092252
     0.334052205         0.775673509         0.529092252
     0.153971970         0.082476497         0.939768553
     0.153971970         0.582476497         0.939768553
