Ca1 V4 O8
1.0
        9.0534505844         0.0000000000         0.0000000000
        3.0275833210        12.6875752776         0.0000000000
        3.0373049732        -0.7303503500        14.9293549022
   Ca    V    O
   11   48   96
Direct
     0.167398334         0.500326991         0.498699009
     0.167398334         0.000327000         0.498699009
     0.167398334         0.000327000         0.998699009
     0.167398334         0.500326991         0.998699009
     0.500731647         0.000327000         0.498699009
     0.500731647         0.000327000         0.998699009
     0.500731647         0.500326991         0.998699009
     0.834065020         0.000327000         0.498699009
     0.834065020         0.000327000         0.998699009
     0.834065020         0.500326991         0.498699009
     0.834065020         0.500326991         0.998699009
     0.211818337         0.098672502         0.265723497
     0.211818337         0.098672502         0.765723467
     0.211818337         0.598672509         0.265723497
     0.211818337         0.598672509         0.765723467
     0.545151651         0.098672502         0.265723497
     0.545151651         0.098672502         0.765723467
     0.545151651         0.598672509         0.265723497
     0.545151651         0.598672509         0.765723467
     0.878485024         0.098672502         0.265723497
     0.878485024         0.098672502         0.765723467
     0.878485024         0.598672509         0.265723497
     0.878485024         0.598672509         0.765723467
     0.063640669         0.221922994         0.088215001
     0.063640669         0.221922994         0.588214993
     0.063640669         0.721922994         0.088215001
     0.063640669         0.721922994         0.588214993
     0.396973997         0.221922994         0.088215001
     0.396973997         0.221922994         0.588214993
     0.396973997         0.721922994         0.088215001
     0.396973997         0.721922994         0.588214993
     0.730307341         0.221922994         0.088215001
     0.730307341         0.221922994         0.588214993
     0.730307341         0.721922994         0.088215001
     0.730307341         0.721922994         0.588214993
     0.269458324         0.277945012         0.412115514
     0.269458324         0.277945012         0.912115514
     0.269458324         0.777945042         0.412115514
     0.269458324         0.777945042         0.912115514
     0.602791667         0.277945012         0.412115514
     0.602791667         0.277945012         0.912115514
     0.602791667         0.777945042         0.412115514
     0.602791667         0.777945042         0.912115514
     0.936124980         0.277945012         0.412115514
     0.936124980         0.277945012         0.912115514
     0.936124980         0.777945042         0.412115514
     0.936124980         0.777945042         0.912115514
     0.121543340         0.401118994         0.234500498
     0.121543340         0.401118994         0.734500527
     0.121543340         0.901118994         0.234500498
     0.121543340         0.901118994         0.734500527
     0.454876661         0.401118994         0.234500498
     0.454876661         0.401118994         0.734500527
     0.454876661         0.901118994         0.234500498
     0.454876661         0.901118994         0.734500527
     0.788210034         0.401118994         0.234500498
     0.788210034         0.401118994         0.734500527
     0.788210034         0.901118994         0.234500498
     0.788210034         0.901118994         0.734500527
     0.284515649         0.345701993         0.300654501
     0.284515649         0.345701993         0.800654531
     0.284515649         0.845701993         0.300654501
     0.284515649         0.845701993         0.800654531
     0.617848992         0.345701993         0.300654501
     0.617848992         0.345701993         0.800654531
     0.617848992         0.845701993         0.300654501
     0.617848992         0.845701993         0.800654531
     0.951182306         0.345701993         0.300654501
     0.951182306         0.345701993         0.800654531
     0.951182306         0.845701993         0.300654501
     0.951182306         0.845701993         0.800654531
     0.147670999         0.190121993         0.365731508
     0.147670999         0.190121993         0.865731478
     0.147670999         0.690122008         0.365731508
     0.147670999         0.690122008         0.865731478
     0.481004328         0.190121993         0.365731508
     0.481004328         0.190121993         0.865731478
     0.481004328         0.690122008         0.365731508
     0.481004328         0.690122008         0.865731478
     0.814337671         0.190121993         0.365731508
     0.814337671         0.190121993         0.865731478
     0.814337671         0.690122008         0.365731508
     0.814337671         0.690122008         0.865731478
     0.185483336         0.309731007         0.134490997
     0.185483336         0.309731007         0.634490967
     0.185483336         0.809731007         0.134490997
     0.185483336         0.809731007         0.634490967
     0.518816650         0.309731007         0.134490997
     0.518816650         0.309731007         0.634490967
     0.518816650         0.809731007         0.134490997
     0.518816650         0.809731007         0.634490967
     0.852150023         0.309731007         0.134490997
     0.852150023         0.309731007         0.634490967
     0.852150023         0.809731007         0.134490997
     0.852150023         0.809731007         0.634490967
     0.048799668         0.154087499         0.199586004
     0.048799668         0.154087499         0.699586034
     0.048799668         0.654087484         0.199586004
     0.048799668         0.654087484         0.699586034
     0.382133007         0.154087499         0.199586004
     0.382133007         0.154087499         0.699586034
     0.382133007         0.654087484         0.199586004
     0.382133007         0.654087484         0.699586034
     0.715466321         0.154087499         0.199586004
     0.715466321         0.154087499         0.699586034
     0.715466321         0.654087484         0.199586004
     0.715466321         0.654087484         0.699586034
     0.052919332         0.019544501         0.321139514
     0.052919332         0.019544501         0.821139514
     0.052919332         0.519544482         0.321139514
     0.052919332         0.519544482         0.821139514
     0.386252671         0.019544501         0.321139514
     0.386252671         0.019544501         0.821139514
     0.386252671         0.519544482         0.321139514
     0.386252671         0.519544482         0.821139514
     0.719586015         0.019544501         0.321139514
     0.719586015         0.019544501         0.821139514
     0.719586015         0.519544482         0.321139514
     0.719586015         0.519544482         0.821139514
     0.282800347         0.129967496         0.021459000
     0.282800347         0.129967496         0.521458983
     0.282800347         0.629967511         0.021459000
     0.282800347         0.629967511         0.521458983
     0.616133690         0.129967496         0.021459000
     0.616133690         0.129967496         0.521458983
     0.616133690         0.629967511         0.021459000
     0.616133690         0.629967511         0.521458983
     0.949467003         0.129967496         0.021459000
     0.949467003         0.129967496         0.521458983
     0.949467003         0.629967511         0.021459000
     0.949467003         0.629967511         0.521458983
     0.280205339         0.480322957         0.179546505
     0.280205339         0.480322957         0.679546475
     0.280205339         0.980322957         0.179546505
     0.280205339         0.980322957         0.679546475
     0.613538682         0.480322957         0.179546505
     0.613538682         0.480322957         0.679546475
     0.613538682         0.980322957         0.179546505
     0.613538682         0.980322957         0.679546475
     0.946871996         0.480322957         0.179546505
     0.946871996         0.480322957         0.679546475
     0.946871996         0.980322957         0.179546505
     0.946871996         0.980322957         0.679546475
     0.050414000         0.370536000         0.478139460
     0.050414000         0.370536000         0.978139460
     0.050414000         0.870535970         0.478139460
     0.050414000         0.870535970         0.978139460
     0.383747339         0.370536000         0.478139460
     0.383747339         0.370536000         0.978139460
     0.383747339         0.870535970         0.478139460
     0.383747339         0.870535970         0.978139460
     0.717080653         0.370536000         0.478139460
     0.717080653         0.370536000         0.978139460
     0.717080653         0.870535970         0.478139460
     0.717080653         0.870535970         0.978139460
