Ca V  P  O 
1.0
        8.4609689713         0.0000000000         0.0000000000
       -0.0000084168        10.5347929001         0.0000000000
       -0.0000018138         4.4760789170        12.8646299843
   Ca    V    P    O
    7    8   16   56
Direct
     0.677940369         0.508582294         0.761697054
     0.677940369         0.008582279         0.761697054
     0.177942842         0.991417170         0.738303304
     0.822059333         0.008582028         0.261696666
     0.822059333         0.508582056         0.261696666
     0.322059363         0.491417557         0.238303512
     0.322059363         0.991417527         0.238303512
     0.633197188         0.332500607         0.114276528
     0.633197188         0.832500577         0.114276528
     0.133196414         0.167501017         0.385724008
     0.133196414         0.667501032         0.385724008
     0.866805792         0.332498789         0.614274383
     0.866805792         0.832498789         0.614274383
     0.366805255         0.167500228         0.885723472
     0.366805255         0.667500257         0.885723472
     0.782363951         0.141394556         0.475806057
     0.782363951         0.641394556         0.475806057
     0.527570128         0.223838881         0.322321206
     0.527570128         0.723838866         0.322321206
     0.027516797         0.276162237         0.177672014
     0.027516797         0.776162267         0.177672014
     0.282367200         0.358635545         0.024187244
     0.282367200         0.858635545         0.024187244
     0.717593193         0.141336337         0.975822389
     0.717593193         0.641336322         0.975822389
     0.972476900         0.223840445         0.822333455
     0.972476900         0.723840475         0.822333455
     0.472411275         0.276169837         0.677668989
     0.472411275         0.776169837         0.677668989
     0.217634290         0.358654916         0.524187028
     0.217634290         0.858654916         0.524187028
     0.953687012         0.133293286         0.753306985
     0.953687012         0.633293271         0.753306985
     0.618551612         0.355746239         0.270095855
     0.618551612         0.855746269         0.270095855
     0.171782240         0.217902213         0.526124060
     0.171782240         0.717902184         0.526124060
     0.384444535         0.405351758         0.099951908
     0.384444535         0.905351758         0.099951908
     0.356878608         0.258158088         0.337482184
     0.356878608         0.758158088         0.337482184
     0.272667646         0.466735661         0.916726410
     0.272667646         0.966735661         0.916726410
     0.599146068         0.147179529         0.434484661
     0.599146068         0.647179544         0.434484661
     0.099140860         0.352817267         0.065517917
     0.099140860         0.852817297         0.065517917
     0.772666872         0.033251703         0.583285451
     0.772666872         0.533251703         0.583285451
     0.856917262         0.241852060         0.162518770
     0.856917262         0.741852045         0.162518770
     0.884451389         0.094644487         0.400043428
     0.884451389         0.594644487         0.400043428
     0.671785593         0.282093734         0.973874092
     0.671785593         0.782093763         0.973874092
     0.118567288         0.144239873         0.229908049
     0.118567288         0.644239902         0.229908049
     0.453694463         0.366692424         0.746688008
     0.453694463         0.866692424         0.746688008
     0.546307564         0.133308291         0.253311694
     0.546307564         0.633308291         0.253311694
     0.881425560         0.355765432         0.770091653
     0.881425560         0.855765462         0.770091653
     0.328217179         0.217905134         0.026124716
     0.328217179         0.717905164         0.026124716
     0.115562730         0.405346513         0.599944651
     0.115562730         0.905346513         0.599944651
     0.143095613         0.258148342         0.837485075
     0.143095613         0.758148313         0.837485075
     0.227330357         0.466724247         0.416735381
     0.227330357         0.966724277         0.416735381
     0.900877357         0.147186607         0.934476376
     0.900877357         0.647186637         0.934476376
     0.400861442         0.352811307         0.565524399
     0.400861442         0.852811337         0.565524399
     0.727334619         0.033282802         0.083257966
     0.727334619         0.533282816         0.083257966
     0.643126547         0.241842374         0.662516832
     0.643126547         0.741842389         0.662516832
     0.615572929         0.094656944         0.900057137
     0.615572929         0.594656944         0.900057137
     0.828210473         0.282084405         0.473876417
     0.828210473         0.782084405         0.473876417
     0.381446362         0.144251525         0.729904652
     0.381446362         0.644251525         0.729904652
     0.046309736         0.366695434         0.246688008
     0.046309736         0.866695404         0.246688008
