Ca V  Si O 
1.0
       14.6729612350         0.0000000000         0.0000000000
       -0.1653445111        13.1018610436         0.0000000000
        7.0083468848        -0.9391244563        14.4424826725
   Ca    V   Si    O
   15   16   48  128
Direct
     0.426497340         0.523309767         0.374453872
     0.073393151         0.476785988         0.125678435
     0.073393151         0.476785988         0.625678420
     0.573393166         0.476785988         0.625678420
     0.073424213         0.976806641         0.375488192
     0.073424213         0.976806641         0.875488162
     0.573424220         0.976806641         0.375488192
     0.573424220         0.976806641         0.875488162
     0.426497340         0.523309767         0.874453902
     0.926497340         0.523309767         0.374453872
     0.926497340         0.523309767         0.874453902
     0.426716506         0.023159588         0.124409556
     0.426716506         0.023159588         0.624409556
     0.926716506         0.023159588         0.124409556
     0.926716506         0.023159588         0.624409556
     0.414559007         0.295050293         0.259789705
     0.414559007         0.295050293         0.759789705
     0.914559007         0.295050293         0.259789705
     0.914559007         0.295050293         0.759789705
     0.085559666         0.705076635         0.240151674
     0.085559666         0.705076635         0.740151644
     0.585559666         0.705076635         0.240151674
     0.585559666         0.705076635         0.740151644
     0.414389461         0.795029879         0.009826107
     0.414389461         0.795029879         0.509826124
     0.914389491         0.795029879         0.009826107
     0.914389491         0.795029879         0.509826124
     0.085524768         0.204931930         0.490205169
     0.085524768         0.204931930         0.990205169
     0.585524797         0.204931930         0.490205169
     0.585524797         0.204931930         0.990205169
     0.352615863         0.381341577         0.101215832
     0.352615863         0.381341577         0.601215839
     0.852615833         0.381341577         0.101215832
     0.852615833         0.381341577         0.601215839
     0.352560490         0.881294727         0.351291150
     0.352560490         0.881294727         0.851291180
     0.852560520         0.881294727         0.351291150
     0.852560520         0.881294727         0.851291180
     0.147462890         0.618610740         0.398656547
     0.147462890         0.618610740         0.898656547
     0.647462904         0.618610740         0.398656547
     0.647462904         0.618610740         0.898656547
     0.147348672         0.118721291         0.148840666
     0.147348672         0.118721291         0.648840666
     0.647348642         0.118721291         0.148840666
     0.647348642         0.118721291         0.648840666
     0.304766417         0.605442584         0.082750499
     0.304766417         0.605442584         0.582750499
     0.804766417         0.605442584         0.082750499
     0.804766417         0.605442584         0.582750499
     0.304696351         0.105379052         0.332706511
     0.304696351         0.105379052         0.832706511
     0.804696321         0.105379052         0.332706511
     0.804696321         0.105379052         0.832706511
     0.195313945         0.394541651         0.417290181
     0.195313945         0.394541651         0.917290211
     0.695313931         0.394541651         0.417290181
     0.695313931         0.394541651         0.917290211
     0.195270136         0.894623399         0.167195037
     0.195270136         0.894623399         0.667195022
     0.695270121         0.894623399         0.167195037
     0.695270121         0.894623399         0.667195022
     0.367560714         0.173057348         0.990780771
     0.367560714         0.173057348         0.490780771
     0.867560744         0.173057348         0.990780771
     0.867560744         0.173057348         0.490780771
     0.367630035         0.673126936         0.240768462
     0.367630035         0.673126936         0.740768433
     0.867630005         0.673126936         0.240768462
     0.867630005         0.673126936         0.740768433
     0.132362470         0.826814651         0.509226501
     0.132362470         0.826814651         0.009226501
     0.632362485         0.826814651         0.509226501
     0.632362485         0.826814651         0.009226501
     0.132398173         0.326951444         0.259241551
     0.132398173         0.326951444         0.759241581
     0.632398188         0.326951444         0.259241551
     0.632398188         0.326951444         0.759241581
     0.432500958         0.378900319         0.144609794
     0.432500958         0.378900319         0.644609809
     0.932500958         0.378900319         0.144609794
     0.932500958         0.378900319         0.644609809
     0.432666481         0.878857672         0.394449532
     0.432666481         0.878857672         0.894449532
     0.932666481         0.878857672         0.394449532
     0.932666481         0.878857672         0.894449532
     0.067511514         0.621009886         0.355333269
     0.067511514         0.621009886         0.855333269
     0.567511499         0.621009886         0.355333269
     0.567511499         0.621009886         0.855333269
     0.067372017         0.121229082         0.105562113
     0.067372017         0.121229082         0.605562091
     0.567372024         0.121229082         0.105562113
     0.567372024         0.121229082         0.605562091
     0.361587316         0.669378817         0.140538350
     0.361587316         0.669378817         0.640538335
     0.861587286         0.669378817         0.140538350
     0.861587286         0.669378817         0.640538335
     0.361449152         0.169387475         0.390523404
     0.361449152         0.169387475         0.890523434
     0.861449122         0.169387475         0.390523404
     0.861449122         0.169387475         0.890523434
     0.138593331         0.330549598         0.359432042
     0.138593331         0.330549598         0.859432042
     0.638593316         0.330549598         0.359432042
     0.638593316         0.330549598         0.859432042
     0.138334557         0.830539465         0.109521858
     0.138334557         0.830539465         0.609521866
     0.638334572         0.830539465         0.109521858
     0.638334572         0.830539465         0.609521866
     0.235200256         0.371281385         0.178720728
     0.235200256         0.371281385         0.678720713
     0.735200286         0.371281385         0.178720728
     0.735200286         0.371281385         0.678720713
     0.235242382         0.871245503         0.428903252
     0.235242382         0.871245503         0.928903222
     0.735242367         0.871245503         0.428903252
     0.735242367         0.871245503         0.928903222
     0.264844090         0.628657103         0.321175575
     0.264844090         0.628657103         0.821175575
     0.764844060         0.628657103         0.321175575
     0.764844060         0.628657103         0.821175575
     0.264719963         0.128801882         0.071286552
     0.264719963         0.128801882         0.571286559
     0.764719963         0.128801882         0.071286552
     0.764719963         0.128801882         0.571286559
     0.184883192         0.595956445         0.142912328
     0.184883192         0.595956445         0.642912328
     0.684883177         0.595956445         0.142912328
     0.684883177         0.595956445         0.642912328
     0.184795484         0.095998272         0.392730772
     0.184795484         0.095998272         0.892730772
     0.684795499         0.095998272         0.392730772
     0.684795499         0.095998272         0.892730772
     0.315195203         0.403897494         0.357313484
     0.315195203         0.403897494         0.857313514
     0.815195203         0.403897494         0.357313484
     0.815195203         0.403897494         0.857313514
     0.315123230         0.904226542         0.106951803
     0.315123230         0.904226542         0.606951833
     0.815123200         0.904226542         0.106951803
     0.815123200         0.904226542         0.606951833
     0.464239925         0.108217061         0.984747708
     0.464239925         0.108217061         0.484747708
     0.964239955         0.108217061         0.984747708
     0.964239955         0.108217061         0.484747708
     0.464189708         0.608262002         0.234863147
     0.464189708         0.608262002         0.734863162
     0.964189708         0.608262002         0.234863147
     0.964189708         0.608262002         0.734863162
     0.035810132         0.891772568         0.515180767
     0.035810132         0.891772568         0.015180767
     0.535810113         0.891772568         0.515180767
     0.535810113         0.891772568         0.015180767
     0.035728358         0.391741723         0.265307635
     0.035728358         0.391741723         0.765307665
     0.535728335         0.391741723         0.265307635
     0.535728335         0.391741723         0.765307665
     0.359444439         0.488914341         0.049360041
     0.359444439         0.488914341         0.549360037
     0.859444439         0.488914341         0.049360041
     0.859444439         0.488914341         0.549360037
     0.359441519         0.988880038         0.299465239
     0.359441519         0.988880038         0.799465239
     0.859441519         0.988880038         0.299465239
     0.859441519         0.988880038         0.799465239
     0.140642151         0.511109829         0.450515389
     0.140642151         0.511109829         0.950515389
     0.640642166         0.511109829         0.450515389
     0.640642166         0.511109829         0.950515389
     0.140459418         0.011102319         0.200568378
     0.140459418         0.011102319         0.700568378
     0.640459418         0.011102319         0.200568378
     0.640459418         0.011102319         0.700568378
     0.381325305         0.293366015         0.015917368
     0.381325305         0.293366015         0.515917361
     0.881325305         0.293366015         0.015917368
     0.881325305         0.293366015         0.515917361
     0.381239682         0.793382108         0.265938371
     0.381239682         0.793382108         0.765938401
     0.881239653         0.793382108         0.265938371
     0.881239653         0.793382108         0.765938401
     0.118664846         0.706574559         0.484015286
     0.118664846         0.706574559         0.984015286
     0.618664861         0.706574559         0.484015286
     0.618664861         0.706574559         0.984015286
     0.118640006         0.206613719         0.234189779
     0.118640006         0.206613719         0.734189749
     0.618640006         0.206613719         0.234189779
     0.618640006         0.206613719         0.734189749
     0.343925625         0.661536396         0.986446857
     0.343925625         0.661536396         0.486446857
     0.843925595         0.661536396         0.986446857
     0.843925595         0.661536396         0.486446857
     0.343986392         0.161372721         0.236370802
     0.343986392         0.161372721         0.736370802
     0.843986392         0.161372721         0.236370802
     0.843986392         0.161372721         0.736370802
     0.155927479         0.338550031         0.513643205
     0.155927479         0.338550031         0.013643205
     0.655927479         0.338550031         0.513643205
     0.655927479         0.338550031         0.013643205
     0.156266659         0.838632286         0.263536066
     0.156266659         0.838632286         0.763536096
     0.656266689         0.838632286         0.263536066
     0.656266689         0.838632286         0.763536096
