Ca V  S  O  F                           
   1.00000000000000     
     7.1725635528999998    0.0000000000000000    0.0000000000000000
     0.3049279942000000    7.8739067344000002    0.0000000000000000
     0.3193050896000000    0.2618833392000000   10.7378266451000002
   Ca   V    S    O    F 
     3     4     4    16    12
Selective dynamics
Direct
  0.8495211727540536  0.3664628320781540  0.7821864918263353   T   T   T
  0.1414278114321878  0.1277316746878212  0.2736392796441900   T   T   T
  0.6511193386907635  0.8354966989442379  0.2787537323582982   T   T   T
  0.0409738596215110  0.5090376602974649  0.4912594401510795   T   T   T
  0.9620552028417080  0.9899795450348128  0.9909861515251455   T   T   T
  0.5367878242324983  0.5108339380315443  0.4973113589870722   T   T   T
  0.4617693720323984  0.9873529806561951  0.9814193869975384   T   T   T
  0.2115301670150155  0.3241414194031237  0.9998738129361516   T   T   T
  0.2766625229480080  0.8445394695687011  0.5063215857165446   T   T   T
  0.7763706124091559  0.1704473788664286  0.5028804408708748   T   T   T
  0.7433900799264642  0.6552580127805716  0.0289171051520659   T   T   T
  0.0723853829484645  0.1980350533777636  0.0623542166066314   T   T   T
  0.1311378972572952  0.7286185510726063  0.4511001257085804   T   T   T
  0.1175959856917896  0.4176425597559646  0.8998061893304287   T   T   T
  0.1906367836561309  0.9487960404987810  0.6002000237025602   T   T   T
  0.2836387155822471  0.4199775502098570  0.0985707959127193   T   T   T
  0.3505473285348756  0.9416851126755181  0.3944009197748491   T   T   T
  0.3683686580681489  0.2120670250714719  0.9400172432959025   T   T   T
  0.4365661860743028  0.7339957774014231  0.5549509220224932   T   T   T
  0.6262565309401873  0.2883815046356176  0.4440440386282326   T   T   T
  0.5711177073303567  0.7711155678726654  0.0592506849435652   T   T   T
  0.6984602028196221  0.0703563917482778  0.6037132660874414   T   T   T
  0.6979920810340544  0.5202990803235764  0.9465255371219726   T   T   T
  0.8578116064375949  0.0697574374429375  0.3973774917508732   T   T   T
  0.8127703190114114  0.6022732327674721  0.1505150921457175   T   T   T
  0.9239025143442052  0.2833006923527857  0.5536792165912920   T   T   T
  0.8848176256693522  0.7653096545659372  0.9581462836030484   T   T   T
  0.9646931026528716  0.0971504540461658  0.8358732788319533   T   T   T
  0.0006805106515632  0.5568925027038861  0.6582527969911518   T   T   T
  0.2921725368792220  0.4179636825128398  0.5208529091777316   T   T   T
  0.2172813443576972  0.8955279347694649  0.9848602122730450   T   T   T
  0.4235717583956878  0.0317522652349059  0.1611390585138572   T   T   T
  0.4919954893946809  0.5933490224393898  0.3356278892047976   T   T   T
  0.6031780506357595  0.4600735784492533  0.6614631346870606   T   T   T
  0.5137729109767795  0.9180900326992214  0.8308199755470117   T   T   T
  0.7046505800357197  0.0889652735999839  0.0013084661634933   T   T   T
  0.7873144192948885  0.6096858803802153  0.4538517464892126   T   T   T
  0.0669664534769657  0.3965475011835500  0.3400716702716956   T   T   T
  0.9323588189443500  0.9447370218594298  0.1718201914574103   T   T   T
 
  0.00000000E+00  0.00000000E+00  0.00000000E+00
  0.00000000E+00  0.00000000E+00  0.00000000E+00
  0.00000000E+00  0.00000000E+00  0.00000000E+00
  0.00000000E+00  0.00000000E+00  0.00000000E+00
  0.00000000E+00  0.00000000E+00  0.00000000E+00
  0.00000000E+00  0.00000000E+00  0.00000000E+00
  0.00000000E+00  0.00000000E+00  0.00000000E+00
  0.00000000E+00  0.00000000E+00  0.00000000E+00
  0.00000000E+00  0.00000000E+00  0.00000000E+00
  0.00000000E+00  0.00000000E+00  0.00000000E+00
  0.00000000E+00  0.00000000E+00  0.00000000E+00
  0.00000000E+00  0.00000000E+00  0.00000000E+00
  0.00000000E+00  0.00000000E+00  0.00000000E+00
  0.00000000E+00  0.00000000E+00  0.00000000E+00
  0.00000000E+00  0.00000000E+00  0.00000000E+00
  0.00000000E+00  0.00000000E+00  0.00000000E+00
  0.00000000E+00  0.00000000E+00  0.00000000E+00
  0.00000000E+00  0.00000000E+00  0.00000000E+00
  0.00000000E+00  0.00000000E+00  0.00000000E+00
  0.00000000E+00  0.00000000E+00  0.00000000E+00
  0.00000000E+00  0.00000000E+00  0.00000000E+00
  0.00000000E+00  0.00000000E+00  0.00000000E+00
  0.00000000E+00  0.00000000E+00  0.00000000E+00
  0.00000000E+00  0.00000000E+00  0.00000000E+00
  0.00000000E+00  0.00000000E+00  0.00000000E+00
  0.00000000E+00  0.00000000E+00  0.00000000E+00
  0.00000000E+00  0.00000000E+00  0.00000000E+00
  0.00000000E+00  0.00000000E+00  0.00000000E+00
  0.00000000E+00  0.00000000E+00  0.00000000E+00
  0.00000000E+00  0.00000000E+00  0.00000000E+00
  0.00000000E+00  0.00000000E+00  0.00000000E+00
  0.00000000E+00  0.00000000E+00  0.00000000E+00
  0.00000000E+00  0.00000000E+00  0.00000000E+00
  0.00000000E+00  0.00000000E+00  0.00000000E+00
  0.00000000E+00  0.00000000E+00  0.00000000E+00
  0.00000000E+00  0.00000000E+00  0.00000000E+00
  0.00000000E+00  0.00000000E+00  0.00000000E+00
  0.00000000E+00  0.00000000E+00  0.00000000E+00
  0.00000000E+00  0.00000000E+00  0.00000000E+00
