Ca6 V4 S4 O16 F12
1.0
        7.1543598175         0.0000000000         0.0000000000
       -0.0748073376         7.8294189164         0.0000000000
       -0.1310373635        -0.2948143659        10.3644066088
   Ca    V    S    O    F
    5    4    4   16   12
Direct
     0.782783985         0.425877005         0.748372972
     0.279614002         0.115489997         0.290394008
     0.250135005         0.606819987         0.783496976
     0.705570996         0.420123011         0.227116004
     0.712037981         0.917666018         0.250699997
     0.998229027         0.492298007         0.493838012
     0.999637008         0.000994000         0.998372972
     0.499471009         0.500375986         0.497478992
     0.499673992         0.992246985         0.993673027
     0.276042998         0.331050009         0.010971000
     0.233517006         0.831202984         0.509249985
     0.741895020         0.156953007         0.501462996
     0.750726998         0.657251000         0.000654000
     0.114900999         0.214331999         0.059783999
     0.093713999         0.715095997         0.438169986
     0.195583999         0.452015013         0.922264993
     0.150009006         0.914059997         0.620380998
     0.369717002         0.402996004         0.124550998
     0.319867998         0.942112029         0.415935010
     0.405719995         0.213314995         0.936262012
     0.388431013         0.710578024         0.562433004
     0.595468998         0.273739994         0.438713998
     0.610252023         0.774100006         0.066969000
     0.656404972         0.056745000         0.601660013
     0.666042984         0.557006001         0.894187987
     0.821810007         0.055433001         0.396382987
     0.836951971         0.555106997         0.099893004
     0.885389984         0.275072992         0.567600012
     0.896637976         0.774951994         0.938964009
     0.970519006         0.063945003         0.830636024
     0.034067001         0.545307994         0.680108011
     0.258592993         0.392529994         0.473343015
     0.236870006         0.892490983         0.980696976
     0.479032993         0.047634002         0.180063993
     0.532411993         0.571164012         0.332529008
     0.520955980         0.430505008         0.666601002
     0.549946010         0.904492021         0.826175988
     0.755598009         0.103713997         0.017603001
     0.746326029         0.603302002         0.525427997
     0.935963988         0.406935990         0.326389015
     0.973555028         0.934044003         0.166707993
