V  Ca P  O 
1.0
       13.0869035721         0.0000000000         0.0000000000
        0.0000000000        14.8847188950         0.0000000000
        0.0000000000         0.0000019192        14.4133224487
    Ca   V    P    O
    15   32   32  144
Direct
     0.624999821         0.445955962         0.777662396     
     0.375000030         0.195955813         0.722337186
     0.875000000         0.195955813         0.722337186
     0.875000000         0.695955813         0.722337186
     0.124999814         0.304044217         0.277662039
     0.124999814         0.804044247         0.277662039
     0.624999821         0.304044217         0.277662039
     0.624999821         0.804044247         0.277662039
     0.124999829         0.445955962         0.777662396
     0.124999829         0.945955992         0.777662396
     0.624999821         0.945955992         0.777662396
     0.375000000         0.054044008         0.222337663
     0.375000000         0.554044008         0.222337663
     0.875000000         0.054044008         0.222337663
     0.875000000         0.554044008         0.222337663
     0.249999881         0.249999851         0.499999940
     0.249999881         0.749999881         0.499999940
     0.749999881         0.249999851         0.499999940
     0.749999881         0.749999881         0.499999940
     0.000000000         0.249999970         0.499999583
     0.000000000         0.750000000         0.499999583
     0.500000000         0.249999970         0.499999583
     0.500000000         0.750000000         0.499999583
     0.124999814         0.074189566         0.380572379
     0.124999814         0.574189544         0.380572379
     0.624999821         0.074189566         0.380572379
     0.624999821         0.574189544         0.380572379
     0.000000247         0.999999642         0.000000509
     0.000000247         0.499999642         0.000000509
     0.500000238         0.999999642         0.000000509
     0.500000238         0.499999642         0.000000509
     0.124999866         0.175809324         0.880572259
     0.124999866         0.675809324         0.880572259
     0.624999881         0.175809324         0.880572259
     0.624999881         0.675809324         0.880572259
     0.375000119         0.324189812         0.119427718
     0.375000119         0.824189782         0.119427718
     0.875000119         0.324189812         0.119427718
     0.875000119         0.824189782         0.119427718
     0.375000119         0.425810665         0.619427443
     0.375000119         0.925810695         0.619427443
     0.875000119         0.425810665         0.619427443
     0.875000119         0.925810695         0.619427443
     0.249999642         0.999999762         0.000000838
     0.249999642         0.499999762         0.000000838
     0.749999642         0.999999762         0.000000838
     0.749999642         0.499999762         0.000000838
     0.375001013         0.180839911         0.933025539
     0.375001013         0.680839896         0.933025539
     0.875001013         0.180839911         0.933025539
     0.875001013         0.680839896         0.933025539
     0.124999590         0.319161117         0.066979058
     0.124999590         0.819161117         0.066979058
     0.624999583         0.319161117         0.066979058
     0.624999583         0.819161117         0.066979058
     0.124999471         0.430847973         0.566967964
     0.124999471         0.930848002         0.566967964
     0.624999464         0.430847973         0.566967964
     0.624999464         0.930848002         0.566967964
     0.375000715         0.069158159         0.433024973
     0.375000715         0.569158137         0.433024973
     0.875000715         0.069158159         0.433024973
     0.875000715         0.569158137         0.433024973
     0.125000224         0.197397888         0.692084312
     0.125000224         0.697397888         0.692084312
     0.625000238         0.197397888         0.692084312
     0.625000238         0.697397888         0.692084312
     0.375001937         0.302603126         0.307915926
     0.375001937         0.802603126         0.307915926
     0.875001907         0.302603126         0.307915926
     0.875001907         0.802603126         0.307915926
     0.375002056         0.447399825         0.807914019
     0.375002056         0.947399855         0.807914019
     0.875002027         0.447399825         0.807914019
     0.875002027         0.947399855         0.807914019
     0.125000477         0.052601654         0.192080766
     0.125000477         0.552601635         0.192080766
     0.625000477         0.052601654         0.192080766
     0.625000477         0.552601635         0.192080766
     0.277117997         0.299057215         0.369008183
     0.277117997         0.799057245         0.369008183
     0.777117968         0.299057215         0.369008183
     0.777117968         0.799057245         0.369008183
     0.027118856         0.200942636         0.630992293
     0.027118856         0.700942636         0.630992293
     0.527118862         0.200942636         0.630992293
     0.527118862         0.700942636         0.630992293
     0.222879946         0.049057372         0.130992994
     0.222879946         0.549057364         0.130992994
     0.722879946         0.049057372         0.130992994
     0.722879946         0.549057364         0.130992994
     0.472880602         0.450942516         0.869007647
     0.472880602         0.950942516         0.869007647
     0.972880602         0.450942516         0.869007647
     0.972880602         0.950942516         0.869007647
     0.222880945         0.200942636         0.630992413
     0.222880945         0.700942636         0.630992413
     0.722880960         0.200942636         0.630992413
     0.722880960         0.700942636         0.630992413
     0.472880453         0.299057215         0.369007438
     0.472880453         0.799057245         0.369007438
     0.972880483         0.299057215         0.369007438
     0.972880483         0.799057245         0.369007438
     0.277117729         0.450942487         0.869008482
     0.277117729         0.950942516         0.869008482
     0.777117729         0.450942487         0.869008482
     0.777117729         0.950942516         0.869008482
     0.027119633         0.049057372         0.130992800
     0.027119633         0.549057364         0.130992800
     0.527119637         0.049057372         0.130992800
     0.527119637         0.549057364         0.130992800
     0.374999940         0.161905199         0.484207153
     0.374999940         0.661905169         0.484207153
     0.874999940         0.161905199         0.484207153
     0.874999940         0.661905169         0.484207153
     0.125000075         0.338093728         0.515792727
     0.125000075         0.838093758         0.515792727
     0.625000060         0.338093728         0.515792727
     0.625000060         0.838093758         0.515792727
     0.125000060         0.411905229         0.015792869
     0.125000060         0.911905229         0.015792869
     0.625000060         0.411905229         0.015792869
     0.625000060         0.911905229         0.015792869
     0.374999940         0.088093825         0.984207273
     0.374999940         0.588093817         0.984207273
     0.874999940         0.088093825         0.984207273
     0.874999940         0.588093817         0.984207273
     0.125000104         0.062448032         0.945891500
     0.125000104         0.562448025         0.945891500
     0.625000119         0.062448032         0.945891500
     0.625000119         0.562448025         0.945891500
     0.374999970         0.437552869         0.054107863
     0.374999970         0.937552869         0.054107863
     0.875000000         0.437552869         0.054107863
     0.875000000         0.937552869         0.054107863
     0.374999970         0.312447131         0.554108202
     0.374999970         0.812447131         0.554108202
     0.875000000         0.312447131         0.554108202
     0.875000000         0.812447131         0.554108202
     0.125000104         0.187553167         0.445892096
     0.125000104         0.687553167         0.445892096
     0.625000119         0.187553167         0.445892096
     0.625000119         0.687553167         0.445892096
     0.125000015         0.109809011         0.751375377
     0.125000015         0.609809041         0.751375377
     0.625000000         0.109809011         0.751375377
     0.625000000         0.609809041         0.751375377
     0.374999881         0.390190274         0.248624265
     0.374999881         0.890190244         0.248624265
     0.874999881         0.390190274         0.248624265
     0.874999881         0.890190244         0.248624265
     0.374999881         0.359808475         0.748624265
     0.374999881         0.859808445         0.748624265
     0.874999881         0.359808475         0.748624265
     0.874999881         0.859808445         0.748624265
     0.125000000         0.140192002         0.251376271
     0.125000000         0.640192032         0.251376271
     0.625000000         0.140192002         0.251376271
     0.625000000         0.640192032         0.251376271
     0.468009651         0.064774662         0.366774321
     0.468009651         0.564774632         0.366774321
     0.968009651         0.064774662         0.366774321
     0.968009651         0.564774632         0.366774321
     0.218010336         0.435225338         0.633226395
     0.218010336         0.935225368         0.633226395
     0.718010306         0.435225338         0.633226395
     0.718010306         0.935225368         0.633226395
     0.031991266         0.314774632         0.133224919
     0.031991266         0.814774632         0.133224919
     0.531991243         0.314774632         0.133224919
     0.531991243         0.814774632         0.133224919
     0.281989902         0.185225800         0.866773784
     0.281989902         0.685225785         0.866773784
     0.781989932         0.185225800         0.866773784
     0.781989932         0.685225785         0.866773784
     0.031990092         0.435225308         0.633226216
     0.031990092         0.935225308         0.633226216
     0.531990111         0.435225308         0.633226216
     0.531990111         0.935225308         0.633226216
     0.281989783         0.064774640         0.366773963
     0.281989783         0.564774632         0.366773963
     0.781989813         0.064774640         0.366773963
     0.781989813         0.564774632         0.366773963
     0.468009204         0.185225755         0.866774201
     0.468009204         0.685225725         0.866774201
     0.968009233         0.185225755         0.866774201
     0.968009233         0.685225725         0.866774201
     0.218009055         0.314774632         0.133225098
     0.218009055         0.814774632         0.133225098
     0.718009055         0.314774632         0.133225098
     0.718009055         0.814774632         0.133225098
     0.125000030         0.246043846         0.994204283
     0.125000030         0.746043861         0.994204283
     0.625000000         0.246043846         0.994204283
     0.625000000         0.746043861         0.994204283
     0.374999881         0.023281010         0.733387470
     0.374999881         0.523281038         0.733387470
     0.874999881         0.023281010         0.733387470
     0.874999881         0.523281038         0.733387470
     0.374999881         0.226717427         0.233386189
     0.374999881         0.726717412         0.233386189
     0.874999881         0.226717427         0.233386189
     0.874999881         0.726717412         0.233386189
     0.125000015         0.273282260         0.766613543
     0.125000015         0.773282290         0.766613543
     0.625000000         0.273282260         0.766613543
     0.625000000         0.773282290         0.766613543
     0.125000045         0.003948448         0.494212598
     0.125000045         0.503948450         0.494212598
     0.625000060         0.003948448         0.494212598
     0.625000060         0.503948450         0.494212598
     0.374999970         0.496046245         0.505793869
     0.374999970         0.996046245         0.505793869
     0.875000000         0.496046245         0.505793869
     0.875000000         0.996046245         0.505793869
     0.374999940         0.253956109         0.005793982
     0.374999940         0.753956079         0.005793982
     0.874999940         0.253956109         0.005793982
     0.874999940         0.753956079         0.005793982
     0.125000000         0.476717055         0.266614348
     0.125000000         0.976717055         0.266614348
     0.625000000         0.476717055         0.266614348
     0.625000000         0.976717055         0.266614348
