Ca V  B  O 
1.0
       14.9248085022         0.0000000000         0.0000000000
        3.1907915372        14.5800757138         0.0000000000
        3.1592410370         2.5426429938         8.9866551765
   Ca    V    B    O
   15   16   32   80
Direct
     0.555536866         0.444418460         0.249764889
     0.444441915         0.055563033         0.749855638
     0.944441915         0.055563033         0.749855638
     0.944441915         0.555563033         0.749855638
     0.237183541         0.262872189         0.750090480
     0.237183541         0.762872219         0.750090480
     0.737183571         0.262872189         0.750090480
     0.737183571         0.762872219         0.750090480
     0.262936890         0.237228543         0.250021815
     0.262936890         0.737228513         0.250021815
     0.762936890         0.237228543         0.250021815
     0.762936890         0.737228513         0.250021815
     0.055536870         0.444418460         0.249764889
     0.055536870         0.944418430         0.249764889
     0.555536866         0.944418430         0.249764889
     0.497304738         0.285226464         0.651567340
     0.497304738         0.785226464         0.651567340
     0.997304738         0.285226464         0.651567340
     0.997304738         0.785226464         0.651567340
     0.285177469         0.497373611         0.151585385
     0.285177469         0.997373581         0.151585385
     0.785177469         0.497373611         0.151585385
     0.785177469         0.997373581         0.151585385
     0.214781493         0.002638604         0.848265171
     0.214781493         0.502638578         0.848265171
     0.714781523         0.002638604         0.848265171
     0.714781523         0.502638578         0.848265171
     0.002694299         0.214749336         0.348328114
     0.002694299         0.714749336         0.348328114
     0.502694309         0.214749336         0.348328114
     0.502694309         0.714749336         0.348328114
     0.387295187         0.377109349         0.904365003
     0.387295187         0.877109349         0.904365003
     0.887295187         0.377109349         0.904365003
     0.887295187         0.877109349         0.904365003
     0.361378670         0.203515887         0.968798697
     0.361378670         0.703515887         0.968798697
     0.861378670         0.203515887         0.968798697
     0.861378670         0.703515887         0.968798697
     0.377190202         0.387454122         0.404256016
     0.377190202         0.887454152         0.404256016
     0.877190232         0.387454122         0.404256016
     0.877190232         0.887454152         0.404256016
     0.203519806         0.361457586         0.468887389
     0.203519806         0.861457586         0.468887389
     0.703519821         0.361457586         0.468887389
     0.703519821         0.861457586         0.468887389
     0.296453565         0.138585702         0.531313300
     0.296453565         0.638585687         0.531313300
     0.796453595         0.138585702         0.531313300
     0.796453595         0.638585687         0.531313300
     0.122901469         0.112682067         0.595513940
     0.122901469         0.612682045         0.595513940
     0.622901440         0.112682067         0.595513940
     0.622901440         0.612682045         0.595513940
     0.138561010         0.296453565         0.031412888
     0.138561010         0.796453595         0.031412888
     0.638561010         0.296453565         0.031412888
     0.638561010         0.796453595         0.031412888
     0.112701431         0.122854188         0.095617563
     0.112701431         0.622854173         0.095617563
     0.612701416         0.122854188         0.095617563
     0.612701416         0.622854173         0.095617563
     0.342556059         0.456891060         0.953067720
     0.342556059         0.956891060         0.953067720
     0.842556059         0.456891060         0.953067720
     0.842556059         0.956891060         0.953067720
     0.444176197         0.391006887         0.763209760
     0.444176197         0.891006887         0.763209760
     0.944176197         0.391006887         0.763209760
     0.944176197         0.891006887         0.763209760
     0.456923813         0.342531800         0.452970028
     0.456923813         0.842531800         0.452970028
     0.956923842         0.342531800         0.452970028
     0.956923842         0.842531800         0.452970028
     0.387052327         0.201063544         0.822693527
     0.387052327         0.701063514         0.822693527
     0.887052298         0.201063544         0.822693527
     0.887052298         0.701063514         0.822693527
     0.182803392         0.362280518         0.911327422
     0.182803392         0.862280488         0.911327422
     0.682803392         0.362280518         0.911327422
     0.682803392         0.862280488         0.911327422
     0.390776843         0.444169939         0.263141185
     0.390776843         0.944169939         0.263141185
     0.890776873         0.444169939         0.263141185
     0.890776873         0.944169939         0.263141185
     0.286283344         0.370695591         0.505517423
     0.286283344         0.870695591         0.505517423
     0.786283374         0.370695591         0.505517423
     0.786283374         0.870695591         0.505517423
     0.129311889         0.213787824         0.994352520
     0.129311889         0.713787794         0.994352520
     0.629311919         0.213787824         0.994352520
     0.629311919         0.713787794         0.994352520
     0.201072797         0.387076408         0.322829992
     0.201072797         0.887076378         0.322829992
     0.701072812         0.387076408         0.322829992
     0.701072812         0.887076378         0.322829992
     0.362396032         0.182721823         0.411322623
     0.362396032         0.682721853         0.411322623
     0.862396002         0.182721823         0.411322623
     0.862396002         0.682721853         0.411322623
     0.137640670         0.317240059         0.589037716
     0.137640670         0.817240059         0.589037716
     0.637640655         0.317240059         0.589037716
     0.637640655         0.817240059         0.589037716
     0.298850000         0.112842321         0.677389860
     0.298850000         0.612842321         0.677389860
     0.798850000         0.112842321         0.677389860
     0.798850000         0.612842321         0.677389860
     0.370635897         0.286178380         0.005695145
     0.370635897         0.786178350         0.005695145
     0.870635867         0.286178380         0.005695145
     0.870635867         0.786178350         0.005695145
     0.213836059         0.129377633         0.494394720
     0.213836059         0.629377604         0.494394720
     0.713836074         0.129377633         0.494394720
     0.713836074         0.629377604         0.494394720
     0.109049067         0.055835236         0.736602426
     0.109049067         0.555835247         0.736602426
     0.609049082         0.055835236         0.736602426
     0.609049082         0.555835247         0.736602426
     0.317220867         0.137660995         0.089024805
     0.317220867         0.637660980         0.089024805
     0.817220867         0.137660995         0.089024805
     0.817220867         0.637660980         0.089024805
     0.112705544         0.298859477         0.177516922
     0.112705544         0.798859477         0.177516922
     0.612705529         0.298859477         0.177516922
     0.612705529         0.798859477         0.177516922
     0.043217827         0.157533586         0.546677411
     0.043217827         0.657533586         0.546677411
     0.543217838         0.157533586         0.546677411
     0.543217838         0.657533586         0.546677411
     0.055894990         0.108936600         0.236772671
     0.055894990         0.608936608         0.236772671
     0.555894971         0.108936600         0.236772671
     0.555894971         0.608936608         0.236772671
     0.157537803         0.043127604         0.046812426
     0.157537803         0.543127596         0.046812426
     0.657537818         0.043127604         0.046812426
     0.657537818         0.543127596         0.046812426
