Ca6 Mn12 P12 O48
1.0
       12.3453054428         0.0000000000         0.0000000000
        0.0000000000        13.4283399582         0.0000000000
        0.0000000000         1.1117204047        10.8606380331
   Ca   Mn    P    O
   11   24   24   96
Direct
     0.749779999         0.625740528         0.750927985
     0.250220001         0.125740498         0.250928015
     0.250220001         0.625740528         0.250928015
     0.749779999         0.125740498         0.750927985
     0.761430979         0.000000000         0.250000000
     0.761430979         0.500000000         0.250000000
     0.238569006         0.000000000         0.750000000
     0.238569006         0.500000000         0.750000000
     0.250220001         0.374259502         0.249072000
     0.250220001         0.874259472         0.249072000
     0.749779999         0.874259472         0.749072015
     0.408217996         0.331768513         0.971928000
     0.408217996         0.831768513         0.971928000
     0.591781974         0.331768513         0.471928000
     0.591781974         0.831768513         0.471928000
     0.014470000         0.250000000         0.250000000
     0.014470000         0.750000000         0.250000000
     0.985530019         0.250000000         0.750000000
     0.985530019         0.750000000         0.750000000
     0.591781974         0.168231502         0.028072000
     0.591781974         0.668231487         0.028072000
     0.408217996         0.168231502         0.528072000
     0.408217996         0.668231487         0.528072000
     0.091104999         0.086540498         0.974878013
     0.091104999         0.586540520         0.974878013
     0.908895016         0.086540498         0.474878013
     0.908895016         0.586540520         0.474878013
     0.480152994         0.000000000         0.250000000
     0.480152994         0.500000000         0.250000000
     0.519846976         0.000000000         0.750000000
     0.519846976         0.500000000         0.750000000
     0.908895016         0.413459510         0.025122000
     0.908895016         0.913459539         0.025122000
     0.091104999         0.413459510         0.525121987
     0.091104999         0.913459539         0.525121987
     0.141660005         0.321250498         0.987917006
     0.141660005         0.821250498         0.987917006
     0.858340025         0.321250498         0.487917006
     0.858340025         0.821250498         0.487917006
     0.459259987         0.250000000         0.250000000
     0.459259987         0.750000000         0.250000000
     0.540740013         0.250000000         0.750000000
     0.540740013         0.750000000         0.750000000
     0.858340025         0.178749502         0.012083000
     0.858340025         0.678749502         0.012083000
     0.141660005         0.178749502         0.512082994
     0.141660005         0.678749502         0.512082994
     0.357394993         0.070163503         0.986060023
     0.357394993         0.570163488         0.986060023
     0.642605007         0.070163503         0.486059994
     0.642605007         0.570163488         0.486059994
     0.040192999         0.000000000         0.250000000
     0.040192999         0.500000000         0.250000000
     0.959806979         0.000000000         0.750000000
     0.959806979         0.500000000         0.750000000
     0.642605007         0.429836512         0.013940000
     0.642605007         0.929836512         0.013940000
     0.357394993         0.429836512         0.513939977
     0.357394993         0.929836512         0.513939977
     0.249652997         0.352652490         0.926108003
     0.249652997         0.852652490         0.926108003
     0.750347018         0.352652490         0.426108003
     0.750347018         0.852652490         0.426108003
     0.469965011         0.333472490         0.797514021
     0.469965011         0.833472490         0.797514021
     0.530035019         0.333472490         0.297513992
     0.530035019         0.833472490         0.297513992
     0.573107004         0.332037508         0.026977001
     0.573107004         0.832037508         0.026977001
     0.426892996         0.332037508         0.526977003
     0.426892996         0.832037508         0.526977003
     0.379730999         0.304320008         0.154372007
     0.379730999         0.804319978         0.154372007
     0.620269001         0.304320008         0.654371977
     0.620269001         0.804319978         0.654371977
     0.153181002         0.283385485         0.125334993
     0.153181002         0.783385515         0.125334993
     0.846818984         0.283385485         0.625334978
     0.846818984         0.783385515         0.625334978
     0.914754987         0.257680506         0.085193001
     0.914754987         0.757680535         0.085193001
     0.085244998         0.257680506         0.585192978
     0.085244998         0.757680535         0.585192978
     0.085244998         0.242319494         0.914807022
     0.085244998         0.742319465         0.914807022
     0.914754987         0.242319494         0.414806992
     0.914754987         0.742319465         0.414806992
     0.846818984         0.216614500         0.874665022
     0.846818984         0.716614485         0.874665022
     0.153181002         0.216614500         0.374664992
     0.153181002         0.716614485         0.374664992
     0.620269001         0.195680007         0.845628023
     0.620269001         0.695680022         0.845628023
     0.379730999         0.195680007         0.345627993
     0.379730999         0.695680022         0.345627993
     0.426892996         0.167962506         0.973022997
     0.426892996         0.667962492         0.973022997
     0.573107004         0.167962506         0.473022997
     0.573107004         0.667962492         0.473022997
     0.530035019         0.166527495         0.202485994
     0.530035019         0.666527510         0.202485994
     0.469965011         0.166527495         0.702485979
     0.469965011         0.666527510         0.702485979
     0.750347018         0.147347495         0.073891997
     0.750347018         0.647347510         0.073891997
     0.249652997         0.147347495         0.573891997
     0.249652997         0.647347510         0.573891997
     0.244552001         0.088621497         0.921971023
     0.244552001         0.588621497         0.921971023
     0.755447984         0.088621497         0.421970993
     0.755447984         0.588621497         0.421970993
     0.033916000         0.081873000         0.797087014
     0.033916000         0.581873000         0.797087014
     0.966084003         0.081873000         0.297087014
     0.966084003         0.581873000         0.297087014
     0.933595002         0.082344502         0.024692999
     0.933595002         0.582344532         0.024692999
     0.066404998         0.082344502         0.524693012
     0.066404998         0.582344532         0.524693012
     0.119831003         0.054609999         0.155046999
     0.119831003         0.554610014         0.155046999
     0.880168974         0.054609999         0.655046999
     0.880168974         0.554610014         0.655046999
     0.344716012         0.033266500         0.123476997
     0.344716012         0.533266485         0.123476997
     0.655283988         0.033266500         0.623476982
     0.655283988         0.533266485         0.623476982
     0.585404992         0.006781500         0.089376003
     0.585404992         0.506781518         0.089376003
     0.414595008         0.006781500         0.589375973
     0.414595008         0.506781518         0.589375973
     0.414595008         0.493218511         0.910624027
     0.414595008         0.993218541         0.910624027
     0.585404992         0.493218511         0.410623997
     0.585404992         0.993218541         0.410623997
     0.655283988         0.466733485         0.876523018
     0.655283988         0.966733456         0.876523018
     0.344716012         0.466733485         0.376522988
     0.344716012         0.966733456         0.376522988
     0.880168974         0.445389986         0.844953001
     0.880168974         0.945389986         0.844953001
     0.119831003         0.445389986         0.344953001
     0.119831003         0.945389986         0.344953001
     0.066404998         0.417655498         0.975306988
     0.066404998         0.917655468         0.975306988
     0.933595002         0.417655498         0.475306988
     0.933595002         0.917655468         0.475306988
     0.966084003         0.418127000         0.202913001
     0.966084003         0.918127000         0.202913001
     0.033916000         0.418127000         0.702912986
     0.033916000         0.918127000         0.702912986
     0.755447984         0.411378503         0.078028999
     0.755447984         0.911378503         0.078028999
     0.244552001         0.411378503         0.578028977
     0.244552001         0.911378503         0.578028977
