Ca Mn P  O 
1.0
        8.8958520889         0.0000000000         0.0000000000
       -0.0000558036        13.9692726134         0.0000000000
       -0.0000660483         2.6281136088         8.9821665591
   Ca   Mn    P    O
    7    8   16   56
Direct
     0.634283423         0.608082056         0.481844872
     0.134335324         0.391940683         0.018153777
     0.134335324         0.891940713         0.018153777
     0.365647107         0.891916037         0.518174410
     0.634283423         0.108082034         0.481844872
     0.865721643         0.108058132         0.981873333
     0.865721643         0.608058155         0.981873333
     0.783298075         0.357660294         0.493976295
     0.783298075         0.857660294         0.493976295
     0.716718078         0.357673198         0.993993342
     0.716718078         0.857673168         0.993993342
     0.283398241         0.142359242         0.005938620
     0.283398241         0.642359257         0.005938620
     0.216642946         0.142339230         0.506002188
     0.216642946         0.642339230         0.506002188
     0.452584535         0.014732825         0.786891580
     0.452584535         0.514732838         0.786891580
     0.047470536         0.014635942         0.286885083
     0.047470536         0.514635921         0.286885083
     0.561527073         0.224707514         0.779350162
     0.561527073         0.724707484         0.779350162
     0.061658103         0.275310397         0.720638454
     0.061658103         0.775310397         0.720638454
     0.547378540         0.485319525         0.213063940
     0.547378540         0.985319495         0.213063940
     0.952555358         0.485376924         0.713088632
     0.952555358         0.985376954         0.713088632
     0.938389003         0.224660993         0.279349089
     0.938389003         0.724660993         0.279349089
     0.438321561         0.275344431         0.220655814
     0.438321561         0.775344431         0.220655814
     0.917188764         0.289076120         0.116377898
     0.917188764         0.789076090         0.116377898
     0.049950629         0.076230496         0.659262121
     0.049950629         0.576230526         0.659262121
     0.321035057         0.022118995         0.888167858
     0.321035057         0.522118986         0.888167858
     0.571961224         0.108686619         0.764394820
     0.571961224         0.608686626         0.764394820
     0.597820759         0.472158283         0.377971143
     0.597820759         0.972158313         0.377971143
     0.950098634         0.423793763         0.340705067
     0.950098634         0.923793793         0.340705067
     0.678969681         0.477820694         0.111912727
     0.678969681         0.977820694         0.111912727
     0.428310305         0.391318977         0.235610470
     0.428310305         0.891318977         0.235610470
     0.902134180         0.472162127         0.877898276
     0.902134180         0.972162127         0.877898276
     0.549825251         0.423801363         0.840660155
     0.549825251         0.923801363         0.840660155
     0.821071684         0.477803528         0.611953080
     0.821071684         0.977803528         0.611953080
     0.402188629         0.027797708         0.622047842
     0.402188629         0.527797699         0.622047842
     0.807948053         0.228971198         0.384180814
     0.807948053         0.728971183         0.384180814
     0.092894882         0.238740802         0.335074663
     0.092894882         0.738740802         0.335074663
     0.071725562         0.391250849         0.735636115
     0.071725562         0.891250849         0.735636115
     0.592754602         0.261228502         0.165030167
     0.592754602         0.761228502         0.165030167
     0.307999879         0.271009266         0.115837231
     0.307999879         0.771009266         0.115837231
     0.417262405         0.210949719         0.383505821
     0.417262405         0.710949719         0.383505821
     0.097844996         0.027845709         0.122097641
     0.097844996         0.527845681         0.122097641
     0.691928089         0.228987008         0.884048700
     0.691928089         0.728986979         0.884048700
     0.407070935         0.238726467         0.835162520
     0.407070935         0.738726497         0.835162520
     0.928217947         0.108700231         0.264389813
     0.928217947         0.608700216         0.264389813
     0.907139480         0.261249423         0.665006757
     0.907139480         0.761249423         0.665006757
     0.192113385         0.271067858         0.615767896
     0.192113385         0.771067858         0.615767896
     0.082720533         0.210940555         0.883594394
     0.082720533         0.710940540         0.883594394
     0.178899944         0.022176933         0.388088197
     0.178899944         0.522176921         0.388088197
     0.450043529         0.076237842         0.159282908
     0.450043529         0.576237857         0.159282908
     0.582951546         0.289031565         0.616455197
     0.582951546         0.789031565         0.616455197
