Ca V  P  O 
 1.0000000000000000
    10.5155344009000000    0.0000000000000000    0.0000000000000000
     0.0000067011000000    7.1892080306999997    0.0000000000000000
     0.0000045097000000    3.2146597663000001    7.8328516333999998
 Ca  V   P   O  
   3   4   8  28
Selective dynamics
Cartesian
  8.2548122764718350  3.0249724173236228  1.3393595736793458   T   T   T
  2.1811946785527074  7.3752326730525519  7.0081076307471664   T   T   T
  3.1040290483958373  5.7533992249707229  3.1786070466437910   T   T   T
  6.4605741314885785  7.6372032448501441  5.8355754120846228   T   T   T
  9.3480077234469885  6.1358823426072240  1.9870036147235859   T   T   T
  1.0810959135450264  4.2664903166951893  5.9182209063696565   T   T   T
  4.1314384482628332  2.7422626097240350  2.0021458341683758   T   T   T
  9.0499742074903082  9.4429814793842599  6.2551586173952591   T   T   T
  6.6993414800643940  7.8918143372868084  2.3930695381323477   T   T   T
  9.5345194477384201  6.7256658159271483  5.4321627604770075   T   T   T
  6.1798664651343982  5.2632830875534324  1.3778983855790394   T   T   T
  4.2840317558773586  5.2658874247086862  6.3975031870345864   T   T   T
  0.9656432547929674  3.6332066361436350  2.4942256372477827   T   T   T
  3.7451896432643492  2.5604844185941662  5.5127232307508640   T   T   T
  1.5420584134932680  0.8913259406295787  1.5958373023093644   T   T   T
  7.6000176879493608  2.0988514172750925  5.7343895614782525   T   T   T
  9.2059693118790555  9.1653687949676907  7.7452745352555006   T   T   T
  4.3832127730409143  8.4055900230034286  5.8664523090771610   T   T   T
  9.9077877811680626  8.3067946552186491  5.4404728213352058   T   T   T
  8.2139741201965162  0.7333386098709402  2.0375725179024462   T   T   T
  6.3346732785158126  7.4555964210811148  3.7874684469116797   T   T   T
  6.3356523889077927  4.6397945491933896  0.0030958275057397   T   T   T
  0.8848430980445388  6.7614477117951761  2.0032057181196858   T   T   T
  5.9988344099075031  6.8668133247407281  1.3243457657482800   T   T   T
  8.2754371060481784  6.5744817802042297  6.3115047158294981   T   T   T
  9.4034023901777051  6.2376950204168313  4.0192312915520301   T   T   T
  0.3094906716977042  6.1584953160643998  6.1138765726337896   T   T   T
  5.5042099513793472  5.8321844626894341  5.7119371768843674   T   T   T
  7.4903581534176897  5.0185600690157361  2.1644282450768428   T   T   T
  2.9580891051620730  5.5056673451605160  5.5719273904692477   T   T   T
  4.9126271794032572  4.7622517512447775  2.0851961099877667   T   T   T
 10.1691048041903809  4.1565976748735718  1.8920798565095553   T   T   T
  1.2468583303813645  4.2274005912674646  3.8632313472955997   T   T   T
  2.2058559801636899  3.9464143340062448  1.6104322984086621   T   T   T
  4.4556601388168069  3.6723056164430989  6.4918063225877987   T   T   T
  9.7283781634681930  3.5453323160656725  5.8104521027657556   T   T   T
  4.0004998747426992  5.8799830130135300  7.7570709436099872   T   T   T
  3.9155299159864208  3.0563274842122476  4.0934787712698029   T   T   T
  2.2615478293102593  9.6769991561619015  5.9976068629750108   T   T   T
  0.7794339292555039  2.0414734226505296  2.5271023846374097   T   T   T
  6.1683653042532720  2.0868019811281049  1.9957763092471592   T   T   T
  1.3368721432914850  1.3177702349894584  0.1553037466857619   T   T   T
  3.0012430971993829  8.0417605126111003  2.0991961229328298   T   T   T
