Ca V  P  O 
1.0
        8.6010894775         0.0000000000         0.0000000000
        0.0000009377         7.0423116684         0.0000000000
       -0.0000038120         2.7604890413         9.1345447512
   Ca    V    P    O
    3    4    8   28
Direct
     0.142267331         0.796262503         0.541209102
     0.857734442         0.203732297         0.458785206
     0.642269611         0.203723922         0.958782375
     0.724400997         0.714040458         0.492692202
     0.775574863         0.714024603         0.992704332
     0.275589824         0.285965174         0.507306397
     0.224416465         0.285962343         0.007317678
     0.066254474         0.538563073         0.211129338
     0.543679774         0.952134013         0.706420064
     0.566304684         0.461510867         0.288809955
     0.433714837         0.538416326         0.711125135
     0.933701932         0.461438477         0.788864732
     0.456316471         0.047859941         0.293636203
     0.043579198         0.047972437         0.793615103
     0.956348419         0.952085555         0.206338257
     0.185822532         0.063121863         0.886595547
     0.209627986         0.517721236         0.120639063
     0.546790838         0.858604670         0.347111464
     0.583476901         0.225079030         0.290212959
     0.413130313         0.081898898         0.127851784
     0.046794724         0.141403601         0.152890220
     0.913126409         0.918100893         0.372169614
     0.911577940         0.514127970         0.145973951
     0.586849630         0.918104470         0.872106135
     0.814159811         0.936850190         0.113389373
     0.685854614         0.936844826         0.613373816
     0.790419579         0.482301384         0.879341841
     0.916603208         0.224933654         0.790216208
     0.953266263         0.858680487         0.847075760
     0.411572725         0.485868573         0.354026616
     0.083448619         0.774984896         0.209789708
     0.290431619         0.517746866         0.620671093
     0.416537583         0.775028646         0.709784746
     0.074387781         0.414724410         0.373377770
     0.588388562         0.514144957         0.645984471
     0.574388921         0.585211933         0.126692578
     0.425610483         0.414772123         0.873338342
     0.925626636         0.585252643         0.626665652
     0.709589839         0.482259750         0.379341781
     0.086855114         0.081860691         0.627909720
     0.314161241         0.063148677         0.386613309
     0.453208297         0.141373843         0.652891815
     0.088398233         0.485887706         0.854007661
