Ca V  P  O 
1.0
       10.7552661896         0.0000000000         0.0000000000
        0.0000000000         8.7257194519         0.0000000000
        0.0000024893        -0.0125138730        18.6945644457
   Ca    V    P    O
   15   16   16   80
Direct
     0.497589856         0.250203043         0.251517713
     0.998995304         0.248988420         0.106000677
     0.998995304         0.248988420         0.606000662
     0.860302329         0.068996184         0.409877717
     0.860302329         0.068996184         0.909877717
     0.360304236         0.931001902         0.090125039
     0.360304236         0.931001902         0.590125024
     0.498994082         0.751012385         0.893998146
     0.997591019         0.749797285         0.248483226
     0.997591019         0.749797285         0.748483241
     0.637270153         0.568270266         0.090271421
     0.637270153         0.568270266         0.590271413
     0.137271956         0.431726068         0.409726799
     0.137271956         0.431726068         0.909726799
     0.497589856         0.250203043         0.751517713
     0.370777547         0.135615274         0.418854594
     0.370777547         0.135615274         0.918854594
     0.107926853         0.108917817         0.319665909
     0.107926853         0.108917817         0.819665909
     0.607931077         0.891078055         0.180333614
     0.607931077         0.891078055         0.680333614
     0.870769143         0.864378393         0.081140131
     0.870769143         0.864378393         0.581140161
     0.126099125         0.635211170         0.081018135
     0.126099125         0.635211170         0.581018150
     0.388894081         0.608950138         0.180195481
     0.388894081         0.608950138         0.680195451
     0.888892233         0.391049773         0.319804251
     0.888892233         0.391049773         0.819804251
     0.626096427         0.364790022         0.418985158
     0.626096427         0.364790022         0.918985128
     0.831192076         0.104225591         0.222809479
     0.831192076         0.104225591         0.722809494
     0.610658109         0.058378726         0.022978112
     0.610658109         0.058378726         0.522978127
     0.110587835         0.941577494         0.477021962
     0.110587835         0.941577494         0.977021933
     0.331194103         0.895749807         0.277199030
     0.331194103         0.895749807         0.777199030
     0.665212572         0.604135633         0.277275950
     0.665212572         0.604135633         0.777275920
     0.886878490         0.558018267         0.477069497
     0.886878490         0.558018267         0.977069497
     0.386958539         0.442010671         0.022962630
     0.386958539         0.442010671         0.522962630
     0.165209740         0.395889133         0.222722083
     0.165209740         0.395889133         0.722722054
     0.998632431         0.249960065         0.369949788
     0.998632431         0.249960065         0.869949818
     0.498286575         0.249720305         0.368892968
     0.498286575         0.249720305         0.868892968
     0.369731963         0.272881955         0.004342621
     0.369731963         0.272881955         0.504342616
     0.129362032         0.223752156         0.223345041
     0.129362032         0.223752156         0.723345041
     0.240800962         0.221622422         0.365011334
     0.240800962         0.221622422         0.865011334
     0.875300229         0.054046337         0.146947742
     0.875300229         0.054046337         0.646947742
     0.562567532         0.048287276         0.101213254
     0.562567532         0.048287276         0.601213276
     0.689386427         0.082461737         0.232533857
     0.689386427         0.082461737         0.732533872
     0.406401515         0.992007375         0.220479935
     0.406401515         0.992007375         0.720479965
     0.236175880         0.024187803         0.490028888
     0.236175880         0.024187803         0.990028858
     0.006213750         0.022329882         0.023901381
     0.006213750         0.022329882         0.523901403
     0.506179154         0.977638423         0.476082116
     0.506179154         0.977638423         0.976082087
     0.736168444         0.975807190         0.009971960
     0.736168444         0.975807190         0.509971976
     0.906368196         0.008020053         0.279498786
     0.906368196         0.008020053         0.779498816
     0.189346686         0.917549849         0.267468542
     0.189346686         0.917549849         0.767468572
     0.062590472         0.951702833         0.398815423
     0.062590472         0.951702833         0.898815393
     0.375301123         0.945975482         0.353066653
     0.375301123         0.945975482         0.853066683
     0.740793109         0.778384209         0.134990528
     0.740793109         0.778384209         0.634990513
     0.629357934         0.776257515         0.276649803
     0.629357934         0.776257515         0.776649833
     0.869740486         0.727057457         0.495651156
     0.869740486         0.727057457         0.995651126
     0.498630613         0.750044286         0.130051389
     0.498630613         0.750044286         0.630051374
     0.998290062         0.750282288         0.131106496
     0.998290062         0.750282288         0.631106496
     0.128586158         0.772608757         0.495429963
     0.128586158         0.772608757         0.995429993
     0.367148131         0.723638654         0.276523799
     0.367148131         0.723638654         0.776523829
     0.255941957         0.721602857         0.135059997
     0.255941957         0.721602857         0.635060012
     0.620599985         0.553890049         0.352956086
     0.620599985         0.553890049         0.852956057
     0.934656203         0.548135877         0.398723364
     0.934656203         0.548135877         0.898723364
     0.807092667         0.582093596         0.267585039
     0.807092667         0.582093596         0.767585039
     0.090265043         0.491791368         0.279620975
     0.090265043         0.491791368         0.779621005
     0.261023551         0.523778021         0.010124856
     0.261023551         0.523778021         0.510124862
     0.491167426         0.523441732         0.476274103
     0.491167426         0.523441732         0.976274133
     0.991168380         0.476556718         0.023721470
     0.991168380         0.476556718         0.523721457
     0.761080503         0.476261437         0.489869297
     0.761080503         0.476261437         0.989869297
     0.590255558         0.508194327         0.220371813
     0.590255558         0.508194327         0.720371842
     0.307071954         0.417903841         0.232411444
     0.307071954         0.417903841         0.732411444
     0.434644312         0.451870054         0.101267852
     0.434644312         0.451870054         0.601267874
     0.120609581         0.446095347         0.147057563
     0.120609581         0.446095347         0.647057533
     0.755938530         0.278394014         0.364939302
     0.755938530         0.278394014         0.864939332
     0.867141902         0.276324749         0.223469600
     0.867141902         0.276324749         0.723469615
     0.628583372         0.227470398         0.004556966
     0.628583372         0.227470398         0.504556954
