Ca V  S  O  F 
 1.0000000000000000
     7.1725635528999998    0.0000000000000000    0.0000000000000000
     0.3049279942000000    7.8739067344000002    0.0000000000000000
     0.3193050896000000    0.2618833392000000   10.7378266451000002
 Ca  V   S   O   F  
   3   4   4  16  12
Selective dynamics
Cartesian
  6.1462952976237792  5.7884077849670179  8.1708393905111834   T   T   T
  1.2402033000226058  1.2390876685972558  2.8587035117473172   T   T   T
  5.1487347212944998  6.7079272256784233  3.1465571145808284   T   T   T
  0.5367189001221760  4.0964806425933000  5.2171302335733243   T   T   T
  7.2846700699800957  7.7744484933126126 -0.0824342172866479   T   T   T
  4.1043467492682257  4.2273804751284576  5.3609400281380752   T   T   T
  4.0170498239589136  8.0097254807955132 10.6305216398026978   T   T   T
  2.0660087405448069  2.7885902184953562 10.6635491485748339   T   T   T
  2.1974006784847080  6.7826891543185130  5.3514525898748229   T   T   T
  5.7328867014098757  1.4774963836453092  5.2943386018249532   T   T   T
  5.5480693828566459  5.1190989968689822  0.5188356142868936   T   T   T
  0.5686804682298991  1.5588848702345357  0.4412509684121348   T   T   T
  1.3067176431135754  5.8182383756877520  4.5700779634858755   T   T   T
  1.5143355501768085  3.7295111153606784  9.7401141397774431   T   T   T
  1.4527024758687390  7.4694689232318536  6.3745809785265903   T   T   T
  2.3190161137465468  3.0019186643413804  1.1729678908773251   T   T   T
  2.7891310715696398  7.6867046081502419  4.3163806297175604   T   T   T
  3.0051594258519403  1.8285334164482585  9.9351702880977637   T   T   T
  3.3450743258213436  5.9999405092653522  5.9507558201784354   T   T   T
  4.6152756212141899  2.4041320200891425  4.8098920582223395   T   T   T
  4.4334915558884038  6.1004675802258648  0.8751116205435717   T   T   T
  5.2474953644883886  0.5385601792076391  6.2775970139715511   T   T   T
  5.4098680901855953  4.3490450035469372 10.3517939360473878   T   T   T
  6.1975803378508916  0.7676270060576038  4.0506127475776816   T   T   T
  6.1658700198953422  4.7625310474720770  1.7790739804189735   T   T   T
  6.8336508697580847  2.3434775862479102  5.8265323515587495   T   T   T
  6.8688527264584343  6.2169480984101124 10.3968484406139527   T   T   T
  7.1655959969903584  0.2970234604057141  8.8620113200372739   T   T   T
  7.6509585983809503  4.7287222056545621  7.0191705108064335   T   T   T
  2.3227131967913159  3.3786964789762930  5.6182416705665057   T   T   T
  2.1742531161427840  7.2053414702802216 10.5396275160226320   T   T   T
  3.0976096439133451  0.3007796524863232  1.7965869573233744   T   T   T
  3.8294604667273151  4.8691223645998400  3.6011338894513343   T   T   T
  4.7816673006243109  4.2204105710967470  7.1634641283920830   T   T   T
  4.5398894117276889  7.2060687846278677  8.9903002633228919   T   T   T
  5.2225920619970356  0.6774227493440088  0.1150134844543679   T   T   T
  5.9396503664434901  5.0654809822896238  4.9060835177843076   T   T   T
  0.6583842616370751  3.2775620100808789  3.5153450623782905   T   T   T
  7.2201195137833736  7.4542706813268556  1.8330591619782470   T   T   T
