Ca Ti O                                 
   1.00000000000000     
    14.6439819335999992    0.0000000000000000    0.0000000000000000
    13.3873346942999998    5.9351054458999997    0.0000000000000000
     6.3008069636000004    1.3340776753000001    7.1998947533999997
   Ca   Ti   O 
     3    16    32
Selective dynamics
Direct
  0.3058201444411210  0.8058165046548069  0.8436442189579978   T   T   T
  0.3072177733649610  0.3064841796442863  0.8890434889560552   T   T   T
  0.8064835606992276  0.8072190122297869  0.8890435904968896   T   T   T
  0.1898186486948319  0.1856915708769762  0.4209634058454768   T   T   T
  0.1800006075189842  0.6800041538868413  0.4544241432531919   T   T   T
  0.6810380810223933  0.1810319737462507  0.4511214361000313   T   T   T
  0.6856891564805991  0.6898189164850308  0.4209635938029308   T   T   T
  0.4312010207831989  0.4365201394841591  0.7893090946875674   T   T   T
  0.4277233148437816  0.9277316115887544  0.7836956373876092   T   T   T
  0.9166503498291192  0.4166453773819612  0.7886779899478711   T   T   T
  0.9365202198330707  0.9312005145291735  0.7893085709582763   T   T   T
  0.0810511007227745  0.0823611508580697  0.1506562486600629   T   T   T
  0.0863415183453355  0.5863399768320150  0.1643622778616276   T   T   T
  0.5885662249706627  0.0885633693304158  0.1596315190749138   T   T   T
  0.5823587491843796  0.5810525619890896  0.1506605757459312   T   T   T
  0.3200871947981838  0.3204505229684855  0.5270778677869714   T   T   T
  0.3368551606944905  0.8368449488455667  0.4578505673156883   T   T   T
  0.8330012762759011  0.3330015632875103  0.4910846912953062   T   T   T
  0.8204460110759584  0.8200952575149714  0.5270773435314524   T   T   T
  0.0706026238722401  0.0823215270514126  0.3623873055066511   T   T   T
  0.0737040234639679  0.5737051770411767  0.3843128976503252   T   T   T
  0.5727181321356412  0.0727238268810027  0.3855859409866653   T   T   T
  0.5823239075538709  0.5705988797881645  0.3623898437101971   T   T   T
  0.2806541857709846  0.2766765116874694  0.2232536717587834   T   T   T
  0.2681613470956776  0.7681519765985314  0.2514156203461866   T   T   T
  0.7677417715908490  0.2677508109801110  0.2584562159018517   T   T   T
  0.7766769656007213  0.7806542421035658  0.2232564673544815   T   T   T
  0.2209504939024072  0.2373083123726971  0.7143553972827092   T   T   T
  0.2422764093903780  0.7422740374368928  0.6999062693838880   T   T   T
  0.7401750338239808  0.2401742138770047  0.6963114403458590   T   T   T
  0.7373088175702236  0.7209511770698711  0.7143538447535036   T   T   T
  0.4249201745654432  0.4268457003621720  0.6000581756815251   T   T   T
  0.4300326352887680  0.9300294711615891  0.5748770690979512   T   T   T
  0.9353855400148205  0.4353863340329838  0.5596725732916781   T   T   T
  0.9268461821910705  0.9249204072873738  0.6000576717804691   T   T   T
  0.4121997882654043  0.4126376856194724  0.3636632709659295   T   T   T
  0.4288904838614229  0.9288880556176338  0.2960251410597650   T   T   T
  0.9268422572475146  0.4268451161571818  0.3069986245517242   T   T   T
  0.9126360636342667  0.9122007634351235  0.3636682055246325   T   T   T
  0.1141899159247757  0.0989791317550868  0.8997834390802666   T   T   T
  0.1137175245217676  0.6137185745131077  0.9043839487416605   T   T   T
  0.6141523710845789  0.1141515775447886  0.9039465022023592   T   T   T
  0.5989757921304815  0.6141927382912939  0.8997808441958242   T   T   T
  0.1010151936834944  0.0837783764687572  0.5993138710370971   T   T   T
  0.0755259656476923  0.5755235647795303  0.6696756156756294   T   T   T
  0.5741642233680295  0.0741672764094616  0.6714972961781527   T   T   T
  0.5837801109229090  0.6010128231155250  0.5993157153681921   T   T   T
  0.3977653795970966  0.4022208366712476  0.0411921585914854   T   T   T
  0.3906117834674703  0.8906086497384393  0.0456859059154411   T   T   T
  0.8886481967288375  0.3886512849752961  0.0430438417427084   T   T   T
  0.9022236695042594  0.8977647400418931  0.0411894266705701   T   T   T
 
  0.00000000E+00  0.00000000E+00  0.00000000E+00
  0.00000000E+00  0.00000000E+00  0.00000000E+00
  0.00000000E+00  0.00000000E+00  0.00000000E+00
  0.00000000E+00  0.00000000E+00  0.00000000E+00
  0.00000000E+00  0.00000000E+00  0.00000000E+00
  0.00000000E+00  0.00000000E+00  0.00000000E+00
  0.00000000E+00  0.00000000E+00  0.00000000E+00
  0.00000000E+00  0.00000000E+00  0.00000000E+00
  0.00000000E+00  0.00000000E+00  0.00000000E+00
  0.00000000E+00  0.00000000E+00  0.00000000E+00
  0.00000000E+00  0.00000000E+00  0.00000000E+00
  0.00000000E+00  0.00000000E+00  0.00000000E+00
  0.00000000E+00  0.00000000E+00  0.00000000E+00
  0.00000000E+00  0.00000000E+00  0.00000000E+00
  0.00000000E+00  0.00000000E+00  0.00000000E+00
  0.00000000E+00  0.00000000E+00  0.00000000E+00
  0.00000000E+00  0.00000000E+00  0.00000000E+00
  0.00000000E+00  0.00000000E+00  0.00000000E+00
  0.00000000E+00  0.00000000E+00  0.00000000E+00
  0.00000000E+00  0.00000000E+00  0.00000000E+00
  0.00000000E+00  0.00000000E+00  0.00000000E+00
  0.00000000E+00  0.00000000E+00  0.00000000E+00
  0.00000000E+00  0.00000000E+00  0.00000000E+00
  0.00000000E+00  0.00000000E+00  0.00000000E+00
  0.00000000E+00  0.00000000E+00  0.00000000E+00
  0.00000000E+00  0.00000000E+00  0.00000000E+00
  0.00000000E+00  0.00000000E+00  0.00000000E+00
  0.00000000E+00  0.00000000E+00  0.00000000E+00
  0.00000000E+00  0.00000000E+00  0.00000000E+00
  0.00000000E+00  0.00000000E+00  0.00000000E+00
  0.00000000E+00  0.00000000E+00  0.00000000E+00
  0.00000000E+00  0.00000000E+00  0.00000000E+00
  0.00000000E+00  0.00000000E+00  0.00000000E+00
  0.00000000E+00  0.00000000E+00  0.00000000E+00
  0.00000000E+00  0.00000000E+00  0.00000000E+00
  0.00000000E+00  0.00000000E+00  0.00000000E+00
  0.00000000E+00  0.00000000E+00  0.00000000E+00
  0.00000000E+00  0.00000000E+00  0.00000000E+00
  0.00000000E+00  0.00000000E+00  0.00000000E+00
  0.00000000E+00  0.00000000E+00  0.00000000E+00
  0.00000000E+00  0.00000000E+00  0.00000000E+00
  0.00000000E+00  0.00000000E+00  0.00000000E+00
  0.00000000E+00  0.00000000E+00  0.00000000E+00
  0.00000000E+00  0.00000000E+00  0.00000000E+00
  0.00000000E+00  0.00000000E+00  0.00000000E+00
  0.00000000E+00  0.00000000E+00  0.00000000E+00
  0.00000000E+00  0.00000000E+00  0.00000000E+00
  0.00000000E+00  0.00000000E+00  0.00000000E+00
  0.00000000E+00  0.00000000E+00  0.00000000E+00
  0.00000000E+00  0.00000000E+00  0.00000000E+00
  0.00000000E+00  0.00000000E+00  0.00000000E+00
