Ca Co C  O 
1.0
       13.0168151855         0.0000000000         0.0000000000
       -1.6351658717        10.4961023545         0.0000000000
        4.0888518292        10.9467608820        15.6776774703
   Ca   Co    C    O
   15   16   32   96
Direct
     0.295462757         0.479304790         0.691520810
     0.043732557         0.978488684         0.193047166
     0.043732557         0.978488684         0.693047166
     0.543732584         0.978488684         0.193047166
     0.543732584         0.978488684         0.693047166
     0.295462757         0.479304790         0.191520795
     0.795462728         0.479304790         0.191520795
     0.795462728         0.479304790         0.691520810
     0.063786119         0.706214190         0.442264795
     0.063786119         0.706214190         0.942264795
     0.563786149         0.706214190         0.942264795
     0.311581254         0.204356804         0.444101214
     0.311581254         0.204356804         0.944101214
     0.811581254         0.204356804         0.444101214
     0.811581254         0.204356804         0.944101214
     0.478498489         0.976037502         0.497428834
     0.478498489         0.976037502         0.997428834
     0.978498459         0.976037502         0.497428834
     0.978498459         0.976037502         0.997428834
     0.305763632         0.064355120         0.255403876
     0.305763632         0.064355120         0.755403876
     0.805763602         0.064355120         0.255403876
     0.805763602         0.064355120         0.755403876
     0.228350878         0.474653721         0.497841716
     0.228350878         0.474653721         0.997841716
     0.728350878         0.474653721         0.497841716
     0.728350878         0.474653721         0.997841716
     0.056023832         0.562400401         0.255704731
     0.056023832         0.562400401         0.755704761
     0.556023836         0.562400401         0.255704731
     0.556023836         0.562400401         0.755704761
     0.343307734         0.056701820         0.103745408
     0.343307734         0.056701820         0.603745401
     0.843307734         0.056701820         0.103745408
     0.843307734         0.056701820         0.603745401
     0.094048999         0.556632996         0.102812476
     0.094048999         0.556632996         0.602812469
     0.594048977         0.556632996         0.102812476
     0.594048977         0.556632996         0.602812469
     0.435831368         0.990050673         0.373095274
     0.435831368         0.990050673         0.873095274
     0.935831368         0.990050673         0.373095274
     0.935831368         0.990050673         0.873095274
     0.186960503         0.491910726         0.372141302
     0.186960503         0.491910726         0.872141302
     0.686960518         0.491910726         0.372141302
     0.686960518         0.491910726         0.872141302
     0.192437455         0.249420851         0.148607358
     0.192437455         0.249420851         0.648607373
     0.692437470         0.249420851         0.148607358
     0.692437470         0.249420851         0.648607373
     0.444766283         0.750102818         0.147817522
     0.444766283         0.750102818         0.647817492
     0.944766283         0.750102818         0.147817522
     0.944766283         0.750102818         0.647817492
     0.203906700         0.080976844         0.370337814
     0.203906700         0.080976844         0.870337844
     0.703906715         0.080976844         0.370337814
     0.703906715         0.080976844         0.870337844
     0.453792274         0.579070389         0.370994151
     0.453792274         0.579070389         0.870994151
     0.953792274         0.579070389         0.370994151
     0.953792274         0.579070389         0.870994151
     0.424161434         0.110829167         0.033462841
     0.424161434         0.110829167         0.533462822
     0.924161434         0.110829167         0.033462841
     0.924161434         0.110829167         0.533462822
     0.175340429         0.611736298         0.032417268
     0.175340429         0.611736298         0.532417297
     0.675340414         0.611736298         0.032417268
     0.675340414         0.611736298         0.532417297
     0.426940829         0.009734064         0.303678066
     0.426940829         0.009734064         0.803678036
     0.926940799         0.009734064         0.303678066
     0.926940799         0.009734064         0.803678036
     0.178083196         0.509028614         0.303244710
     0.178083196         0.509028614         0.803244710
     0.678083181         0.509028614         0.303244710
     0.678083181         0.509028614         0.803244710
     0.027726065         0.870501339         0.116161369
     0.027726065         0.870501339         0.616161346
     0.527726054         0.870501339         0.116161369
     0.527726054         0.870501339         0.616161346
     0.276576161         0.369187981         0.115944408
     0.276576161         0.369187981         0.615944386
     0.776576161         0.369187981         0.115944408
     0.776576161         0.369187981         0.615944386
     0.275396615         0.209938884         0.302682489
     0.275396615         0.209938884         0.802682519
     0.775396585         0.209938884         0.302682489
     0.775396585         0.209938884         0.802682519
     0.025064670         0.708144367         0.303270340
     0.025064670         0.708144367         0.803270340
     0.525064647         0.708144367         0.303270340
     0.525064647         0.708144367         0.803270340
     0.122299515         0.260215372         0.108511351
     0.122299515         0.260215372         0.608511329
     0.622299492         0.260215372         0.108511351
     0.622299492         0.260215372         0.608511329
     0.375232309         0.760592341         0.107155614
     0.375232309         0.760592341         0.607155621
     0.875232339         0.760592341         0.107155614
     0.875232339         0.760592341         0.607155621
     0.196716800         0.954426408         0.373868763
     0.196716800         0.954426408         0.873868763
     0.696716785         0.954426408         0.373868763
     0.696716785         0.954426408         0.873868763
     0.446066797         0.452590495         0.374169171
     0.446066797         0.452590495         0.874169171
     0.946066797         0.452590495         0.374169171
     0.946066797         0.452590495         0.874169171
     0.244959459         0.048055649         0.101168416
     0.244959459         0.048055649         0.601168394
     0.744959474         0.048055649         0.101168416
     0.744959474         0.048055649         0.601168394
     0.495876223         0.548085809         0.099807113
     0.495876223         0.548085809         0.599807143
     0.995876193         0.548085809         0.099807113
     0.995876193         0.548085809         0.599807143
     0.471943885         0.881593704         0.422322959
     0.471943885         0.881593704         0.922322989
     0.971943855         0.881593704         0.422322959
     0.971943855         0.881593704         0.922322989
     0.219518691         0.380814105         0.423738807
     0.219518691         0.380814105         0.923738837
     0.719518661         0.380814105         0.423738807
     0.719518661         0.380814105         0.923738837
     0.367991209         0.019223936         0.172466964
     0.367991209         0.019223936         0.672466993
     0.867991209         0.019223936         0.172466964
     0.867991209         0.019223936         0.672466993
     0.118228123         0.517956674         0.171761245
     0.118228123         0.517956674         0.671761274
     0.618228137         0.517956674         0.171761245
     0.618228137         0.517956674         0.671761274
     0.412929833         0.078259550         0.398047239
     0.412929833         0.078259550         0.898047209
     0.912929833         0.078259550         0.398047239
     0.912929833         0.078259550         0.898047209
     0.167453691         0.584498107         0.394407362
     0.167453691         0.584498107         0.894407392
     0.667453706         0.584498107         0.394407362
     0.667453706         0.584498107         0.894407392
     0.176660225         0.116060823         0.218120947
     0.176660225         0.116060823         0.718120933
     0.676660240         0.116060823         0.218120947
     0.676660240         0.116060823         0.718120933
     0.428810358         0.616156578         0.216927603
     0.428810358         0.616156578         0.716927588
     0.928810358         0.616156578         0.216927603
     0.928810358         0.616156578         0.716927588
     0.147304475         0.079441786         0.433770746
     0.147304475         0.079441786         0.933770776
     0.647304475         0.079441786         0.433770746
     0.647304475         0.079441786         0.933770776
     0.397920758         0.577155769         0.434731811
     0.397920758         0.577155769         0.934731841
     0.897920728         0.577155769         0.434731811
     0.897920728         0.577155769         0.934731841
