Ca Ti Mn Si O  F 
 1.0000000000000000
     9.9872684479000000    0.0000000000000000    0.0000000000000000
     0.0000000000000000   10.9652748108000004    0.0000000000000000
     0.0000000000000000   -4.3438069094999996   13.5038650633999993
 Ca  Ti  Mn  Si  O   F  
  11   8  12  16  64   8
Selective dynamics
Cartesian
  2.1315707450608072  2.2685553916121464  6.0488010750196040   T   T   T
  6.0092840798784719 -2.1525988600321138 13.2944757005967578   T   T   T
  3.9849168743337855  8.7667090196318647  0.2474934200652514   T   T   T
  8.9676535565571456  5.4675335432965078  6.6199818607319827   T   T   T
  3.6688643050898904  0.6944875890822945 12.3749254737865861   T   T   T
  6.3338605697685804  5.8623881004991016  1.2226595341952964   T   T   T
  8.7300690656800182 -1.6051990063480690  7.8764139528177148   T   T   T
  1.3225665834393825  8.3434774548753783  5.5774022255440761   T   T   T
  1.2184834690345789  6.1023707566425678 12.2880302900211564   T   T   T
  8.7036919656689609  0.4530093442984567  1.1497610613774092   T   T   T
  6.1429600090672922  3.7257592210950752  7.8277777565016740   T   T   T
  4.0920380757119110  5.2753868209242292 10.1481911286765136   T   T   T
  5.8849630450308359  1.3753930748010901  3.3724645213502935   T   T   T
  9.0056391572247492  4.7221215555223601 10.1138352339200228   T   T   T
  0.9080401557284170  1.8788036617587620  3.2768033560221701   T   T   T
  0.9201349404175200 -0.3034461493306269 10.3003766482278536   T   T   T
  9.0920360813769285  6.9627243326765278  3.2311590501838756   T   T   T
  5.9109123889926263 -0.6581372777435948  9.9161929655591674   T   T   T
  4.0878932118428306  7.2949690207751061  3.5834211283314481   T   T   T
  3.9945620455165849  6.7027099103933221  6.9615290120952524   T   T   T
  5.9722479429961215  0.0020863814313442  6.5235741659792801   T   T   T
  9.0212963915105711  3.1868961674815899 13.3095349182511384   T   T   T
  1.0197875418770379  3.3757438323219295  0.2159564554917186   T   T   T
  3.5698947887802968  1.7416380732724424  9.2232421657778367   T   T   T
  6.2843897867535787  4.6530953924559793  4.4133437411645238   T   T   T
  8.5899801304066425 -2.8279346007418313 11.0504741279119632   T   T   T
  1.4162051529934356  9.5302407630832882  2.4492929673516453   T   T   T
  1.4457834273413837  7.4390872404421122  9.1217181747539371   T   T   T
  8.5912395763738107 -0.6585955313910173  4.3846622004970444   T   T   T
  6.4302758461803693  2.6255024128334385 11.0702704873464555   T   T   T
  3.5640995410867271  3.9393306317596393  2.4974714487695144   T   T   T
  3.3346174959326502 -2.3440747242623634 11.5701415822065083   T   T   T
  6.6871515350112380  8.9285710489109267  1.9213446592136143   T   T   T
  8.3738736191576173  1.3779632196365872  8.6748701275114932   T   T   T
  1.6638472387463445  5.2385322132378276  4.8496854027695742   T   T   T
  6.7249232321865531  6.8058733092655874  8.6423443674992679   T   T   T
  3.3460432851912767 -0.2274337741490870  4.7590897526475775   T   T   T
  1.7317859622375982  3.1541980984274063 11.6041091319210956   T   T   T
  8.1986041703550221  3.4315885772755172  1.9195339682658223   T   T   T
  1.6793376564918621  4.4057849898660502  8.0530161402098539   T   T   T
  8.4058139368813123  2.2734443098044315  5.6116673537399997   T   T   T
  6.6680388861399935  5.6295865055872296 12.3446415039766588   T   T   T
  3.2972075277106976  0.9945723770890103  1.1260448477916694   T   T   T
  3.2669551191031241 -1.0725312543348655  7.8553240394299477   T   T   T
  6.7175882812470196  7.8295852034858635  5.5849969537151187   T   T   T
  8.2651929665433777  0.1413290744541303 12.3377315784014563   T   T   T
  1.7314889032568765  6.4721178753335353  1.1860754750554732   T   T   T
  5.1871716092764366  2.9325069007544169  3.7128096600249219   T   T   T
  4.8191420175216066  3.6994546522082787  9.7513842508571642   T   T   T
  0.1617660271636167  0.2950720887703761  2.9090574940288256   T   T   T
  9.6861704745019956  6.3085793145229792 10.5764903671869614   T   T   T
  2.2173429983143218  1.7789616893438560 10.9105910508202388   T   T   T
  7.7136158071086482  4.7219050969390874  2.7625075088329343   T   T   T
  7.2461371224126259 -2.8141609084468819  9.3763005294892920   T   T   T
  2.8366168898986821  9.3391182147615321  4.1042852425788245   T   T   T
  0.1902916715034263 -1.8784824012653498  9.7839200370343473   T   T   T
  9.8510869828886101  8.5130784237878618  3.6630389925501832   T   T   T
  5.1950001386873454  0.8898146818787642 10.4878777734163044   T   T   T
  4.7998659836291955  5.7240766550566766  3.0747056616032640   T   T   T
  5.1504569521329637  6.3808577098795460  8.8003095166641341   T   T   T
  4.9274388261203423  0.1498483591658297  4.6298605787312237   T   T   T
  0.1800778126045948  3.6630404633868419 11.4762764543637878   T   T   T
  9.7605672443431306  2.9442001370906379  1.9692828999301033   T   T   T
  2.2824158868264908 -1.0821599058433173 11.7417185808593523   T   T   T
  7.7358820885072070  7.6535282789219314  1.7706085717736240   T   T   T
  7.2864627011568270  0.1134409255112638  8.5863034389152251   T   T   T
  2.7272396821190994  6.4966922697125398  4.9731682192385902   T   T   T
  7.3723025552767973 -3.8770486181728052 12.5729210547438051   T   T   T
  2.5854178023147258 10.4962185554571494  0.8993174324997070   T   T   T
  2.3403920697957905  2.9512622825320793  8.1010188842443398   T   T   T
  7.6794535001830075  3.7330577426319538  5.8436718577770499   T   T   T
  7.6283824724773348  5.4400992234676178  8.8570922240183876   T   T   T
  2.4107698679537743  1.0077461675262414  4.2301019002307978   T   T   T
  2.6948675979051737  4.4834628971149684 11.3822732041379169   T   T   T
  7.2615627587215297  2.0723781672501409  2.0398588157299109   T   T   T
  2.7233352190206546  8.3663280881422963  7.5811565535533409   T   T   T
  7.2553335774227712 -1.6166601524244122  5.8598867113142612   T   T   T
  7.7301576216990302  1.6777057476159871 12.5296565542415710   T   T   T
  2.3064288515724698  4.9613277748916218  0.9512141389249240   T   T   T
  3.7200744624019881 -2.7783916410471261 13.1288723333535717   T   T   T
  6.3327888333551243  9.3551267320390945  0.3457024797895143   T   T   T
  8.7518100925311124  1.6768994071857422  7.1044140328047654   T   T   T
  1.4008854284054726  4.7144864895917067  6.4222848425829566   T   T   T
  4.7931007759364475 -1.7695365589126033 11.0872282627489049   T   T   T
  5.2198708751571283  8.3499554596880063  2.3697169080131415   T   T   T
  9.7214192983842960  0.7801034738229263  9.3628882622058960   T   T   T
  0.2001347683811631  5.8917560744043582  4.4810731523215752   T   T   T
  1.9994159157119558  2.9440615209015553 13.2516906764711742   T   T   T
  7.8873940545009686  3.7958600937602376  0.3131252521579236   T   T   T
  7.0081320311678423  7.0023925190685787  7.0042437823137256   T   T   T
  3.0291119817041179 -0.2255826308851587  6.4184069618609048   T   T   T
  9.8680164938036103 -0.0428064840936810 12.0840947347556238   T   T   T
  0.1274962231889162  6.5648784377223821  1.5001146318161251   T   T   T
  4.8757266245284701 -1.0016926505082293  8.2061713034005468   T   T   T
  5.1165841328872599  7.6860434033299176  5.2651686273883200   T   T   T
  2.7079038329735141  7.3239707564952052 10.8343253362792922   T   T   T
  7.3147918174095832 -0.7532529051704985  2.6637839865597206   T   T   T
  7.7432134338645637  2.7017103327195744  9.3747208988574453   T   T   T
  2.1377332508054048  3.9117326224645428  4.0582557897036251   T   T   T
  2.6299080239033956  5.6014062984693078  8.6448266290429689   T   T   T
  7.4001432575915214  1.2089768747860168  4.8440815021594705   T   T   T
  7.6039041852459901  4.4965768738999792 11.6120017027093017   T   T   T
  2.2938945929111911  2.1511146036514401  1.7390087565109027   T   T   T
  5.1652306670336383  5.7052645439766474 11.6982580318850911   T   T   T
  4.7662375566566606  0.9152701489483697  1.8309749295776898   T   T   T
  0.1394876632304338  4.4580664776853878  8.5919141770662009   T   T   T
  9.8797348440750081  2.3424760848561759  4.8687483093970876   T   T   T
  2.4399962639905008 -0.2443269230544862  9.0032415988471879   T   T   T
  7.6253000418944987  6.9386724946126090  4.5442979691933401   T   T   T
  7.3698436502163247 -0.8278826226889709 11.3436719813820410   T   T   T
  2.6268990340771481  7.4235764314578274  2.1861394223835591   T   T   T
  0.1002272583931094 -2.9628956922530207 12.9895130819051801   T   T   T
  9.8702679576741001  9.5205404813347236  0.4898705253025932   T   T   T
  5.0085950167323823  1.8307624645607252  7.3488545272695758   T   T   T
  4.9820018476195465  4.8413762947025392  6.2521622105536681   T   T   T
  9.9931043290457620  7.4188846815939371  7.2976836363796203   T   T   T
 -0.0068811595863580 -0.8829391244594160  6.1011645546485367   T   T   T
  4.9890053772952658  2.4824112604306436 13.0394323445240410   T   T   T
  4.9868980319440910  4.0984304525873858  0.5446534028831328   T   T   T
