Ca Mn V  P  O 
1.0
        9.7754812241         0.0000000000         0.0000000000
        0.1852241842         8.2436383413         0.0000000000
        0.4273029381        -0.4645402692        13.7348402039
   Ca   Mn    V    P    O
    3    4    4   16   56
Direct
     0.420532256         0.924660563         0.369610786
     0.170530319         0.924656928         0.869610190
     0.670530319         0.924656928         0.869610190
     0.073710106         0.006996441         0.629022300
     0.573710084         0.006996441         0.629022300
     0.323695451         0.007020677         0.129044056
     0.823695421         0.007020677         0.129044056
     0.175227761         0.492296815         0.862809300
     0.675227761         0.492296815         0.862809300
     0.425218582         0.492307454         0.362801731
     0.925218582         0.492307454         0.362801731
     0.071224347         0.193351671         0.244459376
     0.571224332         0.193351671         0.244459376
     0.321254134         0.193355948         0.744508862
     0.821254134         0.193355948         0.744508862
     0.084052652         0.767997921         0.058232527
     0.584052682         0.767997921         0.058232527
     0.334027708         0.767971337         0.558219671
     0.834027708         0.767971337         0.558219671
     0.168312356         0.268696219         0.442780018
     0.668312371         0.268696219         0.442780018
     0.418333769         0.268715531         0.942780852
     0.918333769         0.268715531         0.942780852
     0.178997055         0.687533200         0.253669173
     0.678997040         0.687533200         0.253669173
     0.429020762         0.687594414         0.753711939
     0.929020762         0.687594414         0.753711939
     0.316192120         0.299269319         0.409097463
     0.816192150         0.299269319         0.409097463
     0.066140540         0.299255997         0.909110785
     0.566140532         0.299255997         0.909110785
     0.344534874         0.673869252         0.460925967
     0.844534874         0.673869252         0.460925967
     0.094518498         0.673917770         0.960966647
     0.594518483         0.673917770         0.960966647
     0.464045584         0.059811886         0.226695314
     0.964045584         0.059811886         0.226695314
     0.214059159         0.059808452         0.726697385
     0.714059174         0.059808452         0.726697385
     0.012519409         0.364230633         0.247814253
     0.512519419         0.364230633         0.247814253
     0.262533396         0.364202082         0.747806370
     0.762533426         0.364202082         0.747806370
     0.040688682         0.690633953         0.312275916
     0.540688694         0.690633953         0.312275916
     0.290751755         0.690627098         0.812252045
     0.790751755         0.690627098         0.812252045
     0.075984709         0.421319216         0.446051955
     0.575984716         0.421319216         0.446051955
     0.326008111         0.421278954         0.946055472
     0.826008081         0.421278954         0.946055472
     0.107725047         0.144399136         0.355901390
     0.607725024         0.144399136         0.355901390
     0.357709885         0.144405887         0.855858743
     0.857709885         0.144405887         0.855858743
     0.144608095         0.656234443         0.139451832
     0.644608080         0.656234443         0.139451832
     0.394631326         0.656195521         0.639480710
     0.894631326         0.656195521         0.639480710
     0.176316634         0.918620884         0.045589726
     0.676316619         0.918620884         0.045589726
     0.426373541         0.918706417         0.545595348
     0.926373541         0.918706417         0.545595348
     0.198966473         0.175556988         0.178808674
     0.698966503         0.175556988         0.178808674
     0.448951691         0.175576821         0.678823173
     0.948951721         0.175576821         0.678823173
     0.245904028         0.853866518         0.263052404
     0.745904028         0.853866518         0.263052404
     0.495871514         0.853762567         0.763035297
     0.995871544         0.853762567         0.763035297
     0.272528738         0.546471834         0.276337832
     0.772528768         0.546471834         0.276337832
     0.022483146         0.546519518         0.776319206
     0.522483170         0.546519518         0.776319206
     0.411475748         0.162816405         0.029742716
     0.911475778         0.162816405         0.029742716
     0.161460310         0.162787274         0.529751301
     0.661460280         0.162787274         0.529751301
     0.436059147         0.817020237         0.085771099
     0.936059117         0.817020237         0.085771099
     0.185991585         0.817058861         0.585791171
     0.685991585         0.817058861         0.585791171
