Ca Mn P O                               
   1.00000000000000     
     9.4838841342195206   -0.0969322476207109   -0.0585569598928726
     0.6313856391248390    9.4302456168749096    0.0595588494434101
    -8.5683062869116693   -7.6172525006989202   21.3766566021016011
   Ca   Mn   P    O 
    11    24    24    96
Direct
  0.6834294240493090  0.6776418151004706  0.5859988492602971
  0.4988273749034245  0.4930366967170540  0.9959526375368480
  0.3346676940799311  0.3918093172011362  0.1738841225186349
  0.3303384853010147  0.3931094565514489  0.6764393166496891
  0.7567991108400550  0.7506549183601936  0.1276183927823321
  0.0123006935350968  0.0133578275344959  0.2603648740154139
  0.9757276189984889  0.9742170598482730  0.7298401966863479
  0.2785657121308820  0.2897562681236710  0.3986706849240824
  0.2382565370695270  0.2343156868983805  0.8646074590690754
  0.6622951023714811  0.6170636043279546  0.3280100232630671
  0.6702484098693287  0.6013556252893117  0.8255464819153894
  0.4641713828234540  0.1489294147171074  0.0458296712520684
  0.4651187289991875  0.1700126971650889  0.5474308654200543
  0.0216919846641719  0.3431955948429913  0.2011232136602002
  0.0128720076931187  0.3381933320656206  0.7036054285781393
  0.0872038898697478  0.8131774850257879  0.0723258423558059
  0.0771283963854918  0.7971351246180005  0.5735035071720584
  0.8771470556943546  0.3769143452630504  0.0596429770433056
  0.8775106201437940  0.3688897966561885  0.5570544903183035
  0.6385247897356919  0.1122959480710327  0.1876528803296023
  0.6216636698027286  0.0952676277991544  0.6847577865355335
  0.4019909715091802  0.7298391416450022  0.1730882523062634
  0.4011537979205252  0.7335618200342374  0.6733170542053235
  0.5948362789572601  0.2728364878251077  0.3246625859938806
  0.6004778384913534  0.2639132712163415  0.8282549085467267
  0.3722263881897689  0.9009138628286952  0.3136913757389202
  0.3616501721589422  0.8802554641755728  0.8123698426397064
  0.1335797798093758  0.6288858186758683  0.4397604449910750
  0.1265272143411636  0.6158673580849006  0.9407515932008671
  0.9807921916075191  0.6588250587712582  0.2950508256143028
  0.9798056496835125  0.6550813216408519  0.8001947611176093
  0.9160700516435551  0.1927830198470807  0.4242155945736278
  0.9171196640959162  0.1824856292753173  0.9278527194303979
  0.5309425092371479  0.8506914673984016  0.4544607802072546
  0.5401695855868122  0.8437863915954701  0.9548402509008689
  0.2072696581004977  0.4141594555451349  0.0384559115270731
  0.2005565147497316  0.4325684116802103  0.5380698726165880
  0.8199415833869345  0.0562653823324828  0.0880314016508237
  0.8145670069568821  0.0572311301894822  0.5878112455330260
  0.2959724696620653  0.0817320750522778  0.2072459152680826
  0.2920586710529599  0.0818371791779404  0.7110017181834924
  0.4235250403871680  0.8327941057988624  0.0643434844921250
  0.4063588584776032  0.8461539474433926  0.5614665675721403
  0.0817598215188874  0.6662723990060643  0.1803015153571501
  0.0792002595668446  0.6620786273734386  0.6853212047709586
  0.6616062805367112  0.4548907454367048  0.1667608634864218
  0.6592165123327770  0.4493895468983587  0.6731211346007525
  0.3336772738623310  0.5490489632460754  0.3274637038558127
  0.3396993721404427  0.5396896785631053  0.8328553103422315
  0.9208563648799476  0.3370218432235184  0.3148914267233354
  0.9189774942459517  0.3297541967453546  0.8197734728890804
  0.5810144263637123  0.1636918684489007  0.4350713934849327
  0.5803303215614681  0.1610798443031426  0.9372428210509444
  0.7067852893963534  0.9159847615598976  0.2892328563604078
  0.7027528898484146  0.9149223929223524  0.7920165805266832
  0.1834279857950291  0.9473466662958544  0.4106010242863059
  0.1849349600970328  0.9385831792383874  0.9135041129396932
  0.7949831184130290  0.5827198577995539  0.4585918729078996
  0.7973807347068538  0.5793738556651067  0.9624204748507372
  0.0375780452070108  0.3580290971531001  0.0148517602924888
  0.0357326212111416  0.3596867009043361  0.5137484374533025
  0.6578365579292440  0.0340858299543040  0.0382304854319124
  0.6537667408193126  0.0419136643631152  0.5380733031403494
  0.4553191462874166  0.0053853140597167  0.0944914537148461
  0.4388431297590666  0.0189128575266948  0.5923882461039300
  0.3050903421790027  0.2946173647276454  0.0631224066460623
  0.3102567307936667  0.3266597641651002  0.5681426279226759
  0.2021590409141429  0.2041131172691946  0.1837791411381952
  0.2002366696660519  0.2063833492270450  0.6885252338699709
  0.2534844891250493  0.7832507489686674  0.0292270472606478
  0.2358389257331621  0.8015838152008519  0.5279479753603495
  0.0505615132031416  0.4909945870782053  0.1517947506065737
  0.0452710680073634  0.4885244904457198  0.6532836459264194
  0.2453635398064978  0.5590186537537928  0.0960870919935878
  0.2199326702962756  0.5851701767845987  0.5913234164856791
  0.5133170029548584  0.7568322617499562  0.0199941351991427
  0.4935867782598818  0.7707957193449472  0.5160944664728695
  0.0085802622927418  0.7334509178251570  0.1274652829870629
 -0.0029058002562579  0.7474169878113649  0.6390062267008494
  0.7587211131039098  0.5563955548339173  0.0171081752734256
  0.7729303598495862  0.5457644381436694  0.5128943427686276
  0.8110423203077280  0.0175978413949924  0.1459148269723768
  0.8003256363557254  0.0274555679538886  0.6463085241872265
  0.2558954538323578  0.0588173104411073  0.2610376444762600
  0.2506735498324208  0.0623627644146481  0.7658110964287150
  0.5971699584517364  0.2884378451994490  0.1459048153515365
  0.5878691017721546  0.2858118332184877  0.6526363550679516
  0.8770538117575166  0.2244060072505300  0.1093573462168554
  0.8797318675765948  0.2233911924309812  0.6091614570981900
  0.4668831930134107  0.1376149093457942  0.2302943164300912
  0.4633456715534002  0.1334154695589745  0.7339462479504812
  0.6609625852310831  0.4980337000115335  0.1097408279995714
  0.6616197927803984  0.4847148352451461  0.6160709209982359
  0.4993219424409325  0.7641130364588101  0.1173126162852846
  0.4847008692002444  0.7786119310104063  0.6150548975294584
  0.9927074201669106  0.7419862301204775  0.2249366288106354
  0.0144636928199609  0.7343830986930923  0.7380317510917769
  0.1729157629840206  0.5298897716726430  0.2771029481776479
  0.1783218970003907  0.5106072532410304  0.7833589134918650
  0.2671879587722797  0.9276976453031786  0.1542965877634953
  0.2577551200961106  0.9277366267111621  0.6586287471492995
  0.2539382209968076  0.7057243600377868  0.2165435250546387
  0.2555801662405352  0.6923857483028560  0.7163299886426754
  0.5533533640388979  0.5505938294701848  0.1994340420462912
  0.5520935854561104  0.5508368734315676  0.7051858865847402
  0.0814049210220150  0.0545957796528492  0.4381312038327052
  0.0813467827109056  0.0434754256082924  0.9409668139810051
  0.9220831917374298  0.9511280910190273  0.0597838542836497
  0.9154423015113896  0.9445330693033055  0.5619491280533814
  0.4422287037398014  0.4514723953404770  0.2948235895056259
  0.4509344402038624  0.4456590130337990  0.8015239696614517
  0.7470961934888727  0.2961642137646642  0.2804435171785277
  0.7462586423809138  0.2939808521921440  0.7849472509493114
  0.8244487309115049  0.4807857639939601  0.2150765123054985
  0.8218746989662418  0.4713071079072441  0.7223930975006312
  0.7396329285775415  0.0712429173742897  0.3409020259829945
  0.7341693692046611  0.0689921774008084  0.8452897191022575
  0.9993661495078373  0.2644065165979002  0.2665718336629999
  1.0041694288066545  0.2529465063877038  0.7736791126619306
  0.5027662626296711  0.2216790065665360  0.3788936560118455
  0.5035595761693060  0.2365835021721161  0.8862932325905944
  0.3252149881142299  0.5050938383863657  0.3818448860732155
  0.3385734139301702  0.4959659499791684  0.8895638452898820
  0.5361893005835172  0.8619864253207807  0.2673559742463186
  0.5316906825405368  0.8605400201530217  0.7697192303340774
  0.1248319081042417  0.7796294646537314  0.3878439261787570
  0.1258760631511923  0.7703884635366198  0.8915678767215897
  0.4059247226106161  0.7139186629727416  0.3501200865116730
  0.4023109240121968  0.7066660356323018  0.8542555823839779
  0.7462384350486430  0.9327275329836446  0.2337422624875406
  0.7399200841720306  0.9366441061589589  0.7373558318018456
  0.1950440986237134  0.9868450284896157  0.3533253808679790
  0.1973767486934347  0.9776829151022002  0.8564961076937213
  0.2324555138611497  0.4539875483921564  0.4827011417780669
  0.2455696007218129  0.4411158066779261  0.9845544771492435
  0.9974664434995494  0.2592617380787068  0.3645119277264829
  0.9954061428654885  0.2636877759011522  0.8727330037796139
  0.4910006312802939  0.2376055471570701  0.4786024861533429
  0.4940615744713889  0.2353084898716093  0.9830707515797098
  0.7530179743921610  0.4437588670906880  0.3981624641853247
  0.7615537700728739  0.4314585473221771  0.9065693153452673
  0.9518031170544495  0.5109258526117447  0.3445713844791129
  0.9514107306055651  0.5053868943392201  0.8481419851416876
  0.7518441289544479  0.2113833973388332  0.4681051678523001
  0.7509034988774641  0.2096588739795239  0.9715362061493044
  0.8001438394719712  0.7936895775834921  0.3129581453019455
  0.7969815787844050  0.7925249286988277  0.8154015078095529
  0.6907284885541234  0.7050846209594828  0.4386858496698846
  0.6969997509002510  0.6953775996492167  0.9360144402984822
  0.5539348833129661  0.9883101301357149  0.4064160740355501
  0.5475164332125754  0.9894353286452817  0.9057752524170721
  0.3444263836288865  0.9694803459555167  0.4609999341613109
  0.3460659635497596  0.9578334657364288  0.9637265105884092
  0.9621216799532750  0.6424407052829515  0.4795324257928235
  0.9662940008680657  0.6377899501893499  0.9859842325703636
 
             NaN             NaN             NaN
             NaN             NaN             NaN
             NaN             NaN             NaN
             NaN             NaN             NaN
             NaN             NaN             NaN
             NaN             NaN             NaN
             NaN             NaN             NaN
             NaN             NaN             NaN
             NaN             NaN             NaN
             NaN             NaN             NaN
             NaN             NaN             NaN
             NaN             NaN             NaN
             NaN             NaN             NaN
             NaN             NaN             NaN
             NaN             NaN             NaN
             NaN             NaN             NaN
             NaN             NaN             NaN
             NaN             NaN             NaN
             NaN             NaN             NaN
             NaN             NaN             NaN
             NaN             NaN             NaN
             NaN             NaN             NaN
             NaN             NaN             NaN
             NaN             NaN             NaN
             NaN             NaN             NaN
             NaN             NaN             NaN
             NaN             NaN             NaN
             NaN             NaN             NaN
             NaN             NaN             NaN
             NaN             NaN             NaN
             NaN             NaN             NaN
             NaN             NaN             NaN
             NaN             NaN             NaN
             NaN             NaN             NaN
             NaN             NaN             NaN
             NaN             NaN             NaN
             NaN             NaN             NaN
             NaN             NaN             NaN
             NaN             NaN             NaN
             NaN             NaN             NaN
             NaN             NaN             NaN
             NaN             NaN             NaN
             NaN             NaN             NaN
             NaN             NaN             NaN
             NaN             NaN             NaN
             NaN             NaN             NaN
             NaN             NaN             NaN
             NaN             NaN             NaN
             NaN             NaN             NaN
             NaN             NaN             NaN
             NaN             NaN             NaN
             NaN             NaN             NaN
             NaN             NaN             NaN
             NaN             NaN             NaN
             NaN             NaN             NaN
             NaN             NaN             NaN
             NaN             NaN             NaN
             NaN             NaN             NaN
             NaN             NaN             NaN
             NaN             NaN             NaN
             NaN             NaN             NaN
             NaN             NaN             NaN
             NaN             NaN             NaN
             NaN             NaN             NaN
             NaN             NaN             NaN
             NaN             NaN             NaN
             NaN             NaN             NaN
             NaN             NaN             NaN
             NaN             NaN             NaN
             NaN             NaN             NaN
             NaN             NaN             NaN
             NaN             NaN             NaN
             NaN             NaN             NaN
             NaN             NaN             NaN
             NaN             NaN             NaN
             NaN             NaN             NaN
             NaN             NaN             NaN
             NaN             NaN             NaN
             NaN             NaN             NaN
             NaN             NaN             NaN
             NaN             NaN             NaN
             NaN             NaN             NaN
             NaN             NaN             NaN
             NaN             NaN             NaN
             NaN             NaN             NaN
             NaN             NaN             NaN
             NaN             NaN             NaN
             NaN             NaN             NaN
             NaN             NaN             NaN
             NaN             NaN             NaN
             NaN             NaN             NaN
             NaN             NaN             NaN
             NaN             NaN             NaN
             NaN             NaN             NaN
             NaN             NaN             NaN
             NaN             NaN             NaN
             NaN             NaN             NaN
             NaN             NaN             NaN
             NaN             NaN             NaN
             NaN             NaN             NaN
             NaN             NaN             NaN
             NaN             NaN             NaN
             NaN             NaN             NaN
             NaN             NaN             NaN
             NaN             NaN             NaN
             NaN             NaN             NaN
             NaN             NaN             NaN
             NaN             NaN             NaN
             NaN             NaN             NaN
             NaN             NaN             NaN
             NaN             NaN             NaN
             NaN             NaN             NaN
             NaN             NaN             NaN
             NaN             NaN             NaN
             NaN             NaN             NaN
             NaN             NaN             NaN
             NaN             NaN             NaN
             NaN             NaN             NaN
             NaN             NaN             NaN
             NaN             NaN             NaN
             NaN             NaN             NaN
             NaN             NaN             NaN
             NaN             NaN             NaN
             NaN             NaN             NaN
             NaN             NaN             NaN
             NaN             NaN             NaN
             NaN             NaN             NaN
             NaN             NaN             NaN
             NaN             NaN             NaN
             NaN             NaN             NaN
             NaN             NaN             NaN
             NaN             NaN             NaN
             NaN             NaN             NaN
             NaN             NaN             NaN
             NaN             NaN             NaN
             NaN             NaN             NaN
             NaN             NaN             NaN
             NaN             NaN             NaN
             NaN             NaN             NaN
             NaN             NaN             NaN
             NaN             NaN             NaN
             NaN             NaN             NaN
             NaN             NaN             NaN
             NaN             NaN             NaN
             NaN             NaN             NaN
             NaN             NaN             NaN
             NaN             NaN             NaN
             NaN             NaN             NaN
             NaN             NaN             NaN
             NaN             NaN             NaN
             NaN             NaN             NaN
             NaN             NaN             NaN
             NaN             NaN             NaN
             NaN             NaN             NaN
             NaN             NaN             NaN
