Ca Mn P O  
1
   9.4838841342195206  -0.0969322476207109  -0.0585569598928726
   0.6313856391248390   9.4302456168749096   0.0595588494434101
  -8.5683062869116693  -7.6172525006989202  21.3766566021016011
Ca Mn P O  
11  24  24  96  
Direct
  0.6523295052747460  0.6547252075934420  0.5742210322138260  
  0.4992025023850720  0.4959093947245100  0.9984261388174450  
  0.3387032926676300  0.3902452984373980  0.1762504889777380  
  0.3259624541072750  0.3977191376444100  0.6756663441172710  
  0.7579361246372220  0.7503654009865121  0.1275296895176340  
  0.0140085514682801  0.0113772686543449  0.2608534474002960  
  0.9775036997129730  0.9781389615480200  0.7311462921068010  
  0.2741805664296900  0.2823897877941860  0.3964904701773040  
  0.2395116057344910  0.2387965622248020  0.8671091778314221  
  0.6639410936309130  0.6153612847512020  0.3259493626465820  
  0.6653744148916410  0.6044950651437559  0.8230905841942810  
  0.4610547561051820  0.1495657605870870  0.0457785403169804  
  0.4625367817322050  0.1645259687137750  0.5473111210323790  
  0.0225207065177739  0.3400266941778600  0.2008078141964920  
  0.0124394594922552  0.3404098680151500  0.7027024748815440  
  0.0882881336307937  0.8065377658693160  0.0724917459953236  
  0.0811201489079074  0.8004946077784530  0.5744929416886770  
  0.8765434288095830  0.3753162692008480  0.0601692879436890  
  0.8654387218251390  0.3803059581056530  0.5591953451385230  
  0.6381799025849630  0.1116703598539540  0.1875228884987390  
  0.6245930089910960  0.1014602428460090  0.6851865670479830  
  0.4051205958818250  0.7288090868413090  0.1726243950408070  
  0.4042282869835080  0.7338977899576540  0.6729392207426100  
  0.5962721785025280  0.2727791905197380  0.3260573579607860  
  0.5979148830566430  0.2667408812062070  0.8282426070661590  
  0.3742754759811680  0.8983200052967950  0.3142589683497330  
  0.3614879832648730  0.8833311596604980  0.8123232555638280  
  0.1302710626585110  0.6293358094461070  0.4408516808285050  
  0.1256542704101810  0.6197099008714230  0.9398724069650100  
  0.9839814486345100  0.6572972878643680  0.2962866950288840  
  0.9782660353048390  0.6573563217013950  0.7997123618261061  
  0.9165560203949090  0.1991921680347910  0.4267623974680880  
  0.9147838083833500  0.1903392549552690  0.9273407147777319  
  0.5343094589313860  0.8467255454313920  0.4549926889090680  
  0.5407912464471170  0.8449623090736600  0.9539038107696780  
  0.2052116906188310  0.4181656856771110  0.0385417262584589  
  0.1980135202719430  0.4303858267158590  0.5388519620931710  
  0.8199403430064780  0.0530752035473414  0.0874152353436851  
  0.8155696108284690  0.0577902903424026  0.5877303880661480  
  0.2974360009013530  0.0806880667413923  0.2075827079297630  
  0.2932995572355520  0.0844482500562761  0.7108948433123040  
  0.4221747951777280  0.8319521161641100  0.0625200827918779  
  0.4130806748177290  0.8412587603124120  0.5620347725783500  
  0.0840030523242554  0.6655487975529220  0.1817963469904920  
  0.0833861351435483  0.6656746088298220  0.6866162728969610  
  0.6638002212974230  0.4541630114292440  0.1671353333981610  
  0.6610825004526450  0.4527375555090690  0.6707322067049390  
  0.3358316701750740  0.5461577539242980  0.3288372425647470  
  0.3377141927608170  0.5419171252852610  0.8328913707671970  
  0.9208961166212130  0.3354451686213090  0.3152741351492200  
  0.9166162726150840  0.3320188101561490  0.8180924836816880  
  0.5812573259618340  0.1616679922372700  0.4357685127406020  
  0.5803805967282700  0.1636468333420940  0.9379845211127990  
  0.7088314329425210  0.9152351999858820  0.2899915772466970  
  0.7027711623086200  0.9180137896197860  0.7919340396037590  
  0.1842938330647370  0.9488169121791840  0.4117850399804790  
  0.1828411005338230  0.9431831181907760  0.9130681827397880  
  0.7955452993133260  0.5802068222716350  0.4605862323282530  
  0.7972020797746010  0.5773010680712199  0.9618304308700431  
  0.0366332072129182  0.3593629537862520  0.0153426336048119  
  0.0328622180374473  0.3627448344562320  0.5164734152043600  
  0.6589060142900200  0.0317928358204228  0.0372224791418869  
  0.6549645471637240  0.0408021306592951  0.5377567660904180  
  0.4561857705245150  0.0039182659348022  0.0942212093693635  
  0.4445222081706510  0.0141753766984005  0.5931979744530910  
  0.3064619566834640  0.3046276536093560  0.0655182956921020  
  0.3078303852494470  0.3233773149878830  0.5679622398414340  
  0.2033288048748160  0.2029724395568470  0.1841764571219260  
  0.2007369041551230  0.2077688962105010  0.6878090396723650  
  0.2515184714548920  0.7856322687064410  0.0282746310536925  
  0.2419486028747400  0.7973201562881620  0.5285053085571310  
  0.0496861528897187  0.4908071154695590  0.1523191745450990  
  0.0466332068314788  0.4925449784434120  0.6542648397354750  
  0.2386055854313470  0.5670298306423940  0.0935117354237538  
  0.2227223695540380  0.5835833915077950  0.5922078636861940  
  0.5083059922069940  0.7567994368853650  0.0168054446025483  
  0.4989571847465120  0.7683635255282451  0.5162622030066990  
  0.0096847017023476  0.7364322429962920  0.1303036304941970  
  0.0061234120768765  0.7530434416768340  0.6409884748932400  
  0.7583993495254920  0.5586908627639210  0.0172207483544796  
  0.7669093343573200  0.5532290048221020  0.5153089359512860  
  0.8082336926095230  0.0155368318013588  0.1451112384369950  
  0.8015079760027530  0.0275807087538516  0.6461990569294500  
  0.2573992407620630  0.0589188683762903  0.2616476342521320  
  0.2518933965461910  0.0661355090031692  0.7658496683670910  
  0.5987399227343340  0.2879003230877050  0.1461802674498100  
  0.5929126423525440  0.2876187806176140  0.6498009655629960  
  0.8779864308397390  0.2212429662556420  0.1092768582481910  
  0.8794566072304210  0.2239059586149070  0.6089750891009110  
  0.4680127356727790  0.1378117867511480  0.2303357057723370  
  0.4644913570516480  0.1366082271585360  0.7338799826148580  
  0.6656306524765880  0.4966994862329840  0.1103378935657690  
  0.6697700001438520  0.4900524082681370  0.6150090173226830  
  0.4987234557616160  0.7579826224460871  0.1137529998539790  
  0.4889293605292520  0.7713619060348570  0.6141837849553020  
  0.9994384534701271  0.7415533211113060  0.2280157220328130  
  0.0184018608327318  0.7388742327348190  0.7392100456853210  
  0.1758181072810690  0.5235748535929100  0.2780005463232380  
  0.1768799882199840  0.5131801843877311  0.7830937876791790  
  0.2695308343358790  0.9265581324150440  0.1549182750961460  
  0.2608690050255750  0.9298323549731951  0.6588286139468460  
  0.2569954137959790  0.7006238154913370  0.2163228033959810  
  0.2600859325311870  0.6926991027721070  0.7172953213422990  
  0.5544553085454540  0.5505220787810400  0.1989178760216620  
  0.5502357478169710  0.5513040531912849  0.7015294807192201  
  0.0845657020186454  0.0601869213547547  0.4390664905961750  
  0.0785980395672429  0.0489925808795823  0.9397247651251780  
  0.9238460761996350  0.9474080131020480  0.0605724821561456  
  0.9170087362216390  0.9450193351158660  0.5621950304134360  
  0.4461100110071490  0.4505747918287690  0.2967938604601480  
  0.4493196767411000  0.4476193872502310  0.8018258402982000  
  0.7463335794195510  0.3009816037152550  0.2826591502307560  
  0.7430196050177530  0.2990729132412150  0.7844392430003450  
  0.8254373036483720  0.4803381250613070  0.2161707177900760  
  0.8211011343209650  0.4769160341109990  0.7219644440146989  
  0.7427442163823230  0.0699063332310361  0.3418153241405800  
  0.7324080781661080  0.0718328142253490  0.8452019715846980  
  0.9947115889534710  0.2606347569628970  0.2657515467482280  
  0.9985864120597430  0.2555994066727390  0.7709900173343330  
  0.5030182132110690  0.2176471748092010  0.3790310313995040  
  0.5039744570871860  0.2406448031336620  0.8875467127779459  
  0.3280188429837790  0.5015841350696990  0.3832525333513890  
  0.3346646047451090  0.4982885013081280  0.8893085998422380  
  0.5383215098004180  0.8608635501369710  0.2685181182061250  
  0.5319513476929000  0.8622771479439270  0.7694581207171740  
  0.1226110487863550  0.7821994099064460  0.3891992944733110  
  0.1232294421958910  0.7750692231722490  0.8909631708880060  
  0.4033612455915180  0.7123058161399610  0.3511428658034260  
  0.4009422997839790  0.7088258086075860  0.8543515680538960  
  0.7467025391790340  0.9318003158966700  0.2340621709163090  
  0.7410165444976220  0.9402438726759410  0.7376773081012120  
  0.1982410556415910  0.9869023102861800  0.3544745095430700  
  0.1969967478789690  0.9812542835670850  0.8561127711263740  
  0.2301106824308160  0.4496778108477150  0.4828675010796050  
  0.2437186900150350  0.4397664207861890  0.9838288726391410  
  0.9980042253646740  0.2566713224957010  0.3641356322450360  
  0.9930143291684000  0.2622989267338520  0.8697951435533650  
  0.4891062326303720  0.2378611717715840  0.4786596341639720  
  0.4950257403342300  0.2375532631075920  0.9841121457710780  
  0.7639959946670060  0.4342616783314360  0.4039496036369210  
  0.7648567258475450  0.4260497653686000  0.9078459416272781  
  0.9551288091442460  0.5091400582894950  0.3456714698279030  
  0.9505501959171400  0.5072906935865020  0.8474837013872170  
  0.7508894054265300  0.2111458661508960  0.4698639201217340  
  0.7512169299077700  0.2098481035541060  0.9721172672560090  
  0.8022252184953440  0.7922015899464609  0.3130063519203200  
  0.7963885862236840  0.7951406897633010  0.8151646113506140  
  0.6895028168039390  0.6937439966250540  0.4353917833374930  
  0.6950133077043860  0.6890537460664240  0.9336013709336700  
  0.5548175786931030  0.9864088348300590  0.4075154033081050  
  0.5461238713526551  0.9920961964674150  0.9057120128893190  
  0.3450844387337870  0.9677746945118860  0.4620889370185610  
  0.3434049690757630  0.9624657651311070  0.9636550869955730  
  0.9617150347059010  0.6435982690548691  0.4821677594638500  
  0.9654872743950310  0.6367570042629800  0.9849394813552690  
