Mn O  Ca
1.0
        9.8882417679         0.0000000000         0.0000000000
        0.0000000000         9.1142683029         0.0000000000
        0.0000014051        -4.0065241181         9.7619707079
   Ca  Mn    O   
   14  18   36   
Direct
     0.666666687         0.319913357         0.673675418
     0.000000000         0.677250922         0.325576156
     0.333333343         0.677250922         0.325576156
     0.666666687         0.677250922         0.325576156
     0.000000000         0.319913357         0.673675418
     0.333333343         0.319913357         0.673675418
     0.166666657         0.498219877         0.498621941
     0.833333313         0.498219877         0.498621941
     0.166666701         0.864797890         0.145763919
     0.500000060         0.864797890         0.145763919
     0.833333373         0.864797890         0.145763919
     0.166666657         0.129568234         0.857399642
     0.500000000         0.129568234         0.857399642
     0.833333313         0.129568234         0.857399642
     0.166666672         0.998992920         0.499601364
     0.500000000         0.998992920         0.499601364
     0.833333313         0.998992920         0.499601364
     0.000000000         0.824918091         0.664662242
     0.333333343         0.824918091         0.664662242
     0.666666687         0.824918091         0.664662242
     0.000000000         0.172053143         0.331704468
     0.333333343         0.172053143         0.331704468
     0.666666687         0.172053143         0.331704468
     0.000000000         0.502855659         0.000047832
     0.333333343         0.502855659         0.000047832
     0.666666687         0.502855659         0.000047832
     0.166666687         0.340160221         0.169060946
     0.500000000         0.340160221         0.169060946
     0.833333373         0.340160221         0.169060946
     0.166666627         0.658981144         0.828599870
     0.499999970         0.658981144         0.828599870
     0.833333313         0.658981144         0.828599870
     0.166666687         0.125555277         0.194159359
     0.500000000         0.125555277         0.194159359
     0.833333373         0.125555277         0.194159359
     0.166666642         0.864508212         0.809964359
     0.499999970         0.864508212         0.809964359
     0.833333313         0.864508212         0.809964359
     0.000000000         0.930408597         0.328353405
     0.333333343         0.930408597         0.328353405
     0.666666687         0.930408597         0.328353405
     0.000000000         0.069873981         0.676327407
     0.333333343         0.069873981         0.676327407
     0.666666687         0.069873981         0.676327407
     0.166666687         0.757090986         0.497949034
     0.500000000         0.757090986         0.497949034
     0.833333373         0.757090986         0.497949034
     0.166666642         0.242206097         0.503876865
     0.499999970         0.242206097         0.503876865
     0.833333313         0.242206097         0.503876865
     0.000000000         0.580121338         0.674726129
     0.333333343         0.580121338         0.674726129
     0.666666687         0.580121338         0.674726129
     0.000000000         0.422956765         0.330980897
     0.333333343         0.422956765         0.330980897
     0.666666687         0.422956765         0.330980897
     0.166666567         0.439882159         0.846105099
     0.499999911         0.439882159         0.846105099
     0.833333254         0.439882159         0.846105099
     0.166666791         0.577841401         0.150430635
     0.500000119         0.577841401         0.150430635
     0.833333433         0.577841401         0.150430635
     0.000000000         0.292130470         0.007530451
     0.333333343         0.292130470         0.007530451
     0.666666687         0.292130470         0.007530451
     0.000000000         0.709713280         0.984882712
     0.333333343         0.709713280         0.984882712
     0.666666687         0.709713280         0.984882712
