V  Fe Cu O 
 1.0000000000000000
     6.7151990000000001    0.0000000000000000    0.0000000000000000
    -1.7784909999999989    8.0448439999999994    0.0000000000000000
    -2.3257099999999999   -3.5078000000000000    9.0327470000000005
 V   Fe  Cu  O  
   6   4   2  24
Cartesian
 -0.5487546173829351 -1.3376811889210385  6.8806761795221609
  1.4606811584644475  0.5145134483296133  3.4417746415257833
  4.8079755292660167  2.6151412959419531  1.4975315460315042
 -2.2149407764726798  1.9222978565362789  7.5226167601091634
  1.1337052779048351  4.0308307933351175  5.5785289503091517
  3.1393970597258054  5.8828147225934559  2.1327016662516871
  4.7329226702182350  0.6774618617477524  4.4043241280588061
  1.0921813208462983  1.3897594358448899  8.0747147530500278
  1.5030077125389136  3.1445221787552176  0.9363744111430338
 -2.1447727087103741  3.8675704563917348  4.6080440699120704
  2.8765907660376100 -0.6832310277050274  6.6470322283360694
 -0.2805802768709965  5.2193052250545495  2.3701025430418654
  4.6478740277516666 -0.7339376148590911  2.9937005672279904
 -1.0004948093012533 -1.6883372029315022  8.4820791781311726
  4.7245437238400552 -0.5005870229721063  6.0930736684254487
  1.5720836094106214 -1.0150456687031222  2.6471502712381194
  1.0068099228978815 -0.4090170638449811  6.9351318626949947
  2.7610403345603420  0.5541687686013727  4.6125946055109583
  5.1070373289868947  1.2462251708953418  0.6921852181404278
  2.9855617691899825  0.9180773221995406  7.6574660447808744
 -0.0449655121174955  0.6092352419475398  4.2972217702248248
  4.5403015470069459  2.2638650712170594  3.2213438812405486
 -0.8417010252554902  1.0330171655027447  8.2929154768111832
  1.6445252890057147  1.8039332085083142  2.2906645180245153
  0.9613857958174135  2.7281436092404778  6.7158968582941014
  3.4402904964132559  3.4942807638624522  0.7071038077888093
 -1.9514577873490424  2.2866204692669800  5.8021848046907261
  2.6326678808803519  3.9478600830023773  4.7105202692039860
 -0.3896775278096143  3.6171234135716941  1.3591757238102857
 -2.5133453198439590  3.2767710721288976  8.3533870073479815
 -0.1712594783265523  4.0070952953159784  4.4123500344599327
  1.5911771058619664  4.9445583748320034  2.0722487072731894
  1.0366359919042556  5.5485593364762433  6.3998723586688255
  4.5819520626204486  5.0438325248388924  2.9153524076371786
  3.5848773331445738  6.2264994685632891  0.5280059472314159
 -2.0621389578520297  5.2769829929510825  6.0242240223220112
