Ti Mn Si O  F 
 1.0000000000000000
     0.0000000000000000    9.7938672800000006    0.0000000000000000
     9.6640655399999993    0.0000000000000000   -4.7215519300000004
    -9.5850411700000002    0.0000000000000000  -10.1042009799999999
 Ti  Mn  Si  O   F  
   8  12  16  64   8
Cartesian
  0.2723287989133850  3.9338937038071680 -11.2424179297503155
 -0.1933044289133868  5.8599735761928340 -3.5833349802496826
 -0.1537922439133899  8.8308273438071669 -10.9962114352496805
  0.2328166139133872  0.9630399361928351 -3.8295414747503083
 -4.4344417055517358  1.0622778223647100 -9.1941466939972258
  4.5134660755517348  8.7315894576352981 -5.6316062160027665
 -5.1110872794482667  5.9592114623647117 -8.3229307410027573
  5.1901116494482666  3.8346558176352903 -6.5028221689972305
  2.8546502308929234  3.7958242629438668 -8.9940154394963976
 -2.7756258608929207  5.9980430170561334 -5.8317374705035920
 -2.7361136758929239  8.6927579029438693 -13.2446139255035931
  2.8151380458929216  1.1011093770561340 -1.5811389844964014
 -2.2141189261608698  3.8007695229021867 -9.0241911368110177
  2.2931432961608662  5.9930977570978117 -5.8015617731889879
 -7.3314100588391309  8.6977031629021901 -8.4928862981889832
  7.4104344288391344  1.0961641170978143 -6.3328666118110082
  2.5483861536347487  1.4001674299374276 -11.4401541344009114
 -2.4693617836347554  8.3936998500625783 -3.3855987755990835
 -2.4298495986347546  6.2971010699374261 -10.7984752305990863
  2.5088739686347563  3.4967662100625749 -4.0272776794009149
 -7.0889910362966528  3.3182151594941613 -9.3606801713976377
  7.1680154062966510  6.4756521205058384 -5.4650727386023590
 -2.4565379487033465  8.2151487994941590 -8.1563972636023596
  2.5355623187033425  1.5787184805058423 -6.6693556463976398
  2.3779843389018711  6.5626096397018676 -10.5781476322044021
 -2.2989599689018734  3.2312576402981339 -4.2476052777955902
 -2.2594477839018716  1.6656759997018669 -11.6604817327955903
  2.3384721539018720  8.1281912802981342 -3.1652711772044064
  0.3031306072792974  1.6361012216338737 -8.9017185452240462
 -0.2241062372792970  8.1577660583661284 -5.9240343647759550
 -0.1845940522792961  6.5330348616338751 -13.3369108197759587
  0.2636184222792989  3.2608324183661295 -1.4888420902240382
 -4.4772434897159874  3.2558717898633356 -6.5007016372338837
  4.5562678597159882  6.5379954901366659 -8.3250512727661139
 -5.0682854952840142  8.1528054298633368 -11.0163757977661092
  5.1473098652840124  1.6410618501366674 -3.8093771122338818
  1.0504944099493756  4.9822540393704138 -4.6679238519703041
 -0.9714700399493832  4.8116132406295922 -10.1578290580296962
 -1.0109822249493738  0.0853203993704139 -2.7449526030296929
  1.0900065949493773  9.7085468806295925 -12.0808003069702945
 -3.0871111224494379  2.0100208669340658 -10.2652354664016645
  3.1661354924494405  7.7838464130659322 -4.5605174435983313
 -6.4584178625505597  6.9069545069340688 -7.2518419685983266
  6.5374422325505597  2.8869127730659314 -7.5739109414016630
 -6.1066196056352116  0.3949025079704210 -8.0771952481700353
  6.1856439756352142  9.3989647720295917 -6.7485576618299445
 -3.4389093793647878  5.2918361479704208 -9.4398821868299567
  3.5179337493647860  4.5020311320295807 -5.3858707231700489
  1.9990999233976610  4.9364143853904823 -10.4063781576306251
 -1.9200755533976634  4.8574528946095201 -4.4193747523693663
 -1.8805633683976639  0.0394807453904817 -11.8322512073693691
  1.9595877383976643  9.7543865346095195 -2.9935017026306276
 -6.1281586545718678  2.2195379987211763 -10.1622135565206761
  6.2071830245718660  7.5743292812788212 -4.6635393534793117
 -3.4173703304281338  7.1164716387211762 -7.3548638784793097
  3.4963947004281324  2.6773956412788222 -7.4708890315206853
 -8.5933463625647573  7.4494065275125987 -9.0785136567307436
  8.6723707325647617  2.3444607524874073 -5.7472392532692487
 -0.9521826224352393  2.5524728875125970 -8.4385637782692520
  1.0312069924352392  7.2413943924874058 -6.3871891317307501
  1.0220235546665251  7.4633035278980788 -10.5420591330076903
 -0.9429991846665238  2.3305637521019271 -4.2836937769923038
 -0.9034869996665239  2.5663698878980763 -11.6965702319923093
  0.9825113696665237  7.2274973921019248 -3.1291826780076919
  3.7684922939806733  2.7666082999403097 -10.5096029927130843
 -3.6894679239806720  7.0272589800596919 -4.3161499172869160
 -3.6499557389806720  7.6635419399403135 -11.7290263722869081
  3.7289801089806747  2.1303253400596933 -3.0967265377130810
 -8.3681619353928429  3.6355787630135046 -10.3176602012987573
  8.4471863053928420  6.1582885169865023 -4.5080927087012368
 -1.1773670496071578  8.5325124030135022 -7.1994172337012357
  1.2563914196071557  1.2613548769865002 -7.6263356762987637
 -6.1864609490162747  4.6524835292558979 -9.0107748356935584
  6.2654853190162747  5.1413837507441009 -5.8149780743064330
 -3.3590680359837224  9.5494171692559000 -8.5063025993064230
  3.4380924059837188  0.2444501107441034 -6.3194503106935658
 -3.2133499563194707  2.0091872076305313 -12.9257911844208362
  3.2923743263194725  7.7846800723694694 -1.8999617255791612
  3.3318865113194702  6.9061208476305369 -9.3128381805791580
 -3.2528621413194694  2.8877464323694646 -5.5129147294208369
 -5.0336708194351303 -0.0030531694861812 -10.8083318239683202
  5.1126951894351267  9.7969204494861870 -4.0174210860316668
 -4.5118581655648757  4.8938804705138184 -6.7087456110316603
  4.5908825355648730  4.8999868094861840 -8.1170072989683302
  1.9786173597919459  2.7493210695235772 -12.6427318082614022
 -1.8995929897919530  7.0445462104764172 -2.1830211017385976
 -1.8600808047919497  7.6462547095235758 -9.5958975567385956
  1.9391051747919521  2.1476125704764195 -5.2298553532613985
  1.2528235433841470  2.4977104605901252 -9.9892778992120750
 -1.1737991733841471  7.2961568194098767 -4.8364750107879244
 -1.1342869883841493  7.3946441005901269 -12.2493514657879317
  1.2133113583841506  2.3992231794098773 -2.5764014442120664
  0.2848899209091054  5.1424342669963288 -12.6053221744536543
 -0.2058655509091039  4.6514330130036745 -2.2204307355463393
 -0.1663533659091077  0.2455006269963272 -9.6333071905463434
  0.2453777359091075  9.5483666530036722 -5.1924457194536497
 -4.2101999857553194  2.5273583495771605 -7.9480496892327013
  4.2892243557553256  7.2665089304228481 -6.8777032207672972
 -5.3353289992446804  7.4242919895771591 -9.5690277457672916
  5.4143533692446804  2.3695752904228375 -5.2567251642327015
 -7.7174261995142519  0.0814871112763117 -10.3780170446243982
  7.7964505695142501  9.7123801687236924 -4.4477358653756003
 -1.8281027854857479  4.9784207512763130 -7.1390603903755991
  1.9071271554857436  4.8154465287236858 -7.6866925196243994
  2.9430395331864805  0.2067395503684009 -10.1597870014795237
 -2.8640151631864854  9.5871277296316109 -4.6659659085204659
 -2.8245029781864841  5.1036731903683981 -12.0788423635204722
  2.9035273481864872  4.6901940896316017 -2.7469105464795271
