V  O  Ca
1.0
       11.6222629547         0.0000000000         0.0000000000
        0.0000000000        10.3350696564         0.0000000000
        0.0000000000         2.2779974061        12.1561330615
    Ca  V    O   
    11  36   78   
Direct
     0.416666657         0.172433347         0.730043173
     0.250000000         0.172418341         0.230042160
     0.583333313         0.172418341         0.230042160
     0.916666687         0.172418341         0.230042160
     0.250000000         0.827566624         0.269956827
     0.583333313         0.827566624         0.269956827
     0.916666687         0.827566624         0.269956827
     0.083333336         0.827581644         0.769957840
     0.416666657         0.827581644         0.769957840
     0.750000000         0.827581644         0.769957840
     0.083333336         0.172433347         0.730043173
     0.083333336         0.626267731         0.467101336
     0.416666657         0.626267731         0.467101336
     0.750000000         0.626267731         0.467101336
     0.083333336         0.373720944         0.032906152
     0.416666657         0.373720944         0.032906152
     0.750000000         0.373720944         0.032906152
     0.250000000         0.626279056         0.967093825
     0.583333313         0.626279056         0.967093825
     0.916666687         0.626279056         0.967093825
     0.250000000         0.373732299         0.532898605
     0.583333313         0.373732299         0.532898605
     0.916666687         0.373732299         0.532898605
     0.083333336         0.619448304         0.156219840
     0.416666657         0.619448304         0.156219840
     0.750000000         0.619448304         0.156219840
     0.250000000         0.380551696         0.843780160
     0.583333313         0.380551696         0.843780160
     0.916666687         0.380551696         0.843780160
     0.083333336         0.380482823         0.343765229
     0.416666657         0.380482823         0.343765229
     0.750000000         0.380482823         0.343765229
     0.250000000         0.619517207         0.656234801
     0.583333313         0.619517207         0.656234801
     0.916666687         0.619517207         0.656234801
     0.083333336         0.998297334         0.093776137
     0.416666657         0.998297334         0.093776137
     0.750000000         0.998297334         0.093776137
     0.083333336         0.001705796         0.406232715
     0.416666657         0.001705796         0.406232715
     0.750000000         0.001705796         0.406232715
     0.250000000         0.001702696         0.906223893
     0.583333313         0.001702696         0.906223893
     0.916666687         0.001702696         0.906223893
     0.250000000         0.998294234         0.593767285
     0.583333313         0.998294234         0.593767285
     0.916666687         0.998294234         0.593767285
     0.250000000         0.794799566         0.653115630
     0.583333313         0.794799566         0.653115630
     0.916666687         0.794799566         0.653115630
     0.083333336         0.794845700         0.153112844
     0.416666657         0.794845700         0.153112844
     0.750000000         0.794845700         0.153112844
     0.083333336         0.205200419         0.346884340
     0.416666657         0.205200419         0.346884340
     0.750000000         0.205200419         0.346884340
     0.250000000         0.205154344         0.846887112
     0.583333313         0.205154344         0.846887112
     0.916666687         0.205154344         0.846887112
     0.083333336         0.793859422         0.410740227
     0.416666657         0.793859422         0.410740227
     0.750000000         0.793859422         0.410740227
     0.083333336         0.206151396         0.089245632
     0.416666657         0.206151396         0.089245632
     0.750000000         0.206151396         0.089245632
     0.250000000         0.793848574         0.910754383
     0.583333313         0.793848574         0.910754383
     0.916666687         0.793848574         0.910754383
     0.250000000         0.206140548         0.589259744
     0.583333313         0.206140548         0.589259744
     0.916666687         0.206140548         0.589259744
     0.083333336         0.576810718         0.318582296
     0.416666657         0.576810718         0.318582296
     0.750000000         0.576810718         0.318582296
     0.250000000         0.576819897         0.818574488
     0.583333313         0.576819897         0.818574488
     0.916666687         0.576819897         0.818574488
     0.250000000         0.423189282         0.681417704
     0.583333313         0.423189282         0.681417704
     0.916666687         0.423189282         0.681417704
     0.083333336         0.423180103         0.181425527
     0.416666657         0.423180103         0.181425527
     0.750000000         0.423180103         0.181425527
     0.083333336         0.622728407         0.626219630
     0.416666657         0.622728407         0.626219630
     0.750000000         0.622728407         0.626219630
     0.250000000         0.622726321         0.126221716
     0.583333313         0.622726321         0.126221716
     0.916666687         0.622726321         0.126221716
     0.250000000         0.377271593         0.373780370
     0.583333313         0.377271593         0.373780370
     0.916666687         0.377271593         0.373780370
     0.083333336         0.377273679         0.873778284
     0.416666657         0.377273679         0.873778284
     0.750000000         0.377273679         0.873778284
     0.083333336         0.406594783         0.506044984
     0.416666657         0.406594783         0.506044984
     0.750000000         0.406594783         0.506044984
     0.250000000         0.593405247         0.493954986
     0.583333313         0.593405247         0.493954986
     0.916666687         0.593405247         0.493954986
     0.250000000         0.406595200         0.006043440
     0.583333313         0.406595200         0.006043440
     0.916666687         0.406595200         0.006043440
     0.083333336         0.593404770         0.993956506
     0.416666657         0.593404770         0.993956506
     0.750000000         0.593404770         0.993956506
     0.083333336         0.999989331         0.249987677
     0.416666657         0.999989331         0.249987677
     0.750000000         0.999989331         0.249987677
     0.250000000         0.000010655         0.750012338
     0.583333313         0.000010655         0.750012338
     0.916666687         0.000010655         0.750012338
     0.250000000         0.001200298         0.082328208
     0.583333313         0.001200298         0.082328208
     0.916666687         0.001200298         0.082328208
     0.083333336         0.001209626         0.582323968
     0.416666657         0.001209626         0.582323968
     0.750000000         0.001209626         0.582323968
     0.250000000         0.998790383         0.417676032
     0.583333313         0.998790383         0.417676032
     0.916666687         0.998790383         0.417676032
     0.083333336         0.998799682         0.917671740
     0.416666657         0.998799682         0.917671740
     0.750000000         0.998799682         0.917671740
