Ca Mn Ge O 
1.0
       11.1288595200         0.0000000000         0.0000000000
        2.7734844404        13.6325482584         0.0000000000
        2.7735706370         1.2518324924        13.5750122875
   Ca   Mn   Ge    O
   15   16   32   96
Direct
     0.624990344         0.097380452         0.402613729
     0.374991387         0.402617246         0.097387575
     0.374991387         0.902617216         0.097387575
     0.374991387         0.902617216         0.597387552
     0.874991417         0.402617246         0.097387575
     0.874991417         0.402617246         0.597387552
     0.874991417         0.902617216         0.097387575
     0.874991417         0.902617216         0.597387552
     0.124990322         0.097380452         0.402613729
     0.124990322         0.097380452         0.902613759
     0.124990322         0.597380459         0.402613729
     0.124990322         0.597380459         0.902613759
     0.624990344         0.097380452         0.902613759
     0.624990344         0.597380459         0.402613729
     0.624990344         0.597380459         0.902613759
     0.375017166         0.203832999         0.296170473
     0.375017166         0.203832999         0.796170473
     0.375017166         0.703832984         0.296170473
     0.375017166         0.703832984         0.796170473
     0.875017166         0.203832999         0.296170473
     0.875017166         0.203832999         0.796170473
     0.875017166         0.703832984         0.296170473
     0.875017166         0.703832984         0.796170473
     0.125004128         0.296169072         0.203836888
     0.125004128         0.296169072         0.703836918
     0.125004128         0.796169043         0.203836888
     0.125004128         0.796169043         0.703836918
     0.625004113         0.296169072         0.203836888
     0.625004113         0.296169072         0.703836918
     0.625004113         0.796169043         0.203836888
     0.625004113         0.796169043         0.703836918
     0.367556959         0.156563714         0.058453586
     0.367556959         0.156563714         0.558453560
     0.367556959         0.656563699         0.058453586
     0.367556959         0.656563699         0.558453560
     0.867556930         0.156563714         0.058453586
     0.867556930         0.156563714         0.558453560
     0.867556930         0.656563699         0.058453586
     0.867556930         0.656563699         0.558453560
     0.382420123         0.441515118         0.343414426
     0.382420123         0.441515118         0.843414426
     0.382420123         0.941515088         0.343414426
     0.382420123         0.941515088         0.843414426
     0.882420123         0.441515118         0.343414426
     0.882420123         0.441515118         0.843414426
     0.882420123         0.941515088         0.343414426
     0.882420123         0.941515088         0.843414426
     0.132477939         0.343535185         0.441485852
     0.132477939         0.343535185         0.941485882
     0.132477939         0.843535185         0.441485852
     0.132477939         0.843535185         0.941485882
     0.632477939         0.343535185         0.441485852
     0.632477939         0.343535185         0.941485882
     0.632477939         0.843535185         0.441485852
     0.632477939         0.843535185         0.941485882
     0.117558800         0.058508240         0.156537831
     0.117558800         0.058508240         0.656537831
     0.117558800         0.558508217         0.156537831
     0.117558800         0.558508217         0.656537831
     0.617558777         0.058508240         0.156537831
     0.617558777         0.058508240         0.656537831
     0.617558777         0.558508217         0.156537831
     0.617558777         0.558508217         0.656537831
     0.321509570         0.242482647         0.145867154
     0.321509570         0.242482647         0.645867169
     0.321509570         0.742482662         0.145867154
     0.321509570         0.742482662         0.645867169
     0.821509600         0.242482647         0.145867154
     0.821509600         0.242482647         0.645867169
     0.821509600         0.742482662         0.145867154
     0.821509600         0.742482662         0.645867169
     0.428477854         0.354167759         0.257546484
     0.428477854         0.354167759         0.757546484
     0.428477854         0.854167759         0.257546484
     0.428477854         0.854167759         0.757546484
     0.928477883         0.354167759         0.257546484
     0.928477883         0.354167759         0.757546484
     0.928477883         0.854167759         0.257546484
     0.928477883         0.854167759         0.757546484
     0.178479433         0.257524341         0.354143918
     0.178479433         0.257524341         0.854143918
     0.178479433         0.757524371         0.354143918
     0.178479433         0.757524371         0.854143918
     0.678479433         0.257524341         0.354143918
     0.678479433         0.257524341         0.854143918
     0.678479433         0.757524371         0.354143918
     0.678479433         0.757524371         0.854143918
     0.071502186         0.145863354         0.242472887
     0.071502186         0.145863354         0.742472887
     0.071502186         0.645863354         0.242472887
     0.071502186         0.645863354         0.742472887
     0.571502209         0.145863354         0.242472887
     0.571502209         0.145863354         0.742472887
     0.571502209         0.645863354         0.242472887
     0.571502209         0.645863354         0.742472887
     0.246279955         0.085996859         0.056982391
     0.246279955         0.085996859         0.556982398
     0.246279955         0.585996866         0.056982391
     0.246279955         0.585996866         0.556982398
     0.746279955         0.085996859         0.056982391
     0.746279955         0.085996859         0.556982398
     0.746279955         0.585996866         0.056982391
     0.746279955         0.585996866         0.556982398
     0.503762126         0.442996919         0.414022505
     0.503762126         0.442996919         0.914022505
     0.503762126         0.942996919         0.414022505
     0.503762126         0.942996919         0.914022505
     0.003762126         0.442996919         0.414022505
     0.003762126         0.442996919         0.914022505
     0.003762126         0.942996919         0.414022505
     0.003762126         0.942996919         0.914022505
     0.253655761         0.413959265         0.443027198
     0.253655761         0.413959265         0.943027198
     0.253655761         0.913959265         0.443027198
     0.253655761         0.913959265         0.943027198
     0.753655791         0.413959265         0.443027198
     0.753655791         0.413959265         0.943027198
     0.753655791         0.913959265         0.443027198
     0.753655791         0.913959265         0.943027198
     0.996329725         0.056954525         0.086013705
     0.996329725         0.056954525         0.586013675
     0.996329725         0.556954503         0.086013705
     0.996329725         0.556954503         0.586013675
     0.496329725         0.056954525         0.086013705
     0.496329725         0.056954525         0.586013675
     0.496329725         0.556954503         0.086013705
     0.496329725         0.556954503         0.586013675
     0.324411213         0.061693858         0.303792030
     0.324411213         0.061693858         0.803792000
     0.324411213         0.561693847         0.303792030
     0.324411213         0.561693847         0.803792000
     0.824411213         0.061693858         0.303792030
     0.824411213         0.061693858         0.803792000
     0.824411213         0.561693847         0.303792030
     0.824411213         0.561693847         0.803792000
     0.425583094         0.196212396         0.438279420
     0.425583094         0.196212396         0.938279390
     0.425583094         0.696212411         0.438279420
     0.425583094         0.696212411         0.938279390
     0.925583124         0.196212396         0.438279420
     0.925583124         0.196212396         0.938279390
     0.925583124         0.696212411         0.438279420
     0.925583124         0.696212411         0.938279390
     0.175598845         0.438246548         0.196215421
     0.175598845         0.438246548         0.696215391
     0.175598845         0.938246548         0.196215421
     0.175598845         0.938246548         0.696215391
     0.675598860         0.438246548         0.196215421
     0.675598860         0.438246548         0.696215391
     0.675598860         0.938246548         0.196215421
     0.675598860         0.938246548         0.696215391
     0.074394457         0.303781033         0.061735578
     0.074394457         0.303781033         0.561735570
     0.074394457         0.803781033         0.061735578
     0.074394457         0.803781033         0.561735570
     0.574394464         0.303781033         0.061735578
     0.574394464         0.303781033         0.561735570
     0.574394464         0.803781033         0.061735578
     0.574394464         0.803781033         0.561735570
