Ca V  Fe P  O 
 1.0000000000000000
     2.7080910000000000    0.0487610000000000    6.7127720000000002
     0.0487960000000000    8.1383820000000000    0.0058519999999990
    -7.0832750000000004   -0.0258420000000000    6.5677649999999996
 Ca  V   Fe  P   O  
   2   2   2   8  28
Cartesian
 -0.5851735252561563  7.6236115483878963  4.9697852435831882
 -2.7727175909585235  7.6350488364090685 11.6100531220716565
 -2.7182888270191814  4.0909924476462285 11.5538387546987646
 -0.5307005506360931  4.0795308613865080  4.9135603591337214
 -1.7307573065948418  0.0809832546313425  1.7512323726537289
 -3.9183529481000536  0.0924452662967270  8.3915132460906534
  0.7831979040658563  1.7162047259232460  3.2574179787401851
 -1.4043505147554727  1.7276242225773595  9.8976605357040661
 -6.2730206250864846  6.2517181384070559  7.4032441970041170
 -1.3773838314669555  6.2890252737932322  7.4757549081061141
  1.8511265982620591  2.2206907111649676  5.9739349168258071
 -3.0445461546679824  2.1833835519526597  5.9014452601139853
 -5.1753863092940664  5.6598788093593182 10.0113704229862019
 -2.9877826486352097  5.6483854021553288  3.3710681207652753
 -1.5932632938627946  2.4210863853236906  5.4919262531539976
 -3.7808528532211954  2.4325399162761969 12.1321761250463105
 -1.3208362566980341  5.5460087629137718  6.1476355243070797
 -6.2164511259294395  5.5087103531149086  6.0751608765252971
 -0.2667568482600064  0.6067519889820768  3.0254304276413624
 -2.4543447155445177  0.6182203668612498  9.6657038938040856
  0.2258617167215274  3.1141287753855313  3.3177815392731045
 -1.9617371211398029  3.1256288169750239  9.9580440768658729
  0.6050864853498426  5.7452055380063198  4.2713259794339686
 -1.5824858574606719  5.7566330821262621 10.9115677538193570
  0.9831750732997245  3.4657994403010624  6.0762979029627822
 -3.9125177896453338  3.4285023745807250  6.0038154426583095
  1.1918493838758710  1.2576944913789201  4.7964989560763938
 -3.7038357027741751  1.2204061197891651  4.7240010328404844
 -5.5716225207720376  5.3237447811729224  8.4875879330070205
 -0.6759445910227647  5.3610128404530553  8.5600584132903688
 -5.3789752872269938  7.5180076194686123  7.2328059930808957
 -0.4832878818097825  7.5552861069047141  7.3052986418899932
 -5.0800236255191784  1.5733488824524453  8.9477483108496685
 -0.1843570379774234  1.6106445636890856  9.0202772968577278
 -4.5144365860094018  7.0627208961735466 10.0404366233224778
 -2.3268266284228858  7.0512225098818027  3.4001316900239478
 -4.2489609783759157  4.5385177081756343 10.3782869382768048
 -2.0613616542853164  4.5270229627063134  3.7379663688276721
 -3.0880528171462753  1.2259911205577625  7.0734897894285993
  1.8076235760562032  1.2633005576342755  7.1459952045709372
 -2.7956562168467767  6.6149150935231855  7.8865563903291900
 -0.6080819536683254  6.6034524910966548  1.2462521291554145
