Ca Ti O 
 1.0000000000000000
    12.4370679855000006    0.0000000000000000    0.0000000000000000
    -1.0659715856000000   13.9755822961000007    0.0000000000000000
    -0.5859648079000001   -2.0967458091000002   10.1808118850000007
 Ca  Ti  O  
  11  48  96
Selective dynamics
Cartesian
  8.3511724280758202  9.8348142093371980  5.2904419773689240   T   T   T
 -0.0663266986725473  2.8665540573956467  0.6885113731759829   T   T   T
 -0.6179828537357882  9.8374259441326988  0.7079744208264002   T   T   T
  6.1487573824157264  2.8137434009476192  0.6863122287644386   T   T   T
  5.6220366741070187  9.8563169260788150  0.6326985095248379   T   T   T
  3.9146176111634561  2.5412761620387361  7.1276356421467879   T   T   T
  3.3195461294909299  9.4919020774347729  7.1431266825123325   T   T   T
 10.1365245006508804  2.5455797064055301  7.1476765702411225   T   T   T
  2.1714715190631844  3.1213124584796463  4.1356633035503423   T   T   T
  1.7321589123740480 10.1097341648666657  4.2633939317792979   T   T   T
  8.3758382336112849  3.0055137002370897  4.1189913128754965   T   T   T
 -0.9504897620420617  4.6581015609611436 10.1279971443906600   T   T   T
 -1.5752978616806339 11.6795569413293361 10.2210010596834948   T   T   T
  5.2206643252928062  4.7070320820307936 10.1035780543608880   T   T   T
  4.7119564928458484 11.6566885165606386 10.1102740806625579   T   T   T
  0.3556242087822541 13.4506528771357363  2.5499212341142932   T   T   T
  0.8713651440861820  6.4833570694102214  2.6033529454743878   T   T   T
  6.6323711771166902 13.4454483947830354  2.5120230922147342   T   T   T
  7.1000726237621992  6.4712226619012316  2.5569958481210122   T   T   T
  4.1201750222327505 -1.3885611972551613  7.6718977190511985   T   T   T
  3.7084775106357362  5.6302302796236194  7.7097272405131836   T   T   T
 10.4067586737291666 -1.4955652632667136  7.6433189440111562   T   T   T
  9.8187708942573941  5.6262168670894068  7.7607724953218638   T   T   T
  2.7745872843348818 -0.8687041559833003  5.1456165373218896   T   T   T
  2.2241049891417175  6.1083634601806489  5.1195450794130366   T   T   T
  8.9854764843778732 -0.9175987020980118  5.0803071414481646   T   T   T
  8.4432520599426546  6.0208191203343517  5.0723992511397000   T   T   T
  0.9582065505793815  0.4029845036297925  8.0475255210705043   T   T   T
  0.4949351903360831  7.3489080502925228  8.0895427108114912   T   T   T
  7.2216220586178688  0.4200833899379753  8.0443219702667577   T   T   T
  6.8518240126632657  7.5735273362466602  7.9613020007745554   T   T   T
 -0.3846234016410604  0.8567379471892601  5.4916020811288471   T   T   T
 -0.9456084571156294  7.8067738254720318  5.5255435813725988   T   T   T
  5.8835954028010518  0.8846968953208600  5.4920384396655049   T   T   T
  5.3236280317023841  7.9176075441470610  5.4261739066003267   T   T   T
  4.5223773843128630  1.4340416027816418  3.0291655585452677   T   T   T
  3.9762873295735797  8.4125588236333986  2.9985860418038808   T   T   T
 10.7721862785873377  1.4362953643707081  3.0300999339676458   T   T   T
 10.1591284353937539  8.3756613264615183  2.9765835202469697   T   T   T
  3.0973030899537046  1.9202908690028417  0.4508169909370591   T   T   T
  2.5540027179267946  8.9234070849488614  0.4663791963029835   T   T   T
  9.3336212896302957  1.9257964946349888  0.3874706846084578   T   T   T
  8.7390140081327559  8.9486771314981457  0.5562321558563683   T   T   T
  2.1709220623410692  2.8851919294777488  9.8230075988673082   T   T   T
  1.5944200114952118  9.8940864340840342  9.8000842985720826   T   T   T
  8.3690962982459176  2.8928725874889407  9.8228032322732215   T   T   T
  7.9581948295541292  9.8737328077637851  9.7099665311357324   T   T   T
  0.7120471555639394  3.4729367168566880  7.1855270424251820   T   T   T
 -0.3655589223445812 10.1229629675601895  7.3678220867950781   T   T   T
  6.8941845971871309  3.4797622791513789  7.2247014092148403   T   T   T
  6.2717568062542224 10.5190547050977283  7.2644097435273789   T   T   T
  4.0560806322362257  4.5662572965652481  2.0436008020112637   T   T   T
  3.5011302649169700 11.5408252234762205  2.0606886783460512   T   T   T
 10.2551710811486689  4.5357431901795344  2.0589042398987769   T   T   T
  9.6141385673365445 11.4846869499324598  2.1938099825419615   T   T   T
  5.3420966149491695  4.0362375964451012  4.6306618870049778   T   T   T
  4.9679203789110931 10.9939646815653216  4.5447231316532113   T   T   T
 11.5812386879068026  4.0136254898017096  4.6565110048950880   T   T   T
 11.1739122476501223 10.9746142875032024  4.6200738072319405   T   T   T
 -0.4822778638799357 -0.7632361199721432  8.7775832586350990   T   T   T
 -1.0044628770614241  6.2139486565291850  8.7968178099810448   T   T   T
  5.7489883386374059 -0.7677805942115249  8.7683499026416669   T   T   T
  5.1900264820265880  6.2700279237248928  8.7679279578581024   T   T   T
  2.9120639999151376  0.3677648033485835  3.5956041246690686   T   T   T
  2.3584063883068533  7.3794883987191877  3.6055137540866049   T   T   T
  9.1311567746019762  0.3842647664145714  3.5673565010904800   T   T   T
  8.6169406267077999  7.3030901415501228  3.6119835615537612   T   T   T
  4.3322814826201332 -0.0949850501873422  6.1706503442455158   T   T   T
  3.7982537789657806  6.8632255741784487  6.1784745335207436   T   T   T
 10.5211947943628541 -0.1602921154653906  6.1773529042865460   T   T   T
 10.0286136466035192  6.6630745070667805  6.1103402516166181   T   T   T
  1.4716886604483710  0.8509350489179679  1.0261280366905305   T   T   T
  0.9277184295309578  7.8213892712977877  1.0124137284771557   T   T   T
  7.6984139184362599  0.8413678796712002  0.9786827244660929   T   T   T
  7.1447098574415016  7.8620202728865944  1.0028947645821109   T   T   T
  1.3114246582274274 -0.0543730671833756  6.1599956413109194   T   T   T
  0.7693019528456775  6.9836660886261610  6.1719526513661327   T   T   T
  7.5104121370195918  0.0276521596829891  6.1205533548845334   T   T   T
  7.0484286207398874  7.0281525500999544  6.0897451330853922   T   T   T
  2.7226865538260907 -0.5659590218782204  8.6359679699501761   T   T   T
  2.1846637966885063  6.4578887495529900  8.6304383070027733   T   T   T
  8.9472945334030918 -0.5295821723796558  8.6515993898326986   T   T   T
  8.4253105152844139  6.4479690837276893  8.6739242153414384   T   T   T
 -0.0716024149315766  0.4595469423564436  3.6070102203144052   T   T   T
 -0.6133142926497487  7.4285341499079243  3.6058491144757143   T   T   T
  6.1414093723841514  0.5220697558217522  3.5864198169747379   T   T   T
  5.5758288692048650  7.4240972880441998  3.5823233815497169   T   T   T
  4.7310590583067258  1.0149429072511047  1.0455674444090191   T   T   T
  4.2045238293820750  8.0237764144899852  1.0264433663760753   T   T   T
 10.9851638130178095  1.0442034237484172  1.0578569487818152   T   T   T
 10.3993495308270898  8.0181816782856021  1.0413242384624131   T   T   T
  1.2075187826387233  1.1413185186019359  9.9104882063253772   T   T   T
  0.6463194615592800  8.1366201877436062  9.9224445083315000   T   T   T
  7.4135310417389579  1.1625484313618062  9.9227790406855583   T   T   T
  6.9129905499109512  8.1615349990126553  9.8459380201767122   T   T   T
 -0.3758924687959186  1.6138294255574008  7.4981971970317556   T   T   T
 -1.1725554211588012  8.5143679667108572  7.5371786916869228   T   T   T
  5.8445891930556106  1.6367977842374675  7.5156586642339089   T   T   T
  5.3524713052848014  8.6835211493331332  7.4825034748329742   T   T   T
  3.0768459801745962  2.7561937928055920  2.1992054883125722   T   T   T
  2.4979296664554935  9.7520162135939064  2.2339497100055987   T   T   T
  9.3130404047596933  2.7453071264114639  2.1871225579643458   T   T   T
  8.6859978804354938  9.7212763343774000  2.3787319693592113   T   T   T
  4.2630734857052799  2.3139025770447161  4.8751135336849325   T   T   T
  3.7947971400733187  9.2577455967178146  4.8918021326010894   T   T   T
 10.4965983708739401  2.2757483380398358  4.8958122113454081   T   T   T
 10.2431949726199587  9.0925821509810039  4.8217452122424378   T   T   T
  1.9678300859102618  2.1616190447200738  7.8748164440498423   T   T   T
  1.3034488180037889  9.1973723401737839  7.8581579566171600   T   T   T
  8.1828130757082338  2.1761336034634549  7.8796258694235322   T   T   T
  7.8485367814646807  9.2134536535853684  7.7260457471591311   T   T   T
  0.5163821427526798  2.6352728300910973  5.4073467966659345   T   T   T
  0.0279767701385657  9.6743079777037835  5.5278778512234741   T   T   T
  6.7045582535680515  2.6755728516564727  5.4205652654969780   T   T   T
  6.2309557382594214  9.6745736421596238  5.3195223196351860   T   T   T
  5.5427459928709411  3.1857990157193372  2.8203495867534385   T   T   T
  4.9700068715846060 10.1706746438036681  2.7671583967649229   T   T   T
 11.7901830827127743  3.1740663632785324  2.8403284507634137   T   T   T
 11.2105212907530731 10.1834676182301678  2.8293455768555793   T   T   T
  4.1824867189032107  3.7346076963543058  0.1356842786392523   T   T   T
  3.6100654564519501 10.7356121156062727  0.1405064041541184   T   T   T
 10.3939288779690422  3.7478244802788261  0.1302270691260188   T   T   T
  9.8235413662440756 10.7179870001609210  0.2723629891369426   T   T   T
  0.4235863743470082  3.8255767681951287  9.1467926373725223   T   T   T
 -0.1943124102393427 10.7782954653017384  9.2298868060077748   T   T   T
  6.6371938936137740  3.8643738284569253  9.1433475703950489   T   T   T
  6.1555758713428608 10.7962278070353417  9.1660396455114359   T   T   T
  5.1979934794722613  4.4175137256718324  6.6232071578243037   T   T   T
  4.7097353181213144 11.3649142036834920  6.6001765485707571   T   T   T
 11.4594697145494777  4.3711975443231186  6.6243221976836324   T   T   T
 10.7218728086265713 11.3338499892030011  6.5983252986621856   T   T   T
  3.7173046968837657  4.9296514363836783  4.0332917328232796   T   T   T
  3.2808615864529047 11.9030954638055348  3.9901132506560262   T   T   T
  9.9066341709460897  4.8452353665917283  4.0248248077770201   T   T   T
  9.4161289663351067 11.8235514740171084  4.1609935756741381   T   T   T
  2.4129325860613755  5.4787566583386544  1.4931363634611925   T   T   T
  1.8632819381338557 12.4693291653513167  1.4786253061921053   T   T   T
  8.6204838943597295  5.4817316124426796  1.4907530658791674   T   T   T
  8.1130872345852545 12.4485347178009143  1.4545876527550046   T   T   T
  2.2558773546526303  4.5287069166315890  6.5173871322212396   T   T   T
  1.9603570162952475 11.6022474497191723  6.4251230211798394   T   T   T
  8.4653917128383647  4.5225227595031763  6.5619946341288005   T   T   T
  7.7860398450463695 11.6546596899996757  6.5996541571965563   T   T   T
  3.6155588186618610  4.0671619472547587  9.0374704172118783   T   T   T
  3.0854115848018653 11.0266262323910880  9.0223100271768288   T   T   T
  9.8449989471365917  4.0643887709408544  9.0425363356558393   T   T   T
  9.2913037294531904 11.1171689731826664  9.1355694975163519   T   T   T
  0.8030966126407831  5.0983628898192057  4.1061764885704646   T   T   T
  0.3139124571775512 12.0600634472356134  4.1007032080106320   T   T   T
  7.0177828492405503  5.0672425837485369  4.0845344727621757   T   T   T
  6.4750526791187601 12.1412236403654479  4.0581039529946139   T   T   T
  5.6297332056788063  5.5894950096872513  1.4635690114431439   T   T   T
  5.0999909198122744 12.5688007929607899  1.4581664559855672   T   T   T
 11.8492137605566086  5.5648574216143185  1.4788413187763301   T   T   T
 11.2605745567193551 12.5727806187395892  1.5451562513652466   T   T   T
