Ca V  Cr P  O 
1.0
        9.9007396698         0.0000000000         0.0000000000
       -4.7942787047         8.6330294944         0.0000000000
        1.3373224482         2.2530522425         6.9529935258
   Ca    V   Cr    P    O
    3    2    2    8   28
Direct
     0.298163593         0.201855183         0.739165783
     0.049892858         0.453452289         0.253125221
     0.545333385         0.951186657         0.266433805
     0.762760460         0.755137682         0.268929869
     0.500640810         0.993808210         0.731584966
     0.261721790         0.251686692         0.266412556
     0.994791627         0.484373569         0.731304109
     0.351468891         0.540083587         0.484497249
     0.850234747         0.041391470         0.500351429
     0.662922561         0.436687559         0.111692436
     0.173885554         0.941735208         0.112373479
     0.309006184         0.582257569         0.880132794
     0.812452137         0.081762999         0.895747423
     0.205505803         0.892599940         0.515377998
     0.713502944         0.404263943         0.499657333
     0.188306555         0.108578131         0.087892838
     0.012131468         0.200575933         0.386145025
     0.186859474         0.030479850         0.552909613
     0.287307531         0.471801490         0.068605788
     0.492173254         0.286158264         0.186316431
     0.341240019         0.385787487         0.454780698
     0.211520031         0.555143058         0.450176656
     0.704400837         0.052966088         0.480473071
     0.553552508         0.244460270         0.614712536
     0.046522792         0.726757765         0.618491113
     0.647591650         0.068026423         0.921723962
     0.142958075         0.568428040         0.901904643
     0.331352949         0.494721085         0.716719866
     0.755360603         0.415084004         0.270544857
     0.252508909         0.915324032         0.282213718
     0.677008271         0.602231920         0.088437490
     0.514828622         0.699710250         0.380344272
     0.704985976         0.552195191         0.517784774
     0.864796817         0.412124753         0.534930646
     0.358006924         0.902558386         0.545193493
     0.959459126         0.254865229         0.830075145
     0.457195967         0.752386332         0.818085432
     0.289492071         0.962147892         0.929079354
     0.764914930         0.451507300         0.920877993
     0.798132837         0.972931981         0.080892175
     0.002321005         0.796730936         0.167748779
     0.841238022         0.889816284         0.465702385
     0.838194609         0.998116255         0.729864717
