Ca V  P  O                              
   1.00000000000000     
    11.1296310424999998    0.0000000000000000    0.0000000000000000
     2.8994549615000000   10.7443060018000001    0.0000000000000000
    -1.6016288384999999    2.0900824976000001   13.7540809288000005
   Ca   V    P    O 
    11    12    24    84
Selective dynamics
Direct
  0.3689632313746785  0.3614897197018578  0.6591920618312059   T   T   T
  0.3615120755224694  0.3689651343599252  0.0074758290354495   T   T   T
  0.3664626654673171  0.8640580147096983  0.6628539101136539   T   T   T
  0.3659786799099223  0.8667766664973087  0.0023519189756271   T   T   T
  0.3655495527410366  0.8669916082311957  0.3341535019270836   T   T   T
  0.8667875734593267  0.3659444409938502  0.6643022525683477   T   T   T
  0.8640174056072709  0.3664964770964900  0.0038086202652963   T   T   T
  0.8669699070120771  0.3655591617580853  0.3325093141319257   T   T   T
  0.8674395997579154  0.8652679523329283  0.6664784130719283   T   T   T
  0.8652275924883384  0.8674822682621723  0.0001607513794823   T   T   T
  0.8671648140992971  0.8671856303896064  0.3333207954024573   T   T   T
  0.0561964498176764  0.0531890463682601  0.9993864168267592   T   T   T
  0.0565456630513239  0.0565572947705704  0.3333497536763304   T   T   T
  0.0532091945056266  0.0561927614313618  0.6672865950554865   T   T   T
  0.0530012776881748  0.5534390975427925  0.0015139741827284   T   T   T
  0.0596557250509591  0.5516927936475184  0.3338727158206041   T   T   T
  0.0554800912436804  0.5531302362327324  0.6661604709834066   T   T   T
  0.5531146357665193  0.0554820444243020  0.0005094571390529   T   T   T
  0.5516883868007127  0.0596526924540299  0.3328104797673532   T   T   T
  0.5534510497340932  0.0530094590583161  0.6651493330116978   T   T   T
  0.5523503475801306  0.5528711511304607  0.0008885161241849   T   T   T
  0.5435895672170687  0.5435769507694204  0.3333453106267044   T   T   T
  0.5528547101813359  0.5523473808707209  0.6657715024732340   T   T   T
  0.3217727389541949  0.1143961580253077  0.1379246980069979   T   T   T
  0.3285924929840647  0.1123486718434847  0.4696423274094030   T   T   T
  0.3240385185524275  0.1117318085110455  0.8044380709046450   T   T   T
  0.3250798375774977  0.6108600885569615  0.1385597925450597   T   T   T
  0.3174572142690693  0.6169276917032533  0.4720532319658588   T   T   T
  0.3241131086368725  0.6097505756401489  0.8044590458342995   T   T   T
  0.8278961600548769  0.1145440281457226  0.1364472509889509   T   T   T
  0.8244034642352247  0.1123513517871828  0.4715254213722702   T   T   T
  0.8233154569478103  0.1120613123601757  0.8042480409802764   T   T   T
  0.8238576091983418  0.6131454936012233  0.1393896324851838   T   T   T
  0.8246079981324215  0.6107722092045478  0.4691456439995179   T   T   T
  0.8239939210610601  0.6112913178077335  0.8045960528706360   T   T   T
  0.1123400769874010  0.3285948279713793  0.1970487826883982   T   T   T
  0.1144035426535481  0.3217842180765302  0.5287508001198802   T   T   T
  0.1117490037043112  0.3240336792726239  0.8622092992614370   T   T   T
  0.1123530039101013  0.8244034678666807  0.1951659792596843   T   T   T
  0.1145449657139253  0.8278920244260348  0.5302287841504665   T   T   T
  0.1120506362288012  0.8233202700763087  0.8623884956844918   T   T   T
  0.6169405262038694  0.3174501091504851  0.1946089820728574   T   T   T
  0.6108739021419751  0.3250717537579391  0.5281172518967452   T   T   T
  0.6097454564807521  0.3241081770348160  0.8621938251416452   T   T   T
  0.6107741142877714  0.8245846780040935  0.1975316501571243   T   T   T
  0.6131334562056452  0.8238370700056024  0.5272850004339347   T   T   T
  0.6112764067217569  0.8240123908622223  0.8620500387111747   T   T   T
  0.3943948762823126  0.0371345998199857  0.2353650734007928   T   T   T
  0.3977654552600001  0.0324258623082940  0.5687456401538711   T   T   T
  0.3961590380149644  0.0342335330081482  0.9019530204516713   T   T   T
  0.3982764391728466  0.5356466598700109  0.2338141845408970   T   T   T
  0.3938643860505380  0.5359779933267248  0.5673028411787158   T   T   T
  0.3955106338239531  0.5324210409233103  0.9021708909402548   T   T   T
  0.8961074959577857  0.0388892216176231  0.2356175892783696   T   T   T
  0.8970403684359880  0.0341464599068360  0.5688764601995189   T   T   T
  0.8964930126943287  0.0347826012955181  0.9014967411350057   T   T   T
  0.8972091269898215  0.5358957736920047  0.2363579707635139   T   T   T
  0.8967611072395130  0.5356744286395596  0.5674506270962638   T   T   T
  0.8950149681419362  0.5342137111716525  0.9025042922980475   T   T   T
  0.1547703793479087  0.4174024493581570  0.2589142717268729   T   T   T
  0.1594743481474126  0.4084294708291552  0.5949461871399251   T   T   T
  0.1582008064991030  0.4110547342943605  0.9269566096984505   T   T   T
  0.1588494222375871  0.9115476627016150  0.2600042392853936   T   T   T
  0.1562006871831514  0.9173833353203946  0.5952338495310343   T   T   T
  0.1603689600812004  0.9094698240275605  0.9270308701168943   T   T   T
  0.6583784850699885  0.4032544964204732  0.2633646926393283   T   T   T
  0.6599556149053214  0.4087112411377660  0.5962025777300113   T   T   T
  0.6581653573507111  0.4108562655889401  0.9263142469278591   T   T   T
  0.6576147533931831  0.9113070953416909  0.2627547145460341   T   T   T
  0.6609859326229426  0.9088908618705602  0.5933641594692958   T   T   T
  0.6584036644319085  0.9110686261283973  0.9266282213900112   T   T   T
  0.0459593767222088  0.2406403938037229  0.2497736144125255   T   T   T
  0.0441877242099338  0.2392130380503374  0.5823964688992831   T   T   T
  0.0454305018132075  0.2385335812311737  0.9159049377684525   T   T   T
  0.0446447293534291  0.7400634481185620  0.2488464288446295   T   T   T
  0.0484844186510074  0.7409549722860262  0.5829973160544100   T   T   T
  0.0439747899179537  0.7397228182479481  0.9163307399053764   T   T   T
  0.5687233485832905  0.2138919368316721  0.2408600570261186   T   T   T
  0.5469748080195629  0.2381952116501935  0.5837940371169168   T   T   T
  0.5441925699307788  0.2389369840969806  0.9167859718957629   T   T   T
  0.5436422366686315  0.7392497947248700  0.2501878528187760   T   T   T
  0.5467817060103286  0.7378344099367027  0.5805183359113002   T   T   T
  0.5452965883044882  0.7388055504110156  0.9163882802903345   T   T   T
  0.0324111808107759  0.3977606153294815  0.0979403480164578   T   T   T
  0.0371371914503342  0.3943789042730685  0.4313092187253815   T   T   T
  0.0342657379026150  0.3961428150732331  0.7646923143243995   T   T   T
  0.0341610767804212  0.8970177316826096  0.0978017407179692   T   T   T
  0.0388596259351246  0.8961278413289691  0.4310723068866693   T   T   T
  0.0347968079847050  0.8965195480729662  0.7651357281538793   T   T   T
  0.5359975480254420  0.3938395215763038  0.0993653153666259   T   T   T
  0.5356836170991812  0.3982188958373740  0.4328420817753198   T   T   T
  0.5323969837151665  0.3954979790950333  0.7644771096273644   T   T   T
  0.5356938097427602  0.8967440931373432  0.0992207386054176   T   T   T
  0.5358947781713397  0.8971975201638571  0.4303178665013405   T   T   T
  0.5341933880201140  0.8950244621056811  0.7641410934051365   T   T   T
  0.2395597011168107  0.2461613740092830  0.1623283350957578   T   T   T
  0.2461807084703622  0.2395868476150724  0.5043631902703183   T   T   T
  0.2431438860443649  0.2431257392084660  0.8333294870106087   T   T   T
  0.2427810573389806  0.7448117042238209  0.1654753107667304   T   T   T
  0.2527583717047364  0.7524337884746828  0.5085401969844128   T   T   T
  0.2425536392094330  0.7414170544857939  0.8334185006424448   T   T   T
  0.7524415759556859  0.2527729384852222  0.1581163542507582   T   T   T
  0.7448334544544579  0.2427737826520158  0.5012475417010904   T   T   T
  0.7414148936955485  0.2425674078531586  0.8332286741430224   T   T   T
  0.7437759655795801  0.7444463405106987  0.1694375272590207   T   T   T
  0.7444408877995983  0.7437532380125091  0.4972688881708081   T   T   T
  0.7434450657356493  0.7434722633757218  0.8333186466317883   T   T   T
  0.2392125643440082  0.0441619780257554  0.0842878895366397   T   T   T
  0.2406335333531047  0.0459462467843608  0.4169474992562954   T   T   T
  0.2385350806870434  0.0454264332698244  0.7507175942344659   T   T   T
  0.2381975504293905  0.5469636356574767  0.0828788860823906   T   T   T
  0.2139163168186329  0.5687053500596662  0.4258054970114742   T   T   T
  0.2389730245854338  0.5441590460599173  0.7498782446826695   T   T   T
  0.7409825033647195  0.0484648438754078  0.0836605950545248   T   T   T
  0.7400509393421970  0.0446461564950127  0.4178381123739712   T   T   T
  0.7397089322974537  0.0439882220656145  0.7502986044022464   T   T   T
  0.7378582680496848  0.5467890781347151  0.0861549174162732   T   T   T
  0.7393008113916153  0.5436132529779556  0.4164736671666773   T   T   T
  0.7388009659525991  0.5452843189661607  0.7502583147460982   T   T   T
  0.4083931481958771  0.1594806058983096  0.0717320016598464   T   T   T
  0.4173946066983021  0.1547523987494301  0.4077661764740341   T   T   T
  0.4110577656282501  0.1581892048876128  0.7397038977513901   T   T   T
  0.4086835242460864  0.6599902593977873  0.0704782304837792   T   T   T
  0.4032566004609848  0.6583642286370335  0.4032956356676181   T   T   T
  0.4108512640130755  0.6581746677992157  0.7403396138845366   T   T   T
  0.9173948193476917  0.1561833854384886  0.0714490799322860   T   T   T
  0.9115166279148781  0.1588742674383354  0.4066953021251081   T   T   T
  0.9094583082597723  0.1603616642870378  0.7396097945507023   T   T   T
  0.9088874635119382  0.6610095705356258  0.0732967078786615   T   T   T
  0.9113114276113663  0.6576396468201011  0.4039439540683674   T   T   T
  0.9110236433128236  0.6584258004437160  0.7400128476144090   T   T   T
 
  0.00000000E+00  0.00000000E+00  0.00000000E+00
  0.00000000E+00  0.00000000E+00  0.00000000E+00
  0.00000000E+00  0.00000000E+00  0.00000000E+00
  0.00000000E+00  0.00000000E+00  0.00000000E+00
  0.00000000E+00  0.00000000E+00  0.00000000E+00
  0.00000000E+00  0.00000000E+00  0.00000000E+00
  0.00000000E+00  0.00000000E+00  0.00000000E+00
  0.00000000E+00  0.00000000E+00  0.00000000E+00
  0.00000000E+00  0.00000000E+00  0.00000000E+00
  0.00000000E+00  0.00000000E+00  0.00000000E+00
  0.00000000E+00  0.00000000E+00  0.00000000E+00
  0.00000000E+00  0.00000000E+00  0.00000000E+00
  0.00000000E+00  0.00000000E+00  0.00000000E+00
  0.00000000E+00  0.00000000E+00  0.00000000E+00
  0.00000000E+00  0.00000000E+00  0.00000000E+00
  0.00000000E+00  0.00000000E+00  0.00000000E+00
  0.00000000E+00  0.00000000E+00  0.00000000E+00
  0.00000000E+00  0.00000000E+00  0.00000000E+00
  0.00000000E+00  0.00000000E+00  0.00000000E+00
  0.00000000E+00  0.00000000E+00  0.00000000E+00
  0.00000000E+00  0.00000000E+00  0.00000000E+00
  0.00000000E+00  0.00000000E+00  0.00000000E+00
  0.00000000E+00  0.00000000E+00  0.00000000E+00
  0.00000000E+00  0.00000000E+00  0.00000000E+00
  0.00000000E+00  0.00000000E+00  0.00000000E+00
  0.00000000E+00  0.00000000E+00  0.00000000E+00
  0.00000000E+00  0.00000000E+00  0.00000000E+00
  0.00000000E+00  0.00000000E+00  0.00000000E+00
  0.00000000E+00  0.00000000E+00  0.00000000E+00
  0.00000000E+00  0.00000000E+00  0.00000000E+00
  0.00000000E+00  0.00000000E+00  0.00000000E+00
  0.00000000E+00  0.00000000E+00  0.00000000E+00
  0.00000000E+00  0.00000000E+00  0.00000000E+00
  0.00000000E+00  0.00000000E+00  0.00000000E+00
  0.00000000E+00  0.00000000E+00  0.00000000E+00
  0.00000000E+00  0.00000000E+00  0.00000000E+00
  0.00000000E+00  0.00000000E+00  0.00000000E+00
  0.00000000E+00  0.00000000E+00  0.00000000E+00
  0.00000000E+00  0.00000000E+00  0.00000000E+00
  0.00000000E+00  0.00000000E+00  0.00000000E+00
  0.00000000E+00  0.00000000E+00  0.00000000E+00
  0.00000000E+00  0.00000000E+00  0.00000000E+00
  0.00000000E+00  0.00000000E+00  0.00000000E+00
  0.00000000E+00  0.00000000E+00  0.00000000E+00
  0.00000000E+00  0.00000000E+00  0.00000000E+00
  0.00000000E+00  0.00000000E+00  0.00000000E+00
  0.00000000E+00  0.00000000E+00  0.00000000E+00
  0.00000000E+00  0.00000000E+00  0.00000000E+00
  0.00000000E+00  0.00000000E+00  0.00000000E+00
  0.00000000E+00  0.00000000E+00  0.00000000E+00
  0.00000000E+00  0.00000000E+00  0.00000000E+00
  0.00000000E+00  0.00000000E+00  0.00000000E+00
  0.00000000E+00  0.00000000E+00  0.00000000E+00
  0.00000000E+00  0.00000000E+00  0.00000000E+00
  0.00000000E+00  0.00000000E+00  0.00000000E+00
  0.00000000E+00  0.00000000E+00  0.00000000E+00
  0.00000000E+00  0.00000000E+00  0.00000000E+00
  0.00000000E+00  0.00000000E+00  0.00000000E+00
  0.00000000E+00  0.00000000E+00  0.00000000E+00
  0.00000000E+00  0.00000000E+00  0.00000000E+00
  0.00000000E+00  0.00000000E+00  0.00000000E+00
  0.00000000E+00  0.00000000E+00  0.00000000E+00
  0.00000000E+00  0.00000000E+00  0.00000000E+00
  0.00000000E+00  0.00000000E+00  0.00000000E+00
  0.00000000E+00  0.00000000E+00  0.00000000E+00
  0.00000000E+00  0.00000000E+00  0.00000000E+00
  0.00000000E+00  0.00000000E+00  0.00000000E+00
  0.00000000E+00  0.00000000E+00  0.00000000E+00
  0.00000000E+00  0.00000000E+00  0.00000000E+00
  0.00000000E+00  0.00000000E+00  0.00000000E+00
  0.00000000E+00  0.00000000E+00  0.00000000E+00
  0.00000000E+00  0.00000000E+00  0.00000000E+00
  0.00000000E+00  0.00000000E+00  0.00000000E+00
  0.00000000E+00  0.00000000E+00  0.00000000E+00
  0.00000000E+00  0.00000000E+00  0.00000000E+00
  0.00000000E+00  0.00000000E+00  0.00000000E+00
  0.00000000E+00  0.00000000E+00  0.00000000E+00
  0.00000000E+00  0.00000000E+00  0.00000000E+00
  0.00000000E+00  0.00000000E+00  0.00000000E+00
  0.00000000E+00  0.00000000E+00  0.00000000E+00
  0.00000000E+00  0.00000000E+00  0.00000000E+00
  0.00000000E+00  0.00000000E+00  0.00000000E+00
  0.00000000E+00  0.00000000E+00  0.00000000E+00
  0.00000000E+00  0.00000000E+00  0.00000000E+00
  0.00000000E+00  0.00000000E+00  0.00000000E+00
  0.00000000E+00  0.00000000E+00  0.00000000E+00
  0.00000000E+00  0.00000000E+00  0.00000000E+00
  0.00000000E+00  0.00000000E+00  0.00000000E+00
  0.00000000E+00  0.00000000E+00  0.00000000E+00
  0.00000000E+00  0.00000000E+00  0.00000000E+00
  0.00000000E+00  0.00000000E+00  0.00000000E+00
  0.00000000E+00  0.00000000E+00  0.00000000E+00
  0.00000000E+00  0.00000000E+00  0.00000000E+00
  0.00000000E+00  0.00000000E+00  0.00000000E+00
  0.00000000E+00  0.00000000E+00  0.00000000E+00
  0.00000000E+00  0.00000000E+00  0.00000000E+00
  0.00000000E+00  0.00000000E+00  0.00000000E+00
  0.00000000E+00  0.00000000E+00  0.00000000E+00
  0.00000000E+00  0.00000000E+00  0.00000000E+00
  0.00000000E+00  0.00000000E+00  0.00000000E+00
  0.00000000E+00  0.00000000E+00  0.00000000E+00
  0.00000000E+00  0.00000000E+00  0.00000000E+00
  0.00000000E+00  0.00000000E+00  0.00000000E+00
  0.00000000E+00  0.00000000E+00  0.00000000E+00
  0.00000000E+00  0.00000000E+00  0.00000000E+00
  0.00000000E+00  0.00000000E+00  0.00000000E+00
  0.00000000E+00  0.00000000E+00  0.00000000E+00
  0.00000000E+00  0.00000000E+00  0.00000000E+00
  0.00000000E+00  0.00000000E+00  0.00000000E+00
  0.00000000E+00  0.00000000E+00  0.00000000E+00
  0.00000000E+00  0.00000000E+00  0.00000000E+00
  0.00000000E+00  0.00000000E+00  0.00000000E+00
  0.00000000E+00  0.00000000E+00  0.00000000E+00
  0.00000000E+00  0.00000000E+00  0.00000000E+00
  0.00000000E+00  0.00000000E+00  0.00000000E+00
  0.00000000E+00  0.00000000E+00  0.00000000E+00
  0.00000000E+00  0.00000000E+00  0.00000000E+00
  0.00000000E+00  0.00000000E+00  0.00000000E+00
  0.00000000E+00  0.00000000E+00  0.00000000E+00
  0.00000000E+00  0.00000000E+00  0.00000000E+00
  0.00000000E+00  0.00000000E+00  0.00000000E+00
  0.00000000E+00  0.00000000E+00  0.00000000E+00
  0.00000000E+00  0.00000000E+00  0.00000000E+00
  0.00000000E+00  0.00000000E+00  0.00000000E+00
  0.00000000E+00  0.00000000E+00  0.00000000E+00
  0.00000000E+00  0.00000000E+00  0.00000000E+00
  0.00000000E+00  0.00000000E+00  0.00000000E+00
  0.00000000E+00  0.00000000E+00  0.00000000E+00
  0.00000000E+00  0.00000000E+00  0.00000000E+00
  0.00000000E+00  0.00000000E+00  0.00000000E+00
  0.00000000E+00  0.00000000E+00  0.00000000E+00
