Ca V  O                                 
   1.00000000000000     
    11.0808181762999993    0.0000000000000000    0.0000000000000000
    -1.8468029563999999    7.7866447772000003    0.0000000000000000
     0.0000000000000000   -3.0461372258999999    9.8078967616000003
   Ca   V    O 
     5    18    45
Direct
  0.5339517007913093  0.1294780451015804  0.3311637099342284
  0.0248685524331087  0.0053779404723784  0.3704727226903917
  0.1402793673009934  0.8429634045570913  0.6774409630235685
  0.4869413251336711  0.8789420548737784  0.6596098141953485
  0.8155045309153744  0.9170325585227467  0.6430604724472853
  0.0541674843515622  0.2549895152584374  0.1151593516003066
  0.3796869924096857  0.2444522689983595  0.1077319444514543
  0.7238380629474108  0.2456614585930592  0.1048975412357383
  0.3063295509911840  0.7815751245039211  0.9059101767145994
  0.6417373309417650  0.7823488924113174  0.9007782841177200
  0.9674059430557861  0.7954257637249534  0.9097533961539844
  0.1241398432756211  0.6772966929303414  0.0939064332055336
  0.4528009241979056  0.6594385761538301  0.0917412431245632
  0.7885650016777629  0.6755332212268675  0.1081988280031408
  0.2318050062438762  0.3388972521014764  0.8930524610507385
  0.5708834349311254  0.3488270127305490  0.9098471140475534
  0.9053012258173713  0.3613332350564554  0.9051484688804868
  0.0993283060533253  0.5560002883722953  0.3948344364282325
  0.4402302411618271  0.5488687297606439  0.3936723366224577
  0.7724252340234290  0.5185769146968752  0.3927149101961976
  0.2488462047032717  0.4348911824040306  0.5888285233632039
  0.5810764746711481  0.4260434633612316  0.6027805550591485
  0.9156401454099172  0.3929554536917016  0.5833343124972606
  0.0074767860662211  0.0163473748993582  0.0129053148258166
  0.3450772654766525  0.0067127483885416  0.0055577883300759
  0.6804940235428317  0.0101868749589805  0.0021179390446374
  0.2808786660718239  0.6347107866205970  0.0361727759837475
  0.6166739654516614  0.6389282833408061  0.0510755742356197
  0.9495246145977611  0.6392059818992635  0.0423592039546872
  0.0758196567985391  0.3879888389430991  0.9520386710666964
  0.4050701451151243  0.3757806124112211  0.9510753837407626
  0.7434612003124460  0.3879277763515828  0.9592313932083195
  0.2202860693486154  0.2687568947968631  0.0681755831910475
  0.5552909172458290  0.2708697465794320  0.0782982219819117
  0.8933608988216617  0.2819810009982043  0.0809788787012501
  0.1293185820540545  0.7563712322986088  0.9164745862477710
  0.4686749373676624  0.7378155419390794  0.9245040543703420
  0.7977461200338303  0.7455490303098453  0.9375752044046584
  0.1497420382710667  0.8740714854084780  0.2095634317482771
  0.4763839877402231  0.8547061018070259  0.2077168387065536
  0.8368066404691926  0.8700555078757133  0.2253738169535198
  0.1950900871279360  0.1368810999461065  0.7835768896657888
  0.5467318849128346  0.1486922391512614  0.7996250597283071
  0.8677226740350760  0.1513269165179617  0.8128868062550098
  0.1016035515360142  0.5311293199005440  0.2107166530922531
  0.4268384675166291  0.5177660294304055  0.2077392394664972
  0.7629481320388284  0.5196548412847717  0.2119571883637935
  0.2558177658600566  0.4705638113978084  0.7726174334303952
  0.5938916557612192  0.4853457408126209  0.7862236535929650
  0.9217377925377283  0.4692869710491890  0.7706421093942738
  0.0608056967965573  0.2393786434798153  0.2744985913349589
  0.3767739735968085  0.2343170345701293  0.2704458877132626
  0.7218484853997608  0.2304394236182788  0.2683142970431956
  0.3109413714255680  0.7865146417232293  0.7351505177282761
  0.6471152721854481  0.7935737990609011  0.7320816788747969
  0.9510279925720088  0.8125252822482950  0.7475222610102807
  0.0925503865809195  0.5076477894660664  0.5786259395537792
  0.4293006183389272  0.5006243889299752  0.5751646394389665
  0.7559499357462531  0.4460533679718511  0.5647093333183950
  0.2661688068148617  0.5370311420003249  0.4307464983626204
  0.5929336190608340  0.4705269934346125  0.4192589063899343
  0.9272418601226966  0.4621408087225081  0.4137857268410233
  0.1039171613522884  0.7788416039389657  0.4500590746117721
  0.5039579816158544  0.7692872012050406  0.4395897362472480
  0.8289887014442703  0.7419561823443328  0.4432229030485619
  0.2008363257823813  0.2161907172858360  0.5217050511172605
  0.5293445285880192  0.2036146424914327  0.5588798947146831
  0.9014263466819197  0.1693925006986994  0.5392537159495430
 
             NaN             NaN             NaN
             NaN             NaN             NaN
             NaN             NaN             NaN
             NaN             NaN             NaN
             NaN             NaN             NaN
             NaN             NaN             NaN
             NaN             NaN             NaN
             NaN             NaN             NaN
             NaN             NaN             NaN
             NaN             NaN             NaN
             NaN             NaN             NaN
             NaN             NaN             NaN
             NaN             NaN             NaN
             NaN             NaN             NaN
             NaN             NaN             NaN
             NaN             NaN             NaN
             NaN             NaN             NaN
             NaN             NaN             NaN
             NaN             NaN             NaN
             NaN             NaN             NaN
             NaN             NaN             NaN
             NaN             NaN             NaN
             NaN             NaN             NaN
             NaN             NaN             NaN
             NaN             NaN             NaN
             NaN             NaN             NaN
             NaN             NaN             NaN
             NaN             NaN             NaN
             NaN             NaN             NaN
             NaN             NaN             NaN
             NaN             NaN             NaN
             NaN             NaN             NaN
             NaN             NaN             NaN
             NaN             NaN             NaN
             NaN             NaN             NaN
             NaN             NaN             NaN
             NaN             NaN             NaN
             NaN             NaN             NaN
             NaN             NaN             NaN
             NaN             NaN             NaN
             NaN             NaN             NaN
             NaN             NaN             NaN
             NaN             NaN             NaN
             NaN             NaN             NaN
             NaN             NaN             NaN
             NaN             NaN             NaN
             NaN             NaN             NaN
             NaN             NaN             NaN
             NaN             NaN             NaN
             NaN             NaN             NaN
             NaN             NaN             NaN
             NaN             NaN             NaN
             NaN             NaN             NaN
             NaN             NaN             NaN
             NaN             NaN             NaN
             NaN             NaN             NaN
             NaN             NaN             NaN
             NaN             NaN             NaN
             NaN             NaN             NaN
             NaN             NaN             NaN
             NaN             NaN             NaN
             NaN             NaN             NaN
             NaN             NaN             NaN
             NaN             NaN             NaN
             NaN             NaN             NaN
             NaN             NaN             NaN
             NaN             NaN             NaN
             NaN             NaN             NaN
