Ca V  O                                 
   1.00000000000000     
    11.0808181762999993    0.0000000000000000    0.0000000000000000
    -1.8468029563999999    7.7866447772000003    0.0000000000000000
     0.0000000000000000   -3.0461372258999999    9.8078967616000003
   Ca   V    O 
     5    18    45
Direct
  0.5339497533626726  0.1294634772220198  0.3311746692797783
  0.0248602812629040  0.0053839793398250  0.3704703429344404
  0.1402756511648372  0.8429719829837544  0.6774337861091408
  0.4869405484667569  0.8789306782311135  0.6595987442216126
  0.8155139523645470  0.9170282461571853  0.6430601447451906
  0.0541690575824623  0.2549988304344901  0.1151633767165108
  0.3797066525240155  0.2444424729620720  0.1077943154297505
  0.7238281762761108  0.2456550290512853  0.1048981605131424
  0.3063306844969274  0.7815817162961723  0.9059205712376786
  0.6417382609396525  0.7823698750073147  0.9007841118593185
  0.9673930894459833  0.7954392117130358  0.9097346783853587
  0.1241443910298619  0.6773283142671006  0.0939287328257136
  0.4527965369372087  0.6593996537877903  0.0917062556558833
  0.7885558307570948  0.6755712468674355  0.1082124692439225
  0.2317990833777135  0.3388756246780426  0.8930500897796743
  0.5708761384532618  0.3487962130865571  0.9098254574155110
  0.9052786166163319  0.3612737688479111  0.9051114006636777
  0.0993284738902113  0.5560044108733769  0.3948427575959235
  0.4402268579720204  0.5488375072838942  0.3936709327365247
  0.7724143921728918  0.5185919212310431  0.3927197651866580
  0.2488369676360194  0.4348534545712127  0.5888023764718519
  0.5810576628810492  0.4259865939505505  0.6027609529950192
  0.9156271691182533  0.3929269628656819  0.5833268249383863
  0.0074694350715097  0.0163497546712861  0.0129075986068887
  0.3450827017699781  0.0067180601873313  0.0055676912423846
  0.6804842289597109  0.0101907223493933  0.0021194382462012
  0.2808810200353092  0.6347189138422334  0.0361717397561793
  0.6166682977481341  0.6389241789789342  0.0510664779111584
  0.9495131778862020  0.6392166072033647  0.0423633939339694
  0.0758132440105784  0.3879718689073645  0.9520360402722245
  0.4050698829910101  0.3757732740859888  0.9510683567318997
  0.7434581099010495  0.3879234730111089  0.9592342262483895
  0.2202890411415893  0.2687460421300723  0.0681902382259930
  0.5553017035315415  0.2708642199414966  0.0782846482351735
  0.8933530438775422  0.2819770894032210  0.0809866384504979
  0.1293275102801666  0.7563866640260770  0.9164754062551902
  0.4686776734352212  0.7378140416160059  0.9244890016167684
  0.7977371723484090  0.7455568626906294  0.9375717583169568
  0.1497430224267837  0.8740685340103234  0.2095620456965159
  0.4763891385461836  0.8547217152538896  0.2077178118272006
  0.8367851264216626  0.8700555947587580  0.2253787844931130
  0.1950769885837463  0.1368910795207936  0.7835727907567621
  0.5467386131069455  0.1487009816177263  0.7996244827812975
  0.8677212850786232  0.1513732983291364  0.8129130420983423
  0.1016016840961773  0.5311346261295737  0.2107299726575098
  0.4268383711433408  0.5177654688536720  0.2077391860957081
  0.7629447598992710  0.5196574692280599  0.2119676995392416
  0.2558128832490935  0.4705595081532609  0.7726049878918182
  0.5938924031123053  0.4853465944751784  0.7862190629957013
  0.9217299911387680  0.4692783970316640  0.7706303600451861
  0.0607989456156776  0.2393897757301926  0.2745032640433789
  0.3768271526641009  0.2342934574069865  0.2704216278747813
  0.7218535147591205  0.2304380282309611  0.2683117862721246
  0.3109437860273146  0.7865449481725760  0.7351444142058765
  0.6471146400716348  0.7935783719190213  0.7320721627795996
  0.9510244615214833  0.8125261103030218  0.7475330088463713
  0.0925400986941636  0.5076531039744409  0.5786180065279054
  0.4292985981893651  0.5006342677972236  0.5751749500342693
  0.7559357310175630  0.4460213141669072  0.5646966488457498
  0.2661670380462795  0.5370497488031103  0.4307574019416489
  0.5929351058517538  0.4705315525503310  0.4192648276521700
  0.9272337228184182  0.4621423653515207  0.4137960777474035
  0.1039031600121444  0.7788406710033513  0.4500637545964139
  0.5039736490486184  0.7693203490471069  0.4395838141168874
  0.8289642950991771  0.7419352082524661  0.4432214291043333
  0.2008316987343105  0.2162365675029033  0.5217221953346710
  0.5293402850846659  0.2036369299184541  0.5589049329264270
  0.9014180754447396  0.1694090197656191  0.5392582453077177
 
             NaN             NaN             NaN
             NaN             NaN             NaN
             NaN             NaN             NaN
             NaN             NaN             NaN
             NaN             NaN             NaN
             NaN             NaN             NaN
             NaN             NaN             NaN
             NaN             NaN             NaN
             NaN             NaN             NaN
             NaN             NaN             NaN
             NaN             NaN             NaN
             NaN             NaN             NaN
             NaN             NaN             NaN
             NaN             NaN             NaN
             NaN             NaN             NaN
             NaN             NaN             NaN
             NaN             NaN             NaN
             NaN             NaN             NaN
             NaN             NaN             NaN
             NaN             NaN             NaN
             NaN             NaN             NaN
             NaN             NaN             NaN
             NaN             NaN             NaN
             NaN             NaN             NaN
             NaN             NaN             NaN
             NaN             NaN             NaN
             NaN             NaN             NaN
             NaN             NaN             NaN
             NaN             NaN             NaN
             NaN             NaN             NaN
             NaN             NaN             NaN
             NaN             NaN             NaN
             NaN             NaN             NaN
             NaN             NaN             NaN
             NaN             NaN             NaN
             NaN             NaN             NaN
             NaN             NaN             NaN
             NaN             NaN             NaN
             NaN             NaN             NaN
             NaN             NaN             NaN
             NaN             NaN             NaN
             NaN             NaN             NaN
             NaN             NaN             NaN
             NaN             NaN             NaN
             NaN             NaN             NaN
             NaN             NaN             NaN
             NaN             NaN             NaN
             NaN             NaN             NaN
             NaN             NaN             NaN
             NaN             NaN             NaN
             NaN             NaN             NaN
             NaN             NaN             NaN
             NaN             NaN             NaN
             NaN             NaN             NaN
             NaN             NaN             NaN
             NaN             NaN             NaN
             NaN             NaN             NaN
             NaN             NaN             NaN
             NaN             NaN             NaN
             NaN             NaN             NaN
             NaN             NaN             NaN
             NaN             NaN             NaN
             NaN             NaN             NaN
             NaN             NaN             NaN
             NaN             NaN             NaN
             NaN             NaN             NaN
             NaN             NaN             NaN
             NaN             NaN             NaN
