Ca V  Fe O 
1.0
       14.2458820343         0.0000000000         0.0000000000
       -2.8984893532        13.9479730534         0.0000000000
       -3.4066806704         2.7716946949        10.2474363660
   Ca    V   Fe    O
   15   32   16   96
Direct
     0.345397443         0.845391035         0.374983668
     0.154602557         0.154608995         0.125016347
     0.154602557         0.154608995         0.625016332
     0.154602557         0.654608965         0.125016347
     0.654602528         0.154608995         0.125016347
     0.654602528         0.154608995         0.625016332
     0.654602528         0.654608965         0.125016347
     0.654602528         0.654608965         0.625016332
     0.345397443         0.345391005         0.374983668
     0.345397443         0.345391005         0.874983668
     0.345397443         0.845391035         0.874983668
     0.845397472         0.345391005         0.374983668
     0.845397472         0.345391005         0.874983668
     0.845397472         0.845391035         0.374983668
     0.845397472         0.845391035         0.874983668
     0.082615197         0.313662648         0.321739763
     0.082615197         0.313662648         0.821739793
     0.082615197         0.813662648         0.321739763
     0.082615197         0.813662648         0.821739793
     0.582615197         0.313662648         0.321739763
     0.582615197         0.313662648         0.821739793
     0.582615197         0.813662648         0.321739763
     0.582615197         0.813662648         0.821739793
     0.186342314         0.417371243         0.071697347
     0.186342314         0.417371243         0.571697354
     0.186342314         0.917371273         0.071697347
     0.186342314         0.917371273         0.571697354
     0.686342299         0.417371243         0.071697347
     0.686342299         0.417371243         0.571697354
     0.686342299         0.917371273         0.071697347
     0.686342299         0.917371273         0.571697354
     0.313657671         0.082628749         0.428302646
     0.313657671         0.082628749         0.928302646
     0.313657671         0.582628727         0.428302646
     0.313657671         0.582628727         0.928302646
     0.813657641         0.082628749         0.428302646
     0.813657641         0.082628749         0.928302646
     0.813657641         0.582628727         0.428302646
     0.813657641         0.582628727         0.928302646
     0.417384803         0.186337352         0.178260222
     0.417384803         0.186337352         0.678260207
     0.417384803         0.686337352         0.178260222
     0.417384803         0.686337352         0.678260207
     0.917384803         0.186337352         0.178260222
     0.917384803         0.186337352         0.678260207
     0.917384803         0.686337352         0.178260222
     0.917384803         0.686337352         0.678260207
     0.036227643         0.036220137         0.374998003
     0.036227643         0.036220137         0.874997973
     0.036227643         0.536220133         0.374998003
     0.036227643         0.536220133         0.874997973
     0.536227643         0.036220137         0.374998003
     0.536227643         0.036220137         0.874997973
     0.536227643         0.536220133         0.374998003
     0.536227643         0.536220133         0.874997973
     0.463772357         0.463779867         0.125001997
     0.463772357         0.463779867         0.625002027
     0.463772357         0.963779867         0.125001997
     0.463772357         0.963779867         0.625002027
     0.963772357         0.463779867         0.125001997
     0.963772357         0.463779867         0.625002027
     0.963772357         0.963779867         0.125001997
     0.963772357         0.963779867         0.625002027
     0.002857176         0.397264540         0.330656677
     0.002857176         0.397264540         0.830656648
     0.002857176         0.897264540         0.330656677
     0.002857176         0.897264540         0.830656648
     0.502857149         0.397264540         0.330656677
     0.502857149         0.397264540         0.830656648
     0.502857149         0.897264540         0.330656677
     0.502857149         0.897264540         0.830656648
     0.032314103         0.185368583         0.369517893
     0.032314103         0.185368583         0.869517922
     0.032314103         0.685368598         0.369517893
     0.032314103         0.685368598         0.869517922
     0.532314122         0.185368583         0.369517893
     0.532314122         0.185368583         0.869517922
     0.532314122         0.685368598         0.369517893
     0.532314122         0.685368598         0.869517922
     0.102721818         0.497144729         0.080672272
     0.102721818         0.497144729         0.580672264
     0.102721818         0.997144699         0.080672272
     0.102721818         0.997144699         0.580672264
     0.602721810         0.497144729         0.080672272
     0.602721810         0.497144729         0.580672264
     0.602721810         0.997144699         0.080672272
     0.602721810         0.997144699         0.580672264
     0.182220444         0.326293617         0.239079341
     0.182220444         0.326293617         0.739079356
     0.182220444         0.826293588         0.239079341
     0.182220444         0.826293588         0.739079356
     0.682220459         0.326293617         0.239079341
     0.682220459         0.326293617         0.739079356
     0.682220459         0.826293588         0.239079341
     0.682220459         0.826293588         0.739079356
     0.185366243         0.032312907         0.380481243
     0.185366243         0.032312907         0.880481243
     0.185366243         0.532312930         0.380481243
     0.185366243         0.532312930         0.880481243
     0.685366273         0.032312907         0.380481243
     0.685366273         0.032312907         0.880481243
     0.685366273         0.532312930         0.380481243
     0.685366273         0.532312930         0.880481243
     0.173740029         0.317797661         0.989089787
     0.173740029         0.317797661         0.489089787
     0.173740029         0.817797661         0.989089787
     0.173740029         0.817797661         0.489089787
     0.673740029         0.317797661         0.989089787
     0.673740029         0.317797661         0.489089787
     0.673740029         0.817797661         0.989089787
     0.673740029         0.817797661         0.489089787
     0.326259971         0.182202324         0.510910213
     0.326259971         0.182202324         0.010910213
     0.326259971         0.682202339         0.510910213
     0.326259971         0.682202339         0.010910213
     0.826259971         0.182202324         0.510910213
     0.826259971         0.182202324         0.010910213
     0.826259971         0.682202339         0.510910213
     0.826259971         0.682202339         0.010910213
     0.314633757         0.467687070         0.119518749
     0.314633757         0.467687070         0.619518757
     0.314633757         0.967687070         0.119518749
     0.314633757         0.967687070         0.619518757
     0.814633727         0.467687070         0.119518749
     0.814633727         0.467687070         0.619518757
     0.814633727         0.967687070         0.119518749
     0.814633727         0.967687070         0.619518757
     0.317779571         0.173706397         0.260920644
     0.317779571         0.173706397         0.760920644
     0.317779571         0.673706412         0.260920644
     0.317779571         0.673706412         0.760920644
     0.817779541         0.173706397         0.260920644
     0.817779541         0.173706397         0.760920644
     0.817779541         0.673706412         0.260920644
     0.817779541         0.673706412         0.760920644
     0.397278190         0.002855299         0.419327706
     0.397278190         0.002855299         0.919327736
     0.397278190         0.502855301         0.419327706
     0.397278190         0.502855301         0.919327736
     0.897278190         0.002855299         0.419327706
     0.897278190         0.002855299         0.919327736
     0.897278190         0.502855301         0.419327706
     0.897278190         0.502855301         0.919327736
     0.467685878         0.314631402         0.130482092
     0.467685878         0.314631402         0.630482078
     0.467685878         0.814631402         0.130482092
     0.467685878         0.814631402         0.630482078
     0.967685878         0.314631402         0.130482092
     0.967685878         0.314631402         0.630482078
     0.967685878         0.814631402         0.130482092
     0.967685878         0.814631402         0.630482078
     0.497142822         0.102735452         0.169343323
     0.497142822         0.102735452         0.669343352
     0.497142822         0.602735460         0.169343323
     0.497142822         0.602735460         0.669343352
     0.997142792         0.102735452         0.169343323
     0.997142792         0.102735452         0.669343352
     0.997142792         0.602735460         0.169343323
     0.997142792         0.602735460         0.669343352
